# vtk DataFile Version 2.0
Test
ASCII
DATASET POLYDATA
POINTS 4535 float
-205.000000 -205.000000 0.000000
205.000000 -205.000000 0.000000
205.000000 205.000000 0.000000
-205.000000 205.000000 0.000000
0.000000 -205.000000 0.000000
-198.166667 -205.000000 0.000000
-191.333333 -205.000000 0.000000
-184.500000 -205.000000 0.000000
-177.666667 -205.000000 0.000000
-170.833333 -205.000000 0.000000
-164.000000 -205.000000 0.000000
-157.166667 -205.000000 0.000000
-150.333333 -205.000000 0.000000
-143.500000 -205.000000 0.000000
-136.666667 -205.000000 0.000000
-129.833333 -205.000000 0.000000
-123.000000 -205.000000 0.000000
-116.166667 -205.000000 0.000000
-109.333333 -205.000000 0.000000
-102.500000 -205.000000 0.000000
-95.666667 -205.000000 0.000000
-88.833333 -205.000000 0.000000
-82.000000 -205.000000 0.000000
-75.166667 -205.000000 0.000000
-68.333333 -205.000000 0.000000
-61.500000 -205.000000 0.000000
-54.666667 -205.000000 0.000000
-47.833333 -205.000000 0.000000
-41.000000 -205.000000 0.000000
-34.166667 -205.000000 0.000000
-27.333333 -205.000000 0.000000
-20.500000 -205.000000 0.000000
-13.666667 -205.000000 0.000000
-6.833333 -205.000000 0.000000
6.833333 -205.000000 0.000000
13.666667 -205.000000 0.000000
20.500000 -205.000000 0.000000
27.333333 -205.000000 0.000000
34.166667 -205.000000 0.000000
41.000000 -205.000000 0.000000
47.833333 -205.000000 0.000000
54.666667 -205.000000 0.000000
61.500000 -205.000000 0.000000
68.333333 -205.000000 0.000000
75.166667 -205.000000 0.000000
82.000000 -205.000000 0.000000
88.833333 -205.000000 0.000000
95.666667 -205.000000 0.000000
102.500000 -205.000000 0.000000
109.333333 -205.000000 0.000000
116.166667 -205.000000 0.000000
123.000000 -205.000000 0.000000
129.833333 -205.000000 0.000000
136.666667 -205.000000 0.000000
143.500000 -205.000000 0.000000
150.333333 -205.000000 0.000000
157.166667 -205.000000 0.000000
164.000000 -205.000000 0.000000
170.833333 -205.000000 0.000000
177.666667 -205.000000 0.000000
184.500000 -205.000000 0.000000
191.333333 -205.000000 0.000000
198.166667 -205.000000 0.000000
205.000000 -198.166667 0.000000
205.000000 -191.333333 0.000000
205.000000 -184.500000 0.000000
205.000000 -177.666667 0.000000
205.000000 -170.833333 0.000000
205.000000 -164.000000 0.000000
205.000000 -157.166667 0.000000
205.000000 -150.333333 0.000000
205.000000 -143.500000 0.000000
205.000000 -136.666667 0.000000
205.000000 -129.833333 0.000000
205.000000 -123.000000 0.000000
205.000000 -116.166667 0.000000
205.000000 -109.333333 0.000000
205.000000 -102.500000 0.000000
205.000000 -95.666667 0.000000
205.000000 -88.833333 0.000000
205.000000 -82.000000 0.000000
205.000000 -75.166667 0.000000
205.000000 -68.333333 0.000000
205.000000 -61.500000 0.000000
205.000000 -54.666667 0.000000
205.000000 -47.833333 0.000000
205.000000 -41.000000 0.000000
205.000000 -34.166667 0.000000
205.000000 -27.333333 0.000000
205.000000 -20.500000 0.000000
205.000000 -13.666667 0.000000
205.000000 -6.833333 0.000000
205.000000 -0.000000 0.000000
205.000000 6.833333 0.000000
205.000000 13.666667 0.000000
205.000000 20.500000 0.000000
205.000000 27.333333 0.000000
205.000000 34.166667 0.000000
205.000000 41.000000 0.000000
205.000000 47.833333 0.000000
205.000000 54.666667 0.000000
205.000000 61.500000 0.000000
205.000000 68.333333 0.000000
205.000000 75.166667 0.000000
205.000000 82.000000 0.000000
205.000000 88.833333 0.000000
205.000000 95.666667 0.000000
205.000000 102.500000 0.000000
205.000000 109.333333 0.000000
205.000000 116.166667 0.000000
205.000000 123.000000 0.000000
205.000000 129.833333 0.000000
205.000000 136.666667 0.000000
205.000000 143.500000 0.000000
205.000000 150.333333 0.000000
205.000000 157.166667 0.000000
205.000000 164.000000 0.000000
205.000000 170.833333 0.000000
205.000000 177.666667 0.000000
205.000000 184.500000 0.000000
205.000000 191.333333 0.000000
205.000000 198.166667 0.000000
198.166667 205.000000 0.000000
191.333333 205.000000 0.000000
184.500000 205.000000 0.000000
177.666667 205.000000 0.000000
170.833333 205.000000 0.000000
164.000000 205.000000 0.000000
157.166667 205.000000 0.000000
150.333333 205.000000 0.000000
143.500000 205.000000 0.000000
136.666667 205.000000 0.000000
129.833333 205.000000 0.000000
123.000000 205.000000 0.000000
116.166667 205.000000 0.000000
109.333333 205.000000 0.000000
102.500000 205.000000 0.000000
95.666667 205.000000 0.000000
88.833333 205.000000 0.000000
82.000000 205.000000 0.000000
75.166667 205.000000 0.000000
68.333333 205.000000 0.000000
61.500000 205.000000 0.000000
54.666667 205.000000 0.000000
47.833333 205.000000 0.000000
41.000000 205.000000 0.000000
34.166667 205.000000 0.000000
27.333333 205.000000 0.000000
20.500000 205.000000 0.000000
13.666667 205.000000 0.000000
6.833333 205.000000 0.000000
0.000000 205.000000 0.000000
-6.833333 205.000000 0.000000
-13.666667 205.000000 0.000000
-20.500000 205.000000 0.000000
-27.333333 205.000000 0.000000
-34.166667 205.000000 0.000000
-41.000000 205.000000 0.000000
-47.833333 205.000000 0.000000
-54.666667 205.000000 0.000000
-61.500000 205.000000 0.000000
-68.333333 205.000000 0.000000
-75.166667 205.000000 0.000000
-82.000000 205.000000 0.000000
-88.833333 205.000000 0.000000
-95.666667 205.000000 0.000000
-102.500000 205.000000 0.000000
-109.333333 205.000000 0.000000
-116.166667 205.000000 0.000000
-123.000000 205.000000 0.000000
-129.833333 205.000000 0.000000
-136.666667 205.000000 0.000000
-143.500000 205.000000 0.000000
-150.333333 205.000000 0.000000
-157.166667 205.000000 0.000000
-164.000000 205.000000 0.000000
-170.833333 205.000000 0.000000
-177.666667 205.000000 0.000000
-184.500000 205.000000 0.000000
-191.333333 205.000000 0.000000
-198.166667 205.000000 0.000000
-205.000000 198.166667 0.000000
-205.000000 191.333333 0.000000
-205.000000 184.500000 0.000000
-205.000000 177.666667 0.000000
-205.000000 170.833333 0.000000
-205.000000 164.000000 0.000000
-205.000000 157.166667 0.000000
-205.000000 150.333333 0.000000
-205.000000 143.500000 0.000000
-205.000000 136.666667 0.000000
-205.000000 129.833333 0.000000
-205.000000 123.000000 0.000000
-205.000000 116.166667 0.000000
-205.000000 109.333333 0.000000
-205.000000 102.500000 0.000000
-205.000000 95.666667 0.000000
-205.000000 88.833333 0.000000
-205.000000 82.000000 0.000000
-205.000000 75.166667 0.000000
-205.000000 68.333333 0.000000
-205.000000 61.500000 0.000000
-205.000000 54.666667 0.000000
-205.000000 47.833333 0.000000
-205.000000 41.000000 0.000000
-205.000000 34.166667 0.000000
-205.000000 27.333333 0.000000
-205.000000 20.500000 0.000000
-205.000000 13.666667 0.000000
-205.000000 6.833333 0.000000
-205.000000 0.000000 0.000000
-205.000000 -6.833333 0.000000
-205.000000 -13.666667 0.000000
-205.000000 -20.500000 0.000000
-205.000000 -27.333333 0.000000
-205.000000 -34.166667 0.000000
-205.000000 -41.000000 0.000000
-205.000000 -47.833333 0.000000
-205.000000 -54.666667 0.000000
-205.000000 -61.500000 0.000000
-205.000000 -68.333333 0.000000
-205.000000 -75.166667 0.000000
-205.000000 -82.000000 0.000000
-205.000000 -88.833333 0.000000
-205.000000 -95.666667 0.000000
-205.000000 -102.500000 0.000000
-205.000000 -109.333333 0.000000
-205.000000 -116.166667 0.000000
-205.000000 -123.000000 0.000000
-205.000000 -129.833333 0.000000
-205.000000 -136.666667 0.000000
-205.000000 -143.500000 0.000000
-205.000000 -150.333333 0.000000
-205.000000 -157.166667 0.000000
-205.000000 -164.000000 0.000000
-205.000000 -170.833333 0.000000
-205.000000 -177.666667 0.000000
-205.000000 -184.500000 0.000000
-205.000000 -191.333333 0.000000
-205.000000 -198.166667 0.000000
97.349412 -133.817677 0.000000
90.188110 -129.912126 0.000000
90.547423 -135.944490 0.000000
96.754216 -127.227092 0.000000
-73.178796 181.435565 0.000000
-78.303682 181.619166 0.000000
-74.971124 176.597422 0.000000
-80.038568 175.762726 0.000000
158.292928 166.204498 0.000000
154.243900 160.294100 0.000000
159.830108 159.346457 0.000000
169.139210 171.723343 0.000000
164.366783 174.816649 0.000000
164.500211 168.260170 0.000000
151.661093 164.721228 0.000000
171.723343 -169.139211 0.000000
174.816649 -164.366783 0.000000
168.253719 -164.493452 0.000000
-197.744999 193.088702 0.000000
-199.714529 186.339413 0.000000
166.204498 -158.292929 0.000000
160.294104 -154.243902 0.000000
159.346401 -159.830083 0.000000
-171.723343 169.139211 0.000000
-174.816649 164.366783 0.000000
-168.260171 164.500212 0.000000
193.088702 197.744999 0.000000
186.339413 199.714529 0.000000
164.721231 -151.661095 0.000000
-169.139211 -171.723343 0.000000
-164.366783 -174.816649 0.000000
-164.493454 -168.253720 0.000000
-158.292931 -166.204500 0.000000
-154.243919 -160.294112 0.000000
-159.830096 -159.346407 0.000000
-151.661103 -164.721237 0.000000
-166.204499 158.292931 0.000000
-160.294112 154.243918 0.000000
-159.346465 159.830122 0.000000
-164.721235 151.661102 0.000000
-156.378435 -154.899485 0.000000
-162.633553 -154.016114 0.000000
-158.889195 -149.552182 0.000000
154.899474 -156.378406 0.000000
154.016107 -162.633531 0.000000
149.552166 -158.889132 0.000000
156.378400 154.899469 0.000000
162.633689 154.016450 0.000000
158.889146 149.552218 0.000000
-154.899487 156.378432 0.000000
-154.016463 162.633714 0.000000
-149.552252 158.889216 0.000000
-180.469375 -73.316753 0.000000
-181.182275 -78.103387 0.000000
-175.886595 -74.613482 0.000000
-175.613640 -79.970383 0.000000
198.957872 -69.895059 0.000000
192.663302 -65.039666 0.000000
193.649249 -71.750761 0.000000
187.386155 -71.377232 0.000000
69.880968 198.941723 0.000000
64.997079 192.645815 0.000000
71.733561 193.627394 0.000000
71.360708 187.344560 0.000000
72.450024 -180.251496 0.000000
78.008049 -181.184844 0.000000
74.637695 -175.959955 0.000000
79.975420 -175.567138 0.000000
-169.115529 6.201554 0.000000
-165.334083 12.682337 0.000000
-172.890996 10.882028 0.000000
191.439175 -77.350691 0.000000
183.357139 -77.345281 0.000000
186.355824 -83.101460 0.000000
181.122724 65.377720 0.000000
185.327866 68.700715 0.000000
179.056207 70.825937 0.000000
77.341886 191.414940 0.000000
77.334117 183.314967 0.000000
83.098543 186.330616 0.000000
98.114498 104.103130 0.000000
93.080723 103.212231 0.000000
97.137611 97.793244 0.000000
-162.566922 4.813579 0.000000
89.230004 97.281000 0.000000
-133.194444 -42.789567 0.000000
-135.642315 -36.852790 0.000000
-139.379442 -41.790059 0.000000
-80.066581 -174.408233 0.000000
-87.731182 -173.431599 0.000000
-82.871762 -180.650461 0.000000
-128.867302 -35.780860 0.000000
-82.476406 -167.111440 0.000000
-100.685462 -80.867307 0.000000
-95.968065 -76.656258 0.000000
-100.973309 -74.633612 0.000000
-76.219161 -194.374555 0.000000
-69.072670 -194.184905 0.000000
-72.385996 -189.329053 0.000000
-93.701922 -81.075518 0.000000
-21.468947 -155.816512 0.000000
-27.358507 -154.327578 0.000000
-27.790218 -161.401479 0.000000
-33.796287 -155.797704 0.000000
-180.403320 -82.905801 0.000000
-174.935673 -85.115862 0.000000
-186.275097 -24.201907 0.000000
-186.018916 -30.087787 0.000000
-180.023575 -28.567063 0.000000
82.884352 -180.383195 0.000000
85.097403 -174.906602 0.000000
121.383485 69.650467 0.000000
122.149685 75.309427 0.000000
116.419566 71.991973 0.000000
-82.999581 180.570653 0.000000
-85.224938 175.036592 0.000000
-145.585180 -179.581239 0.000000
-143.380990 -185.344017 0.000000
-139.696434 -180.497540 0.000000
-183.037023 -34.811796 0.000000
-179.581238 145.585180 0.000000
-185.344016 143.380990 0.000000
-180.497536 139.696432 0.000000
24.035529 -185.478718 0.000000
30.148323 -185.843979 0.000000
28.155322 -178.942376 0.000000
179.581232 -145.585165 0.000000
185.344013 -143.380979 0.000000
180.497519 -139.696399 0.000000
34.951926 -182.554506 0.000000
145.585164 179.581229 0.000000
143.380977 185.344011 0.000000
139.696396 180.497511 0.000000
180.648021 81.277729 0.000000
174.736227 85.185400 0.000000
175.010636 79.512427 0.000000
4.930546 170.573733 0.000000
-0.092238 175.220460 0.000000
-2.228063 168.834452 0.000000
-151.632071 -178.428712 0.000000
-152.442375 -185.703506 0.000000
-148.105484 -183.969820 0.000000
4.473340 177.678938 0.000000
57.549369 -95.207962 0.000000
54.477889 -91.511316 0.000000
52.283974 -97.624292 0.000000
48.802783 -90.621258 0.000000
166.389661 54.659236 0.000000
170.298285 50.402423 0.000000
173.090104 57.555592 0.000000
-62.204225 -194.699250 0.000000
-66.410593 -199.331823 0.000000
-65.205929 -188.011534 0.000000
176.312381 50.714943 0.000000
178.428709 -151.632064 0.000000
185.703504 -152.442371 0.000000
183.969816 -148.105476 0.000000
-42.127772 -142.412325 0.000000
-35.857117 -136.578687 0.000000
-43.692542 -135.575591 0.000000
-194.612887 62.128446 0.000000
-193.525706 69.521407 0.000000
-199.363830 66.280133 0.000000
-187.549633 64.407117 0.000000
-35.712357 -144.377655 0.000000
-72.361896 -176.134784 0.000000
-71.863012 -183.693991 0.000000
-65.073885 -180.937766 0.000000
-14.647295 186.054370 0.000000
-20.341097 184.328001 0.000000
-16.727076 179.335520 0.000000
-24.405457 180.506534 0.000000
151.631994 178.428628 0.000000
152.445769 185.711548 0.000000
148.105469 183.969808 0.000000
-200.825156 180.983607 0.000000
158.440433 -22.067141 0.000000
165.930128 -21.694497 0.000000
163.290239 -15.941372 0.000000
164.461319 -27.592051 0.000000
-117.144456 -9.929331 0.000000
-122.806526 -10.345270 0.000000
-118.213422 -15.880806 0.000000
154.901000 32.363309 0.000000
161.903870 28.806456 0.000000
160.843790 34.557110 0.000000
20.162194 -64.247802 0.000000
25.277215 -67.214194 0.000000
26.619160 -60.377230 0.000000
172.137006 16.482205 0.000000
173.680269 7.419654 0.000000
178.899120 12.361582 0.000000
71.657772 -195.648886 0.000000
66.002794 -198.759622 0.000000
71.328934 -201.107178 0.000000
180.983607 200.825156 0.000000
-178.428632 151.632001 0.000000
-185.711551 152.445774 0.000000
-183.969812 148.105478 0.000000
67.559574 -193.325377 0.000000
82.692488 -143.029427 0.000000
81.949547 -148.483381 0.000000
87.577869 -146.114171 0.000000
-143.047606 -159.429354 0.000000
-138.617391 -163.394534 0.000000
-138.326115 -158.418470 0.000000
86.353367 -152.558676 0.000000
-159.429343 143.047603 0.000000
-163.394496 138.617391 0.000000
-158.418463 138.326114 0.000000
200.844507 -180.982788 0.000000
-169.162491 28.843059 0.000000
-166.361988 32.524535 0.000000
-171.953394 34.494922 0.000000
143.047527 159.429278 0.000000
138.617277 163.394379 0.000000
138.326097 158.418430 0.000000
-165.729514 37.568285 0.000000
159.429306 -143.047533 0.000000
163.394441 -138.617279 0.000000
158.418444 -138.326100 0.000000
-27.884495 -168.973314 0.000000
-32.386400 -165.940873 0.000000
-34.398834 -171.890187 0.000000
-127.612399 -185.064916 0.000000
-122.597527 -188.889695 0.000000
-122.038154 -182.594001 0.000000
-180.982788 -200.844507 0.000000
-37.698992 -165.387030 0.000000
-185.064909 127.612391 0.000000
-188.889657 122.597518 0.000000
-182.593814 122.038143 0.000000
-140.025568 76.870039 0.000000
-132.019964 78.849054 0.000000
-139.205392 84.573876 0.000000
185.064879 -127.612281 0.000000
188.889427 -122.597337 0.000000
182.593219 -122.037723 0.000000
-199.231088 -181.166817 0.000000
-132.543364 85.925756 0.000000
127.612270 185.064867 0.000000
122.597326 188.889363 0.000000
122.037722 182.592999 0.000000
-150.724170 -16.683652 0.000000
-144.002567 -20.289757 0.000000
-144.674986 -13.835102 0.000000
-4.493213 16.592719 0.000000
-2.364810 21.513015 0.000000
-7.546180 21.045563 0.000000
-186.205170 197.071586 0.000000
-180.178409 199.086890 0.000000
-70.684922 -141.049444 0.000000
-73.204387 -145.881734 0.000000
-66.393004 -144.983831 0.000000
-76.698155 -141.025777 0.000000
-5.298428 26.311587 0.000000
165.869076 33.775178 0.000000
197.071586 186.205170 0.000000
199.086890 180.178409 0.000000
116.357994 76.856269 0.000000
111.622466 74.934011 0.000000
110.692556 69.084047 0.000000
-179.672935 -40.228087 0.000000
-174.371587 -39.770474 0.000000
-176.485309 -34.629346 0.000000
-170.651946 -36.378124 0.000000
72.935901 -153.824575 0.000000
77.054957 -150.240917 0.000000
72.563242 -148.263426 0.000000
181.166817 -199.231088 0.000000
79.287152 -155.089601 0.000000
173.016684 45.333123 0.000000
167.173932 44.852894 0.000000
-105.212579 98.097175 0.000000
-104.022085 93.885660 0.000000
-99.500258 97.600772 0.000000
-98.886059 89.465033 0.000000
141.581696 88.370440 0.000000
135.838257 91.604851 0.000000
135.215898 84.107193 0.000000
-104.000927 102.691560 0.000000
129.661893 88.771394 0.000000
113.591820 90.932971 0.000000
116.670107 85.591382 0.000000
119.608261 91.169801 0.000000
28.938041 187.376007 0.000000
29.627651 194.276288 0.000000
25.172952 191.059048 0.000000
34.571728 190.642350 0.000000
123.437795 85.665642 0.000000
-189.415570 30.162394 0.000000
-195.060180 29.562469 0.000000
-191.913991 25.699590 0.000000
116.422450 96.417376 0.000000
-193.573080 35.160816 0.000000
-30.189244 -189.396091 0.000000
-29.579689 -195.048051 0.000000
-25.726810 -191.894117 0.000000
-35.178509 -193.562836 0.000000
-141.644192 71.114779 0.000000
-145.930494 73.273513 0.000000
-144.887953 66.493821 0.000000
-151.352011 69.444104 0.000000
-198.777515 175.725014 0.000000
122.311569 96.709878 0.000000
-191.057856 177.883220 0.000000
-188.746749 184.116977 0.000000
-195.522243 182.239318 0.000000
55.857947 139.266293 0.000000
49.876335 143.136843 0.000000
48.584453 137.769349 0.000000
54.861115 146.460583 0.000000
-191.876956 194.469431 0.000000
-193.954446 188.415587 0.000000
-188.291451 190.654688 0.000000
-155.410755 -92.460214 0.000000
-157.520863 -86.903318 0.000000
-164.139668 -92.129372 0.000000
188.779171 15.483275 0.000000
192.496794 11.713244 0.000000
193.453281 17.004387 0.000000
175.725014 198.777515 0.000000
198.437741 15.509558 0.000000
177.883220 191.057856 0.000000
184.116977 188.746748 0.000000
182.239318 195.522243 0.000000
164.543829 158.112768 0.000000
162.887901 162.551457 0.000000
89.843711 -119.087594 0.000000
92.918352 -114.784529 0.000000
86.884683 -114.930231 0.000000
194.469431 191.876956 0.000000
188.415587 193.954446 0.000000
190.654688 188.291451 0.000000
96.145692 -120.147774 0.000000
158.112769 -164.543831 0.000000
162.551457 -162.887901 0.000000
199.110340 -175.795756 0.000000
63.354992 -96.722824 0.000000
62.975916 -102.815210 0.000000
68.501132 -101.761570 0.000000
192.615635 -178.490090 0.000000
190.639258 -184.484549 0.000000
196.464381 -182.622843 0.000000
-158.112772 164.543834 0.000000
-162.551458 162.887903 0.000000
66.057569 -107.273681 0.000000
-164.543835 -158.112771 0.000000
-162.887903 -162.551458 0.000000
-162.225304 -83.736869 0.000000
118.609168 -91.641490 0.000000
118.838024 -98.828196 0.000000
124.388276 -96.607800 0.000000
-175.795756 -199.110340 0.000000
119.254153 80.617888 0.000000
-178.490090 -192.615635 0.000000
-184.484549 -190.639258 0.000000
-182.622843 -196.464381 0.000000
112.602159 -97.423153 0.000000
146.787123 54.668177 0.000000
145.121767 60.038806 0.000000
142.337897 55.138346 0.000000
-200.423331 -175.291198 0.000000
140.042127 60.135919 0.000000
148.918312 49.677137 0.000000
151.084787 54.604628 0.000000
-174.985031 200.395231 0.000000
153.806674 50.589341 0.000000
190.912901 -12.945967 0.000000
186.094639 -16.713867 0.000000
191.553289 -19.511336 0.000000
200.395231 174.985031 0.000000
195.092032 -188.820785 0.000000
188.786553 -190.548587 0.000000
152.748328 151.671029 0.000000
146.932515 154.129925 0.000000
148.965282 147.907994 0.000000
185.352124 -10.463774 0.000000
175.291198 -200.423331 0.000000
-188.820785 -195.092032 0.000000
-190.548587 -188.786553 0.000000
151.671045 -152.748344 0.000000
154.129947 -146.932527 0.000000
147.907989 -148.965307 0.000000
41.982329 -167.804934 0.000000
41.221757 -172.843200 0.000000
46.906854 -169.955252 0.000000
-193.041554 -183.155301 0.000000
-186.838468 -184.755624 0.000000
-188.977726 -180.156361 0.000000
46.477897 -175.809244 0.000000
-148.863016 -67.484624 0.000000
-143.633661 -61.826829 0.000000
-148.823585 -61.121716 0.000000
46.305726 156.130436 0.000000
42.102103 161.097658 0.000000
39.451421 154.488471 0.000000
-141.668014 -66.588807 0.000000
-151.717597 -57.803550 0.000000
-153.559365 -62.928578 0.000000
49.457888 161.914714 0.000000
183.155301 -193.041554 0.000000
184.755624 -186.838468 0.000000
180.156361 -188.977726 0.000000
146.056190 136.406748 0.000000
151.916568 141.065304 0.000000
143.686972 143.733674 0.000000
-200.222647 169.231323 0.000000
151.505946 134.187893 0.000000
46.479549 181.024769 0.000000
52.021322 187.512658 0.000000
44.893259 189.223617 0.000000
136.405406 -146.055818 0.000000
141.065148 -151.916586 0.000000
143.733685 -143.687034 0.000000
-123.740280 -15.735589 0.000000
-65.114353 48.127314 0.000000
-67.358489 41.162892 0.000000
-60.795538 42.191009 0.000000
134.186635 -151.506225 0.000000
-151.671079 152.748430 0.000000
-154.130007 146.932656 0.000000
-147.908191 148.965786 0.000000
169.231323 200.222647 0.000000
-136.407638 146.059230 0.000000
-141.065598 151.917452 0.000000
-143.734296 143.688709 0.000000
52.554109 181.729976 0.000000
-134.188568 151.507724 0.000000
-72.444146 44.122967 0.000000
-9.374807 -88.162233 0.000000
-7.987198 -81.134072 0.000000
-16.093299 -84.269385 0.000000
-146.059032 -136.405479 0.000000
-151.917468 -141.065231 0.000000
-143.688779 -143.733941 0.000000
-151.508219 -134.186642 0.000000
200.239955 -169.248092 0.000000
193.845206 -171.268622 0.000000
188.711216 -175.948770 0.000000
186.923410 -180.819997 0.000000
-152.748440 -151.671074 0.000000
-146.932665 -154.129999 0.000000
-148.965808 -147.908075 0.000000
-169.248092 -200.239955 0.000000
-171.268622 -193.845206 0.000000
-175.948770 -188.711216 0.000000
-180.819997 -186.923410 0.000000
176.571648 -194.094695 0.000000
-198.978026 -170.233342 0.000000
-27.131805 -0.337489 0.000000
-23.586846 -4.310662 0.000000
-21.099830 0.820590 0.000000
-17.620463 -4.839765 0.000000
-194.094695 -176.571648 0.000000
-170.227260 198.962172 0.000000
-115.553978 -3.989236 0.000000
-113.636367 1.801496 0.000000
-120.074894 1.062944 0.000000
-116.917222 7.275420 0.000000
198.962172 170.227260 0.000000
170.233342 -198.978026 0.000000
-188.311644 -153.572662 0.000000
-194.894597 -158.952561 0.000000
-186.309724 -159.799506 0.000000
-187.246940 -175.948780 0.000000
-183.471107 -180.929739 0.000000
-194.208984 -150.827070 0.000000
-153.578884 188.302697 0.000000
-158.284780 193.872236 0.000000
-159.765370 186.086478 0.000000
-176.255368 194.051752 0.000000
-150.827038 194.206319 0.000000
188.302695 153.578881 0.000000
193.872236 158.284779 0.000000
186.086477 159.765368 0.000000
194.051752 176.255368 0.000000
175.948780 -187.246940 0.000000
180.929739 -183.471107 0.000000
171.237632 193.814705 0.000000
-198.512038 164.147109 0.000000
194.206317 150.827036 0.000000
153.572661 -188.311643 0.000000
158.952560 -194.894596 0.000000
159.799505 -186.309723 0.000000
-193.814705 171.237632 0.000000
150.827069 -194.208983 0.000000
-5.864711 -106.381099 0.000000
-11.396249 -111.556059 0.000000
-4.273414 -112.584257 0.000000
-76.403098 -151.289993 0.000000
-80.234880 -145.971888 0.000000
164.147109 198.512038 0.000000
-82.872749 -151.111953 0.000000
-66.667556 190.904094 0.000000
-61.557720 192.356092 0.000000
-65.558959 198.173857 0.000000
-8.194037 -116.123390 0.000000
199.910639 -193.269607 0.000000
200.484515 -187.163088 0.000000
198.520078 -164.155906 0.000000
186.770049 -171.580890 0.000000
183.401779 -177.584251 0.000000
194.340994 -194.467338 0.000000
-164.155906 -198.520078 0.000000
-171.580891 -186.770050 0.000000
-177.584252 -183.401779 0.000000
-192.073274 -170.087986 0.000000
-197.276853 -164.615887 0.000000
-157.806945 -57.217127 0.000000
-70.957663 195.044944 0.000000
114.625236 3.595256 0.000000
113.010762 -1.676563 0.000000
120.142393 -1.392338 0.000000
-170.692353 192.066553 0.000000
-177.510431 187.768519 0.000000
-164.597472 197.259494 0.000000
-71.929598 189.404851 0.000000
91.925023 91.219141 0.000000
98.821628 91.106612 0.000000
115.723753 -7.970706 0.000000
192.066553 170.692353 0.000000
187.768519 177.510431 0.000000
197.259494 164.597472 0.000000
170.087986 -192.073274 0.000000
164.615887 -197.276853 0.000000
67.041793 -130.118496 0.000000
64.505816 -136.145324 0.000000
71.330702 -135.793680 0.000000
-184.555548 -170.812675 0.000000
-180.309291 -177.134274 0.000000
-171.388815 184.702102 0.000000
-178.016782 180.384669 0.000000
184.702101 171.388815 0.000000
180.384668 178.016782 0.000000
170.812675 -184.555548 0.000000
177.134273 -180.309291 0.000000
-191.078072 164.706547 0.000000
-187.571686 171.962329 0.000000
-195.956803 158.540488 0.000000
-193.269607 -199.910639 0.000000
-187.163088 -200.484515 0.000000
-183.877397 166.698659 0.000000
-180.641185 173.710727 0.000000
-183.345654 185.750633 0.000000
-184.901002 178.549216 0.000000
164.706546 191.078072 0.000000
171.962328 187.571686 0.000000
158.540487 195.956803 0.000000
166.698659 183.877397 0.000000
173.710727 180.641185 0.000000
185.750633 183.345654 0.000000
178.549216 184.901002 0.000000
191.084233 -164.712547 0.000000
195.951073 -158.539507 0.000000
-194.467338 -194.340994 0.000000
183.635875 -166.595699 0.000000
179.941987 -173.375453 0.000000
-164.712547 -191.084233 0.000000
-158.539508 -195.951073 0.000000
-194.968000 199.402861 0.000000
-200.979944 198.665261 0.000000
-166.595700 -183.635875 0.000000
-173.375453 -179.941987 0.000000
-190.051553 -164.499836 0.000000
60.644970 -130.530473 0.000000
-164.715739 189.758872 0.000000
-119.456894 -89.896122 0.000000
-114.522942 -93.496347 0.000000
-114.834383 -86.629399 0.000000
-189.776692 200.188776 0.000000
189.758872 164.715739 0.000000
-121.886900 -95.495591 0.000000
199.402861 194.968000 0.000000
198.665261 200.979944 0.000000
164.499836 -190.051553 0.000000
-103.689323 -32.954532 0.000000
-110.221852 -31.044693 0.000000
-107.556297 -38.177423 0.000000
-182.029780 -165.434494 0.000000
-175.622447 -171.770681 0.000000
-165.650060 182.024056 0.000000
-172.283526 175.970961 0.000000
182.024056 165.650059 0.000000
175.970961 172.283526 0.000000
165.434494 -182.029780 0.000000
171.770681 -175.622447 0.000000
-187.381269 159.104618 0.000000
200.188776 189.776692 0.000000
-179.838212 162.304826 0.000000
-177.196719 168.698528 0.000000
-193.533543 152.123707 0.000000
159.104617 187.381268 0.000000
-182.607511 193.029729 0.000000
162.304825 179.838211 0.000000
168.698527 177.196718 0.000000
152.123704 193.533542 0.000000
187.332685 -159.083941 0.000000
193.029729 182.607511 0.000000
179.747035 -162.261228 0.000000
176.939262 -168.560137 0.000000
193.533543 -152.123705 0.000000
-159.083943 -187.332685 0.000000
130.008375 171.004752 0.000000
131.194986 175.613772 0.000000
125.752277 173.678919 0.000000
-162.261229 -179.747036 0.000000
-168.560137 -176.939262 0.000000
-152.123707 -193.533544 0.000000
126.754042 179.265820 0.000000
120.892109 176.923157 0.000000
171.004940 -130.008368 0.000000
175.613823 -131.194991 0.000000
173.679181 -125.752268 0.000000
179.265968 -126.754044 0.000000
-179.700207 -160.151395 0.000000
150.766446 156.279206 0.000000
-127.267714 83.687728 0.000000
-127.697463 90.102119 0.000000
-160.176668 179.690443 0.000000
148.655434 160.272645 0.000000
-122.610840 85.422556 0.000000
179.690442 160.176667 0.000000
156.279211 -150.766449 0.000000
-120.166224 91.193421 0.000000
-123.616033 97.095030 0.000000
160.151394 -179.700206 0.000000
160.272657 -148.655439 0.000000
-156.279217 150.766458 0.000000
-160.272678 148.655480 0.000000
-150.766459 -156.279219 0.000000
-148.655483 -160.272680 0.000000
176.923535 -120.892096 0.000000
-135.167684 -172.119460 0.000000
-131.195121 -175.613969 0.000000
-130.008620 -171.005235 0.000000
-171.005092 130.008639 0.000000
-175.613939 131.195116 0.000000
-173.679612 125.752682 0.000000
-179.266303 126.754332 0.000000
-172.119440 135.167681 0.000000
-176.924444 120.892767 0.000000
172.119379 -135.167581 0.000000
-125.752667 -173.679809 0.000000
135.167577 172.119344 0.000000
-126.754332 -179.266419 0.000000
-120.892750 -176.924762 0.000000
167.656004 161.797025 0.000000
-154.982060 169.431674 0.000000
171.110612 166.644287 0.000000
-169.430751 -154.980102 0.000000
161.789333 -167.648114 0.000000
154.980099 -169.430742 0.000000
166.606540 -171.070954 0.000000
-161.797027 167.656007 0.000000
169.431663 154.982053 0.000000
-166.644288 171.110613 0.000000
-167.648117 -161.789334 0.000000
-171.070955 -166.606541 0.000000
117.670202 157.975081 0.000000
117.874665 164.375492 0.000000
111.384942 162.774163 0.000000
-13.464884 -76.873686 0.000000
112.652543 170.949801 0.000000
-164.780971 44.597835 0.000000
-158.573467 44.729834 0.000000
-160.262616 50.922524 0.000000
158.060807 -115.613335 0.000000
164.377901 -117.874456 0.000000
162.782333 -111.384229 0.000000
170.953496 -112.652271 0.000000
157.895945 -119.894263 0.000000
-158.014182 115.574609 0.000000
-164.375962 117.875503 0.000000
-162.745831 111.340533 0.000000
-170.926480 112.792369 0.000000
-157.886577 119.888917 0.000000
-153.918787 48.818396 0.000000
-115.590508 -158.008165 0.000000
-117.874868 -164.378189 0.000000
-111.336719 -162.754966 0.000000
-112.783531 -170.933604 0.000000
-119.891884 -157.886667 0.000000
-49.364770 16.092982 0.000000
-49.628796 22.185469 0.000000
-54.462680 17.657626 0.000000
-172.548497 -124.859562 0.000000
-174.331903 -130.394792 0.000000
-169.915565 -129.555538 0.000000
-177.527034 -125.785163 0.000000
124.859599 -172.547666 0.000000
130.394787 -174.331675 0.000000
129.555528 -169.915387 0.000000
125.785148 -177.526739 0.000000
-124.861180 172.546665 0.000000
-130.395138 174.331629 0.000000
-129.555661 169.915608 0.000000
-125.785405 177.527185 0.000000
172.546062 124.860778 0.000000
174.331414 130.395027 0.000000
169.915377 129.555587 0.000000
177.526825 125.785305 0.000000
-59.682366 -147.445434 0.000000
-60.932289 -142.144046 0.000000
118.502248 -163.511783 0.000000
124.974441 -165.931673 0.000000
123.056899 -160.413698 0.000000
118.864201 -170.032616 0.000000
131.601278 -164.630572 0.000000
128.298306 -159.614687 0.000000
-147.205744 166.729005 0.000000
-166.729006 -147.205737 0.000000
163.512562 118.503230 0.000000
165.931892 124.974831 0.000000
160.413773 123.057474 0.000000
147.205731 -166.728991 0.000000
170.031948 118.865951 0.000000
166.728986 147.205732 0.000000
164.630538 131.601323 0.000000
159.614551 128.298861 0.000000
-163.513981 -118.502109 0.000000
-165.932646 -124.974404 0.000000
-160.415352 -123.056826 0.000000
-170.034700 -118.864051 0.000000
-164.630796 -131.601291 0.000000
-159.615765 -128.298282 0.000000
-118.504539 163.513749 0.000000
-124.975305 165.932620 0.000000
-123.058245 160.414890 0.000000
-118.867175 170.032918 0.000000
-169.748295 -135.022703 0.000000
-163.495699 -136.902602 0.000000
-131.601413 164.630817 0.000000
-128.299407 159.615320 0.000000
-135.022720 169.748298 0.000000
-136.902651 163.495699 0.000000
-87.862111 -155.047148 0.000000
-92.758159 -161.255168 0.000000
-84.998545 -161.547507 0.000000
-93.874876 -168.908752 0.000000
-89.216350 -165.829025 0.000000
169.748258 135.022694 0.000000
163.495580 136.902600 0.000000
-114.457345 -37.133816 0.000000
135.022691 -169.748267 0.000000
136.902588 -163.495603 0.000000
-155.181878 87.738740 0.000000
-161.187219 92.529054 0.000000
-161.661631 85.273885 0.000000
-168.898282 94.224619 0.000000
-165.464692 89.326814 0.000000
128.401958 190.488174 0.000000
133.220953 187.916861 0.000000
133.467470 181.662394 0.000000
190.488195 -128.401965 0.000000
187.916871 -133.220959 0.000000
181.662409 -133.467476 0.000000
-190.488266 128.402049 0.000000
-187.916900 133.221014 0.000000
-181.662447 133.467543 0.000000
-128.402054 -190.488278 0.000000
-133.221018 -187.916905 0.000000
-133.467548 -181.662456 0.000000
134.897627 154.725273 0.000000
133.637273 160.642427 0.000000
140.472716 153.578153 0.000000
-154.725687 134.898055 0.000000
-160.642725 133.637578 0.000000
-153.578257 140.472826 0.000000
-134.898064 -154.725814 0.000000
-133.637580 -160.642816 0.000000
-140.472834 -153.578281 0.000000
154.725495 -134.897636 0.000000
160.642583 -133.637274 0.000000
153.578200 -140.472729 0.000000
116.593883 180.281155 0.000000
117.776703 185.133633 0.000000
180.281592 -116.593875 0.000000
185.133911 -117.776704 0.000000
-180.282833 116.594639 0.000000
-185.134739 117.777209 0.000000
-116.594677 -180.283224 0.000000
-117.777240 -185.134992 0.000000
-74.309864 113.073142 0.000000
-72.834367 117.971152 0.000000
-77.912658 118.073553 0.000000
-128.334946 147.840540 0.000000
-124.890311 154.926301 0.000000
-130.147111 153.841077 0.000000
146.644808 -188.389963 0.000000
139.131335 -188.614025 0.000000
143.996567 -194.365839 0.000000
147.836468 128.333249 0.000000
154.924377 124.888662 0.000000
153.840793 130.146892 0.000000
137.473796 -194.937428 0.000000
128.328747 -147.838030 0.000000
124.886276 -154.925305 0.000000
130.146891 -153.840888 0.000000
142.993108 -183.454369 0.000000
-147.842990 -128.328501 0.000000
-154.928499 -124.886074 0.000000
-153.841138 -130.146988 0.000000
188.389962 146.644811 0.000000
188.614023 139.131342 0.000000
194.365839 143.996570 0.000000
194.937428 137.473804 0.000000
183.454367 142.993114 0.000000
-188.389966 -146.644811 0.000000
-188.614031 -139.131340 0.000000
-194.365842 -143.996569 0.000000
-194.937436 -137.473801 0.000000
-183.454375 -142.993113 0.000000
-146.644817 188.389966 0.000000
-139.131353 188.614032 0.000000
-143.996575 194.365843 0.000000
-137.473814 194.937442 0.000000
-136.609698 -176.934297 0.000000
-141.562551 -173.796376 0.000000
-138.646623 -168.516764 0.000000
-176.934286 136.609696 0.000000
-173.796373 141.562549 0.000000
-168.516754 138.646621 0.000000
176.934247 -136.609639 0.000000
173.796362 -141.562523 0.000000
168.516733 -138.646561 0.000000
136.609635 176.934229 0.000000
141.562520 173.796355 0.000000
138.646558 168.516715 0.000000
-113.198579 -184.541426 0.000000
-115.992576 -191.072920 0.000000
-184.543055 113.215561 0.000000
-191.072716 115.992553 0.000000
184.573674 -113.020328 0.000000
191.071904 -115.992108 0.000000
113.020370 184.572755 0.000000
115.992106 191.071659 0.000000
-142.993123 183.454375 0.000000
-158.048277 -174.084213 0.000000
-174.083932 158.048039 0.000000
174.084211 -158.048275 0.000000
158.048038 174.083930 0.000000
111.287323 178.507785 0.000000
115.874928 175.588157 0.000000
178.508983 -111.287252 0.000000
175.589098 -115.874873 0.000000
-178.322717 112.165573 0.000000
-175.591092 115.876402 0.000000
-112.143329 -178.325567 0.000000
-115.876232 -175.592007 0.000000
157.490487 -129.073031 0.000000
162.961613 -128.511439 0.000000
129.073056 157.489934 0.000000
128.511430 162.961531 0.000000
-129.074042 -157.491216 0.000000
-128.511594 -162.961830 0.000000
-157.490884 129.074050 0.000000
-162.961786 128.511588 0.000000
-125.449106 -167.323937 0.000000
-119.662059 -171.435547 0.000000
-167.323331 125.449258 0.000000
-171.434306 119.662443 0.000000
167.323305 -125.448672 0.000000
171.433757 -119.661270 0.000000
125.436289 167.263107 0.000000
119.661360 171.432501 0.000000
132.765084 166.577289 0.000000
166.577437 -132.765081 0.000000
-166.577536 132.765286 0.000000
-132.765273 -166.577644 0.000000
160.154014 142.708029 0.000000
157.879713 134.987272 0.000000
154.691462 146.812601 0.000000
123.480834 160.811269 0.000000
161.228306 -123.567825 0.000000
-161.229024 123.568665 0.000000
-123.568659 -161.229307 0.000000
142.708027 -160.154041 0.000000
134.986982 -157.879800 0.000000
143.871868 149.771169 0.000000
149.771225 -143.871886 0.000000
-149.771287 143.872010 0.000000
-143.872022 -149.771311 0.000000
146.812609 -154.691481 0.000000
-160.154164 -142.708050 0.000000
-157.880464 -134.987012 0.000000
130.500846 151.694079 0.000000
137.577594 149.031184 0.000000
151.695311 -130.500813 0.000000
149.031665 -137.577640 0.000000
-151.695669 130.503329 0.000000
-149.031960 137.579003 0.000000
-130.503321 -151.696402 0.000000
-137.579049 -149.032160 0.000000
-107.741193 -182.839559 0.000000
-108.942461 -189.592298 0.000000
-182.853299 107.820940 0.000000
-189.592026 108.942452 0.000000
182.855285 -107.530345 0.000000
189.590369 -108.941686 0.000000
107.530508 182.852374 0.000000
108.941695 189.589922 0.000000
-154.691573 -146.812633 0.000000
-142.708088 160.154153 0.000000
-134.987548 157.880320 0.000000
-146.812648 154.691562 0.000000
133.452759 -190.572789 0.000000
132.556563 -195.902676 0.000000
136.163848 -183.343738 0.000000
135.736542 128.806433 0.000000
140.960810 132.257018 0.000000
134.792644 134.642263 0.000000
141.511711 126.647437 0.000000
128.795503 -135.714109 0.000000
132.252896 -140.956101 0.000000
134.642380 -134.784503 0.000000
126.637739 -141.511693 0.000000
-128.809297 135.754177 0.000000
-132.258689 140.968552 0.000000
-134.644692 134.802959 0.000000
-126.648972 141.520648 0.000000
-135.732533 -128.794793 0.000000
-140.964214 -132.252810 0.000000
-134.795059 -134.642819 0.000000
-141.521087 -126.637231 0.000000
-190.572816 -133.452769 0.000000
-195.902692 -132.556570 0.000000
-183.343761 -136.163859 0.000000
190.572794 133.452784 0.000000
195.902679 132.556578 0.000000
183.343736 136.163869 0.000000
-133.452806 190.572835 0.000000
-132.556594 195.902705 0.000000
-136.163892 183.343769 0.000000
125.184595 148.247807 0.000000
118.053210 151.141757 0.000000
119.982969 143.033979 0.000000
127.039794 142.274793 0.000000
131.909080 146.005401 0.000000
154.666858 -124.362965 0.000000
124.363123 154.664875 0.000000
-124.366113 -154.668350 0.000000
-154.667046 124.366238 0.000000
-174.164449 -52.458990 0.000000
-180.821164 -50.548439 0.000000
-180.016301 -57.442410 0.000000
-176.097436 -45.408059 0.000000
53.338480 -172.855460 0.000000
51.560690 -179.851034 0.000000
57.191208 -179.466824 0.000000
-182.665727 -113.820556 0.000000
-183.843157 -118.415135 0.000000
-177.549131 -119.583427 0.000000
-189.887417 -115.893310 0.000000
-113.846659 182.604925 0.000000
-118.415562 183.843566 0.000000
-119.588393 177.540027 0.000000
-115.893639 189.887788 0.000000
113.820633 -182.664201 0.000000
118.415104 -183.842603 0.000000
119.583488 -177.547908 0.000000
115.893277 -189.887057 0.000000
182.603161 113.846169 0.000000
183.842859 118.415423 0.000000
177.538917 119.587967 0.000000
189.887238 115.893549 0.000000
-53.564881 175.528894 0.000000
-52.466098 181.488566 0.000000
-57.956652 180.654710 0.000000
-46.796439 177.444249 0.000000
129.611796 131.979597 0.000000
129.541306 137.205377 0.000000
132.089052 -129.407330 0.000000
137.241501 -129.477093 0.000000
-131.849487 129.474295 0.000000
-137.208130 129.546897 0.000000
-129.466118 -132.085417 0.000000
-129.547162 -137.209161 0.000000
106.563776 175.712425 0.000000
175.717314 -106.563469 0.000000
-175.739544 106.693528 0.000000
-106.665762 -175.763580 0.000000
182.708870 50.736742 0.000000
181.204518 55.979318 0.000000
180.354074 44.890825 0.000000
148.250836 -125.184469 0.000000
151.145855 -118.052734 0.000000
143.041757 -119.982695 0.000000
142.278048 -127.039837 0.000000
146.006526 -131.909135 0.000000
-148.251476 125.190979 0.000000
-151.146672 118.059570 0.000000
-143.042748 120.001215 0.000000
-142.278501 127.047638 0.000000
-146.006958 131.911647 0.000000
-125.190953 -148.253298 0.000000
-118.059275 -151.149325 0.000000
-120.001217 -143.047429 0.000000
-127.047761 -142.280313 0.000000
105.372064 -184.331372 0.000000
108.898040 -181.537559 0.000000
105.163611 -177.522148 0.000000
110.921432 -173.905817 0.000000
-184.335482 -105.371780 0.000000
-181.540643 -108.897797 0.000000
-177.527992 -105.162978 0.000000
-173.908692 -110.921216 0.000000
184.261810 105.404029 0.000000
181.457274 108.932934 0.000000
177.528727 105.167329 0.000000
173.907280 110.922981 0.000000
-105.406720 184.266003 0.000000
-108.934101 181.460441 0.000000
-105.168866 177.533551 0.000000
-110.923469 173.910212 0.000000
-131.911708 -146.007572 0.000000
-196.947075 -117.392340 0.000000
-199.101998 -121.991298 0.000000
-193.485507 -120.589959 0.000000
-117.397252 196.932432 0.000000
-121.992153 199.099589 0.000000
-120.590101 193.485644 0.000000
117.392324 -196.946879 0.000000
121.991288 -199.101932 0.000000
120.589936 -193.485365 0.000000
196.932114 117.397194 0.000000
199.099484 121.992127 0.000000
193.485424 120.590048 0.000000
-103.027046 -180.463695 0.000000
-102.705017 -188.327453 0.000000
-180.498424 103.126044 0.000000
-188.424029 102.782482 0.000000
180.453422 -102.902582 0.000000
188.348911 -102.636553 0.000000
102.902928 180.446898 0.000000
102.636762 188.344577 0.000000
-100.703660 183.171283 0.000000
-102.902183 190.177225 0.000000
-183.170086 -100.685589 0.000000
-190.173369 -102.900083 0.000000
183.163604 100.693411 0.000000
190.174052 102.902308 0.000000
100.685973 -183.162052 0.000000
102.900236 -190.170839 0.000000
-182.316108 -124.418304 0.000000
-166.384725 -140.859341 0.000000
-124.419298 182.314720 0.000000
-140.859358 166.384725 0.000000
-150.679174 -120.649727 0.000000
-157.176578 -118.836120 0.000000
-120.662256 150.671520 0.000000
-118.839903 157.174456 0.000000
166.384682 140.859335 0.000000
150.667965 120.657433 0.000000
157.172712 118.838061 0.000000
124.418297 -182.315714 0.000000
140.859331 -166.384691 0.000000
120.650403 -150.671790 0.000000
118.836412 -157.172737 0.000000
182.314287 124.419161 0.000000
-63.923939 -150.872787 0.000000
145.674983 -113.769782 0.000000
138.418552 -115.363054 0.000000
113.784501 145.643812 0.000000
115.317107 138.442284 0.000000
-113.693337 -145.724523 0.000000
-115.620877 -138.395214 0.000000
-145.540616 113.808690 0.000000
-137.512427 115.934408 0.000000
180.529747 -71.361543 0.000000
172.820173 -70.642360 0.000000
176.073510 -77.237111 0.000000
169.510313 -76.383566 0.000000
139.717249 138.242786 0.000000
137.704051 143.710535 0.000000
133.450687 140.346859 0.000000
138.243152 -139.717753 0.000000
143.711211 -137.704247 0.000000
140.348147 -133.449511 0.000000
-138.243831 139.721035 0.000000
-143.711569 137.706443 0.000000
-140.348947 133.456103 0.000000
-139.721463 -138.243531 0.000000
-137.706613 -143.711798 0.000000
-133.454961 -140.349199 0.000000
114.343997 -166.750852 0.000000
114.050025 -160.839199 0.000000
166.754975 114.345919 0.000000
160.841862 114.052924 0.000000
-166.755255 -114.343592 0.000000
-160.844644 -114.049470 0.000000
-114.350168 166.754238 0.000000
-114.057192 160.842558 0.000000
72.100498 179.933520 0.000000
70.604719 172.737340 0.000000
77.227020 176.015625 0.000000
76.386199 169.435838 0.000000
140.751566 -199.853765 0.000000
147.903068 -199.311077 0.000000
-199.853768 -140.751568 0.000000
-199.311077 -147.903068 0.000000
199.853765 140.751569 0.000000
199.311077 147.903068 0.000000
-140.751573 199.853770 0.000000
-147.903069 199.311078 0.000000
-134.923220 -199.880143 0.000000
-141.190808 -200.011440 0.000000
-139.175337 -195.744334 0.000000
-199.880142 134.923219 0.000000
-200.011440 141.190807 0.000000
-195.744333 139.175336 0.000000
-165.474257 -109.381113 0.000000
-109.398463 165.471755 0.000000
109.382077 -165.464844 0.000000
99.339881 -175.149366 0.000000
104.054342 -170.243811 0.000000
-175.162220 -99.338186 0.000000
-170.252589 -104.053284 0.000000
165.481224 109.384509 0.000000
175.167680 99.348273 0.000000
170.250736 104.059773 0.000000
-99.353123 175.176703 0.000000
-104.061544 170.255463 0.000000
199.880134 -134.923208 0.000000
200.011437 -141.190802 0.000000
195.744327 -139.175326 0.000000
134.923207 199.880132 0.000000
141.190802 200.011436 0.000000
139.175324 195.744326 0.000000
-194.233805 -126.602123 0.000000
-199.945604 -128.196698 0.000000
93.765516 176.293452 0.000000
97.989075 181.960751 0.000000
92.821104 183.826803 0.000000
99.794519 173.364362 0.000000
176.311276 -93.764727 0.000000
181.970772 -97.988657 0.000000
183.841262 -92.820899 0.000000
173.374828 -99.793887 0.000000
-176.519856 94.094114 0.000000
-182.026143 98.312957 0.000000
-183.468064 93.503935 0.000000
-173.449104 100.020310 0.000000
-93.693043 -175.437178 0.000000
-98.079857 -181.828616 0.000000
-93.079761 -183.692485 0.000000
-99.943402 -173.559265 0.000000
189.494934 -96.013294 0.000000
168.265083 -105.920349 0.000000
96.013623 189.488414 0.000000
105.920807 168.258088 0.000000
-189.797380 96.350860 0.000000
-168.275908 105.932605 0.000000
-96.030874 -189.491618 0.000000
-105.925747 -168.285370 0.000000
-94.650355 181.996298 0.000000
-96.740715 189.877921 0.000000
-181.959344 -94.613533 0.000000
-189.862112 -96.726973 0.000000
181.986802 94.612953 0.000000
189.862551 96.725573 0.000000
94.612647 -181.944137 0.000000
96.727400 -189.854451 0.000000
109.219276 -158.048998 0.000000
114.391711 -154.001850 0.000000
-158.066682 -109.218105 0.000000
-154.008925 -114.391015 0.000000
158.111796 109.207120 0.000000
154.002383 114.394016 0.000000
-109.259778 158.052011 0.000000
-114.396945 154.004503 0.000000
-88.531652 -181.653607 0.000000
-89.063378 -190.051404 0.000000
-180.821774 88.893871 0.000000
-189.020398 89.721480 0.000000
181.293270 -88.028547 0.000000
189.873798 -88.728546 0.000000
88.027801 181.264908 0.000000
88.728295 189.860567 0.000000
118.395484 -120.968643 0.000000
111.429171 -120.185060 0.000000
115.830899 -126.619904 0.000000
109.378828 -127.612512 0.000000
-120.898856 -118.216480 0.000000
-119.581755 -110.657863 0.000000
-126.735686 -115.824784 0.000000
-127.738165 -109.369889 0.000000
-146.748070 -116.171164 0.000000
-144.060989 -121.932363 0.000000
-116.218307 146.719890 0.000000
-121.956272 144.050628 0.000000
146.929978 116.089325 0.000000
144.040987 121.951606 0.000000
116.173425 -146.729270 0.000000
121.933612 -144.048040 0.000000
126.602108 -194.233767 0.000000
128.196692 -199.945583 0.000000
-126.602173 194.233836 0.000000
-128.196723 199.945623 0.000000
194.233777 126.602144 0.000000
199.945591 128.196710 0.000000
156.912326 181.673302 0.000000
181.673529 -156.912533 0.000000
126.373846 122.042304 0.000000
122.847961 116.844139 0.000000
128.099025 116.722645 0.000000
-68.842017 113.933245 0.000000
-121.686714 126.186954 0.000000
-116.663886 122.560036 0.000000
-116.358394 128.308527 0.000000
-80.565048 122.693599 0.000000
-84.300064 118.255740 0.000000
-124.954822 -122.934722 0.000000
-117.274402 -124.337186 0.000000
122.965728 -124.816180 0.000000
124.154981 -117.134422 0.000000
-173.036195 -92.117800 0.000000
-167.986798 -98.570698 0.000000
92.113848 -173.006070 0.000000
98.573499 -167.967346 0.000000
173.169720 92.264634 0.000000
167.990505 98.587424 0.000000
-92.212537 173.111452 0.000000
-98.594706 167.988761 0.000000
49.726694 110.400620 0.000000
43.040263 110.875678 0.000000
45.998447 105.321581 0.000000
-181.673303 156.912328 0.000000
-199.240741 -51.490514 0.000000
-85.271348 124.882617 0.000000
49.584746 -199.729186 0.000000
-163.017679 -103.701009 0.000000
-103.738627 163.016048 0.000000
103.703389 -163.000386 0.000000
163.020692 103.718340 0.000000
139.399940 117.671717 0.000000
137.283099 123.569081 0.000000
117.639068 -139.435318 0.000000
123.565273 -137.186955 0.000000
-117.674905 139.420035 0.000000
-123.573630 137.307178 0.000000
-139.458326 -117.636417 0.000000
-137.211770 -123.562999 0.000000
-156.912534 -181.673530 0.000000
-53.092502 196.524211 0.000000
-55.136736 188.991814 0.000000
-47.653871 191.562672 0.000000
-49.419803 199.392242 0.000000
179.470887 146.526241 0.000000
178.094038 141.869315 0.000000
174.472255 148.336199 0.000000
146.526238 -179.470889 0.000000
141.869146 -178.094057 0.000000
148.335237 -174.472349 0.000000
-146.526248 179.470894 0.000000
-141.869331 178.094060 0.000000
-148.336210 174.472268 0.000000
-179.470894 -146.526241 0.000000
-178.094073 -141.869153 0.000000
-174.472360 -148.335242 0.000000
110.864441 154.082932 0.000000
147.576004 173.388869 0.000000
122.828958 136.320365 0.000000
-69.592272 -151.225481 0.000000
-153.915865 110.708523 0.000000
-136.196103 123.478156 0.000000
173.388871 -147.576005 0.000000
154.101998 -110.860994 0.000000
-189.996488 -68.228570 0.000000
-192.249722 -61.257948 0.000000
-198.148652 -65.999623 0.000000
136.479098 -122.813731 0.000000
-110.789795 -153.871677 0.000000
-173.388875 147.576016 0.000000
-122.897641 -136.478436 0.000000
-196.366841 -73.093415 0.000000
196.904319 52.786520 0.000000
189.335038 54.379519 0.000000
192.629641 47.161592 0.000000
199.758123 49.325245 0.000000
104.008264 -155.336465 0.000000
109.780193 -149.651247 0.000000
-155.366516 -104.003909 0.000000
-149.688068 -109.782117 0.000000
155.367037 104.036737 0.000000
149.957577 109.656195 0.000000
-104.100810 155.337837 0.000000
-109.866631 149.639366 0.000000
-172.319864 89.200736 0.000000
172.618751 -87.221748 0.000000
167.642112 -94.034265 0.000000
87.223498 172.559337 0.000000
94.062456 167.486818 0.000000
87.180964 154.596383 0.000000
91.141530 160.266129 0.000000
84.428316 160.851346 0.000000
96.365715 152.540796 0.000000
154.428764 -87.705013 0.000000
160.303593 -91.239622 0.000000
160.910426 -84.506848 0.000000
152.603820 -96.363037 0.000000
-88.176278 181.473775 0.000000
-90.715818 189.166652 0.000000
-181.393125 -88.113128 0.000000
-189.132329 -90.699525 0.000000
181.419644 87.935958 0.000000
189.137613 90.709870 0.000000
88.107240 -181.373785 0.000000
90.701538 -189.119099 0.000000
-84.750787 -186.658516 0.000000
-178.045208 82.868860 0.000000
-185.557257 83.974100 0.000000
130.439131 126.097290 0.000000
126.387356 -130.251216 0.000000
-125.889292 130.583029 0.000000
-130.318754 -126.373023 0.000000
178.758710 -82.533901 0.000000
67.593334 -146.117714 0.000000
72.561556 -142.217068 0.000000
82.529851 178.718674 0.000000
67.570196 -152.082544 0.000000
-147.576017 -173.388876 0.000000
165.041699 -100.894131 0.000000
198.175073 8.812465 0.000000
152.878988 -103.765747 0.000000
160.229469 -105.578823 0.000000
100.894908 165.028308 0.000000
137.572612 185.666848 0.000000
103.768410 152.846978 0.000000
105.579957 160.209883 0.000000
-164.625434 99.688116 0.000000
-151.890098 104.002728 0.000000
-160.155224 105.314491 0.000000
185.666851 -137.572614 0.000000
-99.645516 -164.640992 0.000000
-103.184780 -151.795919 0.000000
-105.305706 -160.174987 0.000000
-112.789265 142.518535 0.000000
-142.589050 -112.683703 0.000000
143.511018 112.204980 0.000000
112.680861 -142.542422 0.000000
124.332192 128.805855 0.000000
128.988471 -123.403329 0.000000
-128.349405 122.680551 0.000000
-160.261759 -98.371139 0.000000
-123.505560 -129.014269 0.000000
-98.475362 160.270776 0.000000
98.376314 -160.226726 0.000000
160.287653 98.417111 0.000000
98.702373 -152.648778 0.000000
104.490688 -148.410866 0.000000
-152.701487 -98.694454 0.000000
-148.448286 -104.484965 0.000000
152.730053 98.765749 0.000000
148.426646 104.512924 0.000000
-98.585868 152.279944 0.000000
-104.586820 148.351789 0.000000
-185.666856 137.572635 0.000000
183.165639 -30.968029 0.000000
185.815577 -27.148851 0.000000
181.314361 -25.647202 0.000000
184.694332 -21.801716 0.000000
-112.283353 -61.905464 0.000000
-113.684178 -56.893570 0.000000
-116.365777 -63.238490 0.000000
56.881376 -152.481982 0.000000
50.424300 -150.028834 0.000000
52.734200 -155.412506 0.000000
55.571815 -146.378323 0.000000
142.121273 101.758582 0.000000
143.354183 107.148262 0.000000
137.883966 104.571905 0.000000
46.988904 -155.116616 0.000000
51.105314 -159.649637 0.000000
-102.799729 142.757967 0.000000
-107.714492 142.490996 0.000000
-103.772519 137.355934 0.000000
-112.471988 134.322388 0.000000
45.420189 -162.581667 0.000000
102.424819 -142.601246 0.000000
107.497124 -142.488857 0.000000
103.291690 -137.319941 0.000000
112.314493 -134.407419 0.000000
-142.685334 -102.416051 0.000000
-142.588948 -107.521961 0.000000
-137.661110 -103.458080 0.000000
-134.461839 -112.306853 0.000000
-188.891887 -83.226245 0.000000
-83.254437 188.961007 0.000000
83.233649 -188.883607 0.000000
43.210219 -149.457267 0.000000
132.488118 119.938172 0.000000
132.741602 113.208650 0.000000
120.077446 -131.969928 0.000000
-119.811376 132.503154 0.000000
-132.014111 -120.071520 0.000000
188.588540 83.133796 0.000000
34.960985 -175.742873 0.000000
40.368120 -178.637071 0.000000
36.325344 -170.170693 0.000000
-54.817287 160.994343 0.000000
-57.895686 166.150208 0.000000
-60.593797 160.907177 0.000000
-167.231957 83.482558 0.000000
-137.572637 -185.666857 0.000000
-64.175946 165.977887 0.000000
166.371424 -82.623768 0.000000
165.456850 -88.192862 0.000000
-52.422657 156.167288 0.000000
-48.714619 161.521237 0.000000
82.618208 166.305611 0.000000
88.189563 165.403257 0.000000
-45.047223 157.470948 0.000000
-126.973354 -84.711479 0.000000
-130.249990 -90.141533 0.000000
-124.858031 -89.978120 0.000000
-133.829306 -86.063560 0.000000
75.811931 -95.699207 0.000000
77.357128 -89.282216 0.000000
71.273801 -89.533026 0.000000
82.072494 -93.805675 0.000000
84.211460 -127.296503 0.000000
90.161376 -124.101584 0.000000
-92.933607 156.564043 0.000000
-92.503171 164.236188 0.000000
91.556635 -156.093466 0.000000
92.106222 -164.104936 0.000000
156.597136 92.791236 0.000000
164.234680 92.772267 0.000000
-75.761413 -169.568889 0.000000
84.658657 -133.388422 0.000000
105.611220 73.943765 0.000000
-133.518427 109.776880 0.000000
-140.395209 109.469377 0.000000
-137.011883 103.032485 0.000000
-144.559319 103.556315 0.000000
-109.746665 -133.805134 0.000000
-109.467893 -140.411314 0.000000
-102.860920 -136.928175 0.000000
-103.566581 -144.366321 0.000000
109.503032 134.609577 0.000000
108.672276 141.608729 0.000000
102.431806 137.937696 0.000000
102.387429 146.012925 0.000000
107.768520 79.988575 0.000000
103.643368 85.513717 0.000000
101.930078 79.112488 0.000000
140.203130 -107.834163 0.000000
145.980177 -102.185846 0.000000
138.464886 -101.359574 0.000000
45.558892 117.858972 0.000000
98.125651 72.332532 0.000000
-139.825185 -57.359173 0.000000
-136.277881 -62.841655 0.000000
-134.144506 -55.951693 0.000000
-141.194100 -52.206629 0.000000
-136.722919 -48.161267 0.000000
155.170098 -176.526574 0.000000
-180.782760 27.414737 0.000000
-179.272148 33.312417 0.000000
-184.220842 30.184487 0.000000
186.354977 -37.417108 0.000000
185.949712 -45.218801 0.000000
192.114963 -41.211715 0.000000
182.265114 -41.519949 0.000000
198.189921 -44.622882 0.000000
197.993614 -36.939675 0.000000
38.759827 187.974047 0.000000
39.982955 193.110919 0.000000
40.595168 183.720202 0.000000
44.736404 197.631311 0.000000
36.365872 197.943689 0.000000
-185.693457 36.178757 0.000000
-27.343835 -180.737010 0.000000
-33.362058 -179.242034 0.000000
-30.211863 -184.194041 0.000000
-36.198492 -185.689038 0.000000
-43.449441 161.934525 0.000000
-45.772904 166.345372 0.000000
-98.018835 139.469279 0.000000
-98.189141 145.490354 0.000000
-103.920493 131.019310 0.000000
-110.432313 126.828498 0.000000
-147.355913 -92.681344 0.000000
-146.240929 -98.955687 0.000000
64.433718 -123.505368 0.000000
57.513367 -125.676187 0.000000
148.374985 92.253194 0.000000
146.625153 98.549964 0.000000
-41.718371 171.935741 0.000000
-49.194631 171.313389 0.000000
141.472810 95.459373 0.000000
126.641132 110.584390 0.000000
132.349876 105.349504 0.000000
92.536623 -149.528889 0.000000
98.119089 -145.637044 0.000000
-92.526584 148.926713 0.000000
-140.429852 -96.523423 0.000000
-131.287784 -103.702250 0.000000
96.407428 -139.876207 0.000000
103.756860 -130.728239 0.000000
61.424426 -142.656587 0.000000
61.973371 -148.792499 0.000000
147.941551 -107.862303 0.000000
107.864746 147.915680 0.000000
-147.868071 107.932639 0.000000
-108.220964 -147.472177 0.000000
199.949854 -64.304915 0.000000
64.288865 199.906758 0.000000
176.525076 155.174782 0.000000
67.733334 -140.372318 0.000000
-176.526578 -155.170100 0.000000
62.313466 -154.494267 0.000000
58.271106 -159.785462 0.000000
134.067521 57.829467 0.000000
135.222346 63.363561 0.000000
128.945885 59.842607 0.000000
63.919514 -116.886612 0.000000
69.003821 -112.546018 0.000000
63.700692 -111.707235 0.000000
62.791552 130.236286 0.000000
63.244025 136.491037 0.000000
58.270006 133.378634 0.000000
-195.274041 40.585283 0.000000
-190.462756 40.013131 0.000000
-192.394982 45.528427 0.000000
-185.140645 44.038113 0.000000
-40.600564 -195.269321 0.000000
-40.031970 -190.454228 0.000000
-45.622569 -192.349089 0.000000
-43.995634 -185.220672 0.000000
68.261418 133.839483 0.000000
-81.627753 -118.237577 0.000000
-75.152962 -120.024900 0.000000
-77.927921 -114.983823 0.000000
-80.400961 -122.997969 0.000000
-71.086358 -113.850547 0.000000
-76.851976 -109.705504 0.000000
-71.714236 -107.210192 0.000000
-120.018846 74.719953 0.000000
-125.768157 75.196277 0.000000
-123.240207 70.825050 0.000000
-124.372055 79.805845 0.000000
-126.469091 65.902490 0.000000
-119.850716 67.802572 0.000000
-121.130509 60.637753 0.000000
-113.632962 70.874592 0.000000
73.027575 -107.311760 0.000000
74.905505 -113.059614 0.000000
-103.187936 124.391137 0.000000
-95.948627 129.142241 0.000000
-76.903682 -126.474850 0.000000
-71.669085 -124.629478 0.000000
-66.919579 -126.477118 0.000000
-68.077405 -120.187157 0.000000
124.662835 103.216304 0.000000
129.514761 96.640247 0.000000
-62.048617 -122.186270 0.000000
120.625219 -110.068163 0.000000
112.931917 -111.157827 0.000000
117.507354 -115.902823 0.000000
110.008397 120.494404 0.000000
112.111044 113.003271 0.000000
116.605976 117.735964 0.000000
119.200070 110.472831 0.000000
-147.191812 59.470613 0.000000
-154.742601 57.467316 0.000000
-148.415408 52.661023 0.000000
-118.546807 80.959502 0.000000
-114.721019 77.575834 0.000000
-147.994595 46.107236 0.000000
-141.539490 49.451240 0.000000
-109.179331 77.124600 0.000000
-107.198974 71.867489 0.000000
-57.841716 -154.504069 0.000000
-53.330898 -148.742864 0.000000
39.121099 -46.215214 0.000000
31.996876 -40.450383 0.000000
31.550055 -47.568934 0.000000
-46.697186 -148.560809 0.000000
-49.767745 -141.389066 0.000000
54.427336 -129.945503 0.000000
77.338010 -119.283164 0.000000
71.848016 -124.239412 0.000000
78.403585 -125.006223 0.000000
70.241431 -118.253364 0.000000
-110.443754 -120.179711 0.000000
-111.539301 -113.247994 0.000000
-115.947614 -117.327847 0.000000
-120.945398 110.234171 0.000000
-113.088706 112.105484 0.000000
-117.934361 116.864177 0.000000
-110.527094 119.404618 0.000000
-124.625095 -102.898376 0.000000
-128.727593 -95.902367 0.000000
79.223089 -131.148409 0.000000
198.649162 -58.073907 0.000000
103.452524 -123.984791 0.000000
57.484542 -135.930587 0.000000
57.937729 198.468224 0.000000
-155.174786 176.525081 0.000000
-130.343525 -49.171640 0.000000
-126.381200 -54.399982 0.000000
-124.123913 -48.426439 0.000000
50.912386 -135.820133 0.000000
-126.552067 -42.954849 0.000000
-187.826281 72.315169 0.000000
34.265554 -196.838776 0.000000
38.217008 -200.350649 0.000000
-69.588943 -170.367048 0.000000
-118.386345 -43.691479 0.000000
-64.288358 178.896171 0.000000
-62.135785 186.084750 0.000000
-68.957672 184.403462 0.000000
29.241406 -199.373847 0.000000
-58.161800 149.503659 0.000000
-54.051535 143.758859 0.000000
-52.576273 150.138759 0.000000
-59.520777 142.842082 0.000000
-46.424617 151.950266 0.000000
-178.301611 -63.994971 0.000000
-186.380737 -62.553455 0.000000
-182.993844 -68.734615 0.000000
-55.421868 22.764978 0.000000
115.322723 -76.085576 0.000000
114.299986 -70.046574 0.000000
110.077216 -74.394581 0.000000
108.945854 -68.996402 0.000000
63.500532 -179.076185 0.000000
60.923325 -186.333976 0.000000
67.933754 -183.590637 0.000000
-45.518523 17.993587 0.000000
118.280097 -80.116633 0.000000
119.665909 -73.989088 0.000000
-70.430418 -163.634358 0.000000
125.066103 -79.136980 0.000000
-163.726368 70.773324 0.000000
-168.900393 76.917051 0.000000
-171.318823 70.881003 0.000000
-64.453536 -167.023437 0.000000
120.062336 -66.574965 0.000000
-139.206617 -72.045939 0.000000
-135.518920 -74.447479 0.000000
-135.507532 -69.352606 0.000000
-140.114220 -77.581198 0.000000
172.189806 70.127941 0.000000
168.407245 64.026130 0.000000
175.457330 64.852112 0.000000
165.884028 70.631957 0.000000
-167.885785 64.207660 0.000000
-63.406770 109.588350 0.000000
-56.972122 111.807219 0.000000
-62.811826 116.044573 0.000000
156.669622 -80.822082 0.000000
-55.857858 118.248438 0.000000
81.004064 156.400528 0.000000
20.002395 191.240315 0.000000
14.167309 191.565625 0.000000
17.402863 184.985870 0.000000
10.679485 185.248952 0.000000
-119.138108 -76.239266 0.000000
-123.758368 -71.836243 0.000000
-125.511940 -78.391456 0.000000
-117.505068 -69.444982 0.000000
-132.725529 -79.728137 0.000000
-21.740675 -166.778583 0.000000
-23.024306 -172.426431 0.000000
60.882176 150.056959 0.000000
53.632212 154.445544 0.000000
-62.199204 137.249445 0.000000
-59.325050 132.987885 0.000000
-56.627439 137.589277 0.000000
-53.351837 130.511326 0.000000
46.928722 149.388378 0.000000
-167.702102 23.790298 0.000000
-172.555083 24.012110 0.000000
150.338611 -61.036601 0.000000
154.254287 -54.177215 0.000000
145.737496 -54.823428 0.000000
-163.180497 27.763998 0.000000
-64.370355 147.107364 0.000000
-68.482466 144.355853 0.000000
-64.228416 141.693666 0.000000
-68.317102 138.547297 0.000000
149.068328 -48.809979 0.000000
-63.996684 153.962065 0.000000
115.328115 124.480132 0.000000
-58.095735 155.415740 0.000000
-125.144804 116.110998 0.000000
12.752982 167.518704 0.000000
10.491698 174.433378 0.000000
6.728489 163.118929 0.000000
-190.816344 13.229574 0.000000
-195.537539 9.853199 0.000000
-191.256760 6.933887 0.000000
158.306713 -100.647489 0.000000
100.646232 158.268828 0.000000
-195.509008 14.540215 0.000000
-13.275668 -190.729059 0.000000
-10.047974 -195.182869 0.000000
-6.964704 -191.177263 0.000000
-14.538767 -195.492860 0.000000
74.375442 -101.514032 0.000000
80.177067 -100.014124 0.000000
-40.927340 154.211515 0.000000
-40.133828 149.115249 0.000000
-99.342387 -157.427320 0.000000
-95.283036 -151.367594 0.000000
177.616912 31.076860 0.000000
176.605468 38.255500 0.000000
171.962310 32.352928 0.000000
183.162147 34.567117 0.000000
80.998968 -114.168593 0.000000
45.624015 173.706157 0.000000
39.087178 177.205428 0.000000
44.271704 167.271020 0.000000
49.896165 168.732546 0.000000
84.983784 -108.941391 0.000000
172.468852 -45.131049 0.000000
179.095149 -46.145898 0.000000
176.749155 -40.530400 0.000000
165.680663 -44.173925 0.000000
168.489629 -49.987564 0.000000
89.633659 -109.867089 0.000000
60.567291 54.478846 0.000000
54.172289 59.427144 0.000000
55.687915 51.917422 0.000000
49.958954 53.755706 0.000000
-172.928178 0.628335 0.000000
-167.474929 0.955104 0.000000
-174.334089 4.929018 0.000000
52.744364 -123.357296 0.000000
58.255212 -120.325617 0.000000
52.737770 -117.091216 0.000000
160.779587 -96.635709 0.000000
96.622168 160.718176 0.000000
-192.255439 19.865502 0.000000
-185.271339 17.526261 0.000000
-185.067979 10.658380 0.000000
-7.941484 -169.120158 0.000000
-0.084384 -171.953272 0.000000
-1.545010 -165.770784 0.000000
-5.692811 -174.924276 0.000000
-19.888057 -192.232226 0.000000
-17.574670 -185.233073 0.000000
-10.639834 -185.056061 0.000000
167.423108 -10.419484 0.000000
173.507867 -11.286100 0.000000
170.694291 -4.733313 0.000000
176.416511 -5.922515 0.000000
-70.171805 107.892487 0.000000
-76.832201 107.181569 0.000000
-95.746663 -135.634883 0.000000
-97.868506 -141.921394 0.000000
-82.764924 107.000014 0.000000
-78.320912 101.414043 0.000000
-137.593595 95.951650 0.000000
-142.495760 97.632410 0.000000
-85.609396 102.378652 0.000000
136.695336 -95.636848 0.000000
143.788689 -95.930251 0.000000
-192.194010 -21.034916 0.000000
-198.940433 -17.124015 0.000000
-198.629756 -23.759704 0.000000
-193.366871 -14.091695 0.000000
48.122242 -127.763489 0.000000
-65.266342 -157.401529 0.000000
-72.362861 -156.923012 0.000000
96.293700 135.938191 0.000000
95.221620 143.227672 0.000000
42.017515 -126.319481 0.000000
43.365572 -132.483985 0.000000
37.121393 -129.974178 0.000000
21.075090 -192.233227 0.000000
17.135822 -198.933913 0.000000
23.762236 -198.611591 0.000000
14.097242 -193.323082 0.000000
-157.531105 65.553918 0.000000
-157.480113 73.012471 0.000000
-96.287095 -129.436862 0.000000
-90.104221 -131.241380 0.000000
-143.556654 -46.146192 0.000000
-146.571050 -50.056449 0.000000
-97.692430 -123.071312 0.000000
-103.394634 -129.376271 0.000000
-146.344287 -55.565000 0.000000
-146.808442 -39.649410 0.000000
-141.490546 -34.756012 0.000000
-131.481840 96.938076 0.000000
-128.848469 103.754160 0.000000
67.844879 126.861643 0.000000
62.086469 124.264427 0.000000
-91.375133 115.562599 0.000000
-98.220330 111.895779 0.000000
-90.399482 107.570848 0.000000
56.003544 128.263166 0.000000
-91.693662 99.510170 0.000000
106.583400 -78.273273 0.000000
100.941421 -79.305542 0.000000
106.188214 -84.617016 0.000000
110.629788 96.860461 0.000000
106.767364 90.918109 0.000000
99.906859 -86.054965 0.000000
103.224761 -71.880135 0.000000
95.247590 -73.667200 0.000000
-146.011639 80.018168 0.000000
-147.292947 87.510546 0.000000
-151.953947 82.398516 0.000000
141.458993 -171.831409 0.000000
-196.899540 -34.251773 0.000000
-200.363266 -38.216476 0.000000
171.831403 141.458999 0.000000
-151.661601 75.700163 0.000000
-199.397657 -29.240033 0.000000
-150.484841 -85.981659 0.000000
-156.768666 80.400745 0.000000
-80.211072 -156.759529 0.000000
-141.459018 171.831432 0.000000
-171.831431 -141.459002 0.000000
-87.982079 -147.121847 0.000000
76.435564 162.136168 0.000000
-151.522507 93.004534 0.000000
-198.168045 -187.766952 0.000000
187.766952 -198.168045 0.000000
-86.758670 152.542255 0.000000
-85.455329 160.446495 0.000000
199.438572 -199.396126 0.000000
152.808823 84.920090 0.000000
160.380028 87.047759 0.000000
-172.456619 -29.934736 0.000000
86.731788 103.796453 0.000000
90.089037 108.211617 0.000000
-199.396126 -199.438572 0.000000
95.234144 108.901224 0.000000
-57.925592 -184.348617 0.000000
-191.764425 -0.377109 0.000000
-185.629620 3.833593 0.000000
-198.724652 4.405683 0.000000
-179.306601 1.418451 0.000000
-179.228413 7.637962 0.000000
-185.006852 57.602771 0.000000
-180.047939 63.286600 0.000000
-75.343481 -103.448358 0.000000
-80.967871 -106.474437 0.000000
-82.059059 -101.286290 0.000000
-86.562636 -105.984544 0.000000
-90.223524 -100.059238 0.000000
162.232306 -76.457743 0.000000
150.697730 -79.013910 0.000000
-200.473142 -194.213134 0.000000
-76.081804 -97.085278 0.000000
194.213134 -200.473142 0.000000
-71.364417 92.246179 0.000000
-64.504745 89.071367 0.000000
-64.431078 96.228823 0.000000
-70.370620 84.763984 0.000000
80.788382 149.088610 0.000000
0.342975 -191.728433 0.000000
-3.840004 -185.635859 0.000000
-4.327720 -198.731296 0.000000
-1.372877 -179.203609 0.000000
-7.917113 -179.916517 0.000000
30.178824 -171.459056 0.000000
132.371077 -81.839081 0.000000
135.344630 -89.262521 0.000000
139.442410 -82.995168 0.000000
126.926636 -88.333338 0.000000
77.588431 109.648914 0.000000
73.959711 102.963302 0.000000
80.581450 103.762318 0.000000
69.350370 107.674273 0.000000
83.225400 97.950820 0.000000
-102.723201 75.935164 0.000000
-104.782097 82.850293 0.000000
193.644555 40.094908 0.000000
199.454613 37.778603 0.000000
199.256653 44.178114 0.000000
-97.886892 81.320217 0.000000
106.475081 -113.797095 0.000000
106.014532 -107.708893 0.000000
-95.628625 74.249114 0.000000
98.749409 -111.925625 0.000000
103.250375 -118.008069 0.000000
-112.026915 -106.071395 0.000000
-106.786128 -109.625717 0.000000
95.245662 78.987172 0.000000
96.661054 84.838640 0.000000
-110.782100 -99.098922 0.000000
-117.432433 -101.354355 0.000000
113.307242 107.120763 0.000000
107.925444 108.204483 0.000000
76.263666 116.108062 0.000000
70.911074 113.554793 0.000000
73.198470 119.226323 0.000000
-105.721889 112.903308 0.000000
-108.522194 107.029314 0.000000
67.391712 119.815794 0.000000
-102.609544 118.321808 0.000000
80.577822 115.251491 0.000000
84.519003 110.156471 0.000000
-178.377891 14.242950 0.000000
105.346870 115.223871 0.000000
97.399565 115.166929 0.000000
102.166084 109.185663 0.000000
-14.039789 -179.043438 0.000000
-10.364630 -174.975920 0.000000
-115.055340 105.333641 0.000000
-115.915370 97.185533 0.000000
-109.980369 101.250405 0.000000
30.716323 175.789612 0.000000
33.756025 183.173148 0.000000
191.005896 5.341552 0.000000
186.125297 11.270788 0.000000
-171.878935 46.801113 0.000000
-178.408226 48.684715 0.000000
-177.769158 40.379939 0.000000
-166.785885 52.158969 0.000000
-58.619207 99.999316 0.000000
-64.287534 103.248598 0.000000
-46.813116 -171.546318 0.000000
-48.439201 -178.418672 0.000000
-40.420169 -177.753366 0.000000
-45.090915 -162.904583 0.000000
-52.296369 -166.707325 0.000000
-57.073960 93.286333 0.000000
130.814841 -95.240028 0.000000
128.601517 -101.754824 0.000000
-97.120755 -64.418511 0.000000
-103.437689 -63.665311 0.000000
-102.072447 -68.786634 0.000000
-100.552745 -58.407885 0.000000
95.637748 129.279251 0.000000
97.831624 122.268669 0.000000
102.518483 126.915111 0.000000
-106.653575 -72.461568 0.000000
-106.886234 -78.011170 0.000000
122.390858 56.193317 0.000000
115.023946 51.538667 0.000000
122.295376 50.452716 0.000000
-104.457207 -115.626890 0.000000
-96.974830 -115.380119 0.000000
-101.068178 -109.085869 0.000000
115.988899 59.144835 0.000000
118.684984 44.759893 0.000000
126.117452 45.668274 0.000000
122.803299 39.376895 0.000000
-140.577931 -88.828553 0.000000
-52.528905 -190.517469 0.000000
-56.434107 -196.514755 0.000000
-50.333213 -198.024757 0.000000
111.081377 43.851880 0.000000
-51.316234 138.186062 0.000000
-51.144573 123.231875 0.000000
-43.976714 120.873469 0.000000
-45.759279 127.665045 0.000000
-190.512990 52.413505 0.000000
-196.504107 56.292122 0.000000
-198.201512 49.962725 0.000000
-38.458709 124.653186 0.000000
158.211456 80.322588 0.000000
164.506413 81.499676 0.000000
-49.529282 117.610183 0.000000
-80.423462 155.670270 0.000000
-43.287137 113.016039 0.000000
38.058119 -136.855411 0.000000
43.961780 -138.171222 0.000000
39.937215 -143.389305 0.000000
47.918848 -143.420745 0.000000
33.301464 -142.005169 0.000000
54.808566 -140.889290 0.000000
51.582495 194.071466 0.000000
163.499092 39.651236 0.000000
161.390298 45.243891 0.000000
169.701000 38.702408 0.000000
160.161575 51.831926 0.000000
156.214168 46.020484 0.000000
165.461888 -70.983104 0.000000
167.621155 -66.382660 0.000000
158.119826 -70.100966 0.000000
-114.174602 -80.350320 0.000000
-112.806478 -73.711204 0.000000
-108.186768 -83.687027 0.000000
-109.587638 -88.868495 0.000000
130.012024 39.494456 0.000000
134.074870 46.896076 0.000000
70.938983 165.356241 0.000000
66.326293 167.516914 0.000000
137.669584 41.291394 0.000000
70.031373 157.983137 0.000000
135.089987 34.353097 0.000000
-40.138532 131.636047 0.000000
-46.249066 135.034101 0.000000
-40.627218 138.169381 0.000000
-33.367834 136.528073 0.000000
-78.506219 95.106260 0.000000
-84.941634 96.799693 0.000000
-77.836610 88.299385 0.000000
179.819453 -15.606700 0.000000
179.808400 -9.235763 0.000000
-78.225653 -133.552488 0.000000
-84.348577 -139.634293 0.000000
-25.752150 199.123389 0.000000
-25.144777 192.450306 0.000000
-19.921604 196.707616 0.000000
-19.729093 190.465687 0.000000
198.164584 1.931999 0.000000
-179.095088 21.084118 0.000000
-20.972154 -179.039391 0.000000
106.921081 51.405534 0.000000
110.290444 56.948412 0.000000
97.319784 64.478801 0.000000
89.230986 61.636340 0.000000
95.179254 56.505169 0.000000
87.375269 53.973896 0.000000
91.876756 68.270794 0.000000
84.248590 67.979197 0.000000
22.294419 178.354954 0.000000
14.554244 179.285695 0.000000
22.719325 184.219682 0.000000
8.740035 180.099244 0.000000
-177.264656 -4.333282 0.000000
5.430490 -176.783559 0.000000
175.262776 -0.006854 0.000000
167.001952 1.982431 0.000000
181.669936 4.962135 0.000000
182.098372 -3.746781 0.000000
-39.794738 -5.090107 0.000000
-42.930926 -11.371588 0.000000
-35.586437 -9.538849 0.000000
-37.443191 -14.846476 0.000000
-135.040915 -30.416219 0.000000
-127.574636 -28.342844 0.000000
-132.459445 -23.756214 0.000000
8.436215 -149.015842 0.000000
13.735967 -153.057878 0.000000
13.420003 -147.195119 0.000000
-164.395950 -19.243870 0.000000
-163.805821 -10.705425 0.000000
-170.384311 -13.437771 0.000000
-157.511837 -14.253052 0.000000
-75.860125 79.711141 0.000000
-82.883143 81.295778 0.000000
6.169425 -153.991550 0.000000
-40.934564 -62.266578 0.000000
-43.167197 -54.939910 0.000000
-48.715317 -60.018859 0.000000
-50.532028 -52.444819 0.000000
143.886512 -19.309968 0.000000
138.629947 -22.294315 0.000000
145.714543 -24.188088 0.000000
-29.063617 169.789158 0.000000
-35.299862 169.168921 0.000000
-32.651894 163.395951 0.000000
-39.512722 165.276220 0.000000
-22.254792 173.585278 0.000000
-29.691168 176.978579 0.000000
-137.027329 42.734655 0.000000
-136.087136 35.230315 0.000000
-130.399897 39.232148 0.000000
-130.500513 32.572586 0.000000
-38.951212 -128.957799 0.000000
-30.447707 -132.177103 0.000000
-198.896770 -3.223624 0.000000
-193.439584 -6.845872 0.000000
-199.451960 -9.691111 0.000000
3.236359 -198.883634 0.000000
6.855867 -193.406495 0.000000
9.713697 -199.435579 0.000000
41.407061 137.046498 0.000000
33.757258 137.571742 0.000000
35.761164 130.147622 0.000000
29.054622 133.501694 0.000000
142.130212 -27.227355 0.000000
30.009783 98.831270 0.000000
26.747636 103.166731 0.000000
24.603487 98.057965 0.000000
31.313152 -134.723774 0.000000
30.563933 -128.141495 0.000000
24.019135 -133.142744 0.000000
31.286810 105.651183 0.000000
154.489004 -8.620588 0.000000
150.747137 -6.653854 0.000000
151.570533 -12.209281 0.000000
-189.978554 -34.877268 0.000000
-186.694418 -41.735178 0.000000
147.615141 -10.134057 0.000000
-89.020982 -64.941237 0.000000
-87.898005 -70.951967 0.000000
-81.417188 -68.641015 0.000000
-82.687221 -75.792087 0.000000
-192.643371 -28.345939 0.000000
195.352255 -8.892171 0.000000
189.092542 -6.291483 0.000000
200.700651 -11.410127 0.000000
199.502547 -4.930856 0.000000
34.917570 -189.729251 0.000000
41.313161 -185.578645 0.000000
137.309992 -41.671875 0.000000
136.944225 -34.105588 0.000000
130.290067 -36.517194 0.000000
130.986367 -29.964230 0.000000
28.386686 -192.595290 0.000000
-20.008276 -144.147902 0.000000
-24.678806 -138.652246 0.000000
-25.310551 -144.266619 0.000000
-18.437716 -138.392161 0.000000
142.957157 -13.537639 0.000000
147.683041 -15.684225 0.000000
139.074826 -16.573352 0.000000
152.920239 -16.914939 0.000000
156.844490 -14.011393 0.000000
8.962064 195.007880 0.000000
7.881212 189.650682 0.000000
10.031593 200.424668 0.000000
3.858663 199.234962 0.000000
-45.484834 -85.517100 0.000000
-48.508144 -91.426088 0.000000
-42.009825 -91.764213 0.000000
-124.190294 36.289636 0.000000
-163.767508 20.149030 0.000000
-157.769250 15.334144 0.000000
-53.832750 -87.004547 0.000000
189.326927 35.704858 0.000000
186.664065 41.426848 0.000000
-157.273541 23.173889 0.000000
46.556928 26.053394 0.000000
42.118676 22.103818 0.000000
47.538434 19.006649 0.000000
13.672835 155.134555 0.000000
21.261481 155.050279 0.000000
17.653741 161.503966 0.000000
42.941755 16.259727 0.000000
20.305385 166.916694 0.000000
17.681203 172.726851 0.000000
-8.591585 181.909320 0.000000
41.893319 -115.861704 0.000000
36.041334 -118.048243 0.000000
40.834766 -120.569374 0.000000
-20.271740 -161.176020 0.000000
-14.693071 -164.431853 0.000000
-14.734778 -157.638336 0.000000
-6.535221 -160.599391 0.000000
36.319535 -123.830472 0.000000
-16.231955 -171.875212 0.000000
-33.522882 -124.175805 0.000000
-40.521901 -121.715808 0.000000
-185.409400 -16.852923 0.000000
16.745272 -185.708292 0.000000
197.395818 -23.868454 0.000000
197.987845 -15.827817 0.000000
-123.006162 -31.677513 0.000000
-121.384286 -37.082124 0.000000
24.487982 197.668845 0.000000
16.063941 197.942818 0.000000
-149.072662 -32.109058 0.000000
-142.422269 -27.289197 0.000000
-150.778126 -24.562084 0.000000
101.913793 45.035177 0.000000
100.388387 52.010518 0.000000
93.097619 47.730296 0.000000
21.619402 -139.497050 0.000000
22.879732 -145.010715 0.000000
26.994049 -140.184122 0.000000
-121.695878 16.391394 0.000000
-115.401642 17.591377 0.000000
-120.881327 20.879903 0.000000
17.385246 -142.630956 0.000000
32.033634 -165.375547 0.000000
25.757312 -165.956004 0.000000
-123.592086 25.235541 0.000000
-131.189365 24.846172 0.000000
-126.212119 20.263643 0.000000
-123.349738 50.035424 0.000000
-125.189907 44.021845 0.000000
-119.550676 47.181379 0.000000
-181.305755 -10.260110 0.000000
-187.620622 -10.697862 0.000000
-166.467730 -32.741078 0.000000
-165.231516 -27.404666 0.000000
-158.483508 -25.687104 0.000000
-128.583565 49.680221 0.000000
10.900074 -181.056536 0.000000
10.881575 -187.914902 0.000000
12.108411 -172.354414 0.000000
4.952086 -168.379881 0.000000
-3.910071 -136.670135 0.000000
-1.841580 -131.425784 0.000000
-7.245138 -132.194239 0.000000
-5.201395 -127.611300 0.000000
-139.059270 -11.012520 0.000000
-138.849507 -16.584919 0.000000
-144.248262 -8.945595 0.000000
-137.852036 -22.803478 0.000000
-134.337514 -18.484562 0.000000
98.625765 -65.845359 0.000000
105.005857 -64.930214 0.000000
-43.876153 22.117712 0.000000
109.214706 -12.103231 0.000000
114.577956 -15.961139 0.000000
4.515443 -144.837509 0.000000
3.614234 -149.536904 0.000000
10.170501 -143.689301 0.000000
-2.255454 -7.658108 0.000000
-7.633990 -7.515010 0.000000
-2.898657 -12.361779 0.000000
-1.219975 -153.071546 0.000000
2.986101 -160.727993 0.000000
-11.307220 -12.720765 0.000000
51.983320 -109.931730 0.000000
48.229275 -103.606351 0.000000
43.643370 -109.670287 0.000000
20.237128 119.219281 0.000000
18.991703 124.827818 0.000000
15.242419 120.634742 0.000000
25.256104 123.676067 0.000000
119.864223 -12.275922 0.000000
-22.000467 -51.485043 0.000000
-21.044640 -58.621999 0.000000
-15.479107 -53.610645 0.000000
-9.080174 -143.920103 0.000000
-5.306421 -147.487898 0.000000
-4.814749 -142.057652 0.000000
-10.167437 -148.548446 0.000000
-13.891843 200.174159 0.000000
0.715693 -140.323098 0.000000
1.664930 -135.006440 0.000000
65.855740 -91.372573 0.000000
65.761713 -84.984340 0.000000
74.420396 -82.149887 0.000000
60.100263 -90.058006 0.000000
-17.033793 -121.344812 0.000000
-22.188020 -119.976684 0.000000
-20.806387 -126.503413 0.000000
-26.600648 -125.461159 0.000000
26.746248 118.020294 0.000000
22.355407 113.992950 0.000000
4.554774 10.014380 0.000000
2.340130 16.814485 0.000000
-2.400318 10.487609 0.000000
-175.288948 -9.914841 0.000000
-177.252265 -16.194485 0.000000
9.030958 14.308994 0.000000
4.892970 -20.403933 0.000000
5.194100 -25.719695 0.000000
10.218199 -21.926160 0.000000
0.152635 -24.768978 0.000000
-92.729946 -57.779224 0.000000
-94.509000 -70.921266 0.000000
-2.187661 157.858250 0.000000
2.724226 158.703163 0.000000
0.682152 163.699936 0.000000
1.644560 152.902053 0.000000
145.367818 -4.761317 0.000000
150.141106 -0.293885 0.000000
155.299221 -3.903993 0.000000
138.746938 -4.085352 0.000000
142.381840 -8.750193 0.000000
137.101585 -10.774041 0.000000
4.359605 -14.241092 0.000000
-0.204632 -18.547586 0.000000
-66.792371 -87.707938 0.000000
-73.177716 -85.867495 0.000000
-71.335030 -92.368517 0.000000
-77.931107 -89.891186 0.000000
18.411405 -9.289075 0.000000
19.184083 -0.294540 0.000000
11.725266 -4.347636 0.000000
11.751085 -138.913434 0.000000
6.959672 -134.025350 0.000000
5.515013 -139.542947 0.000000
12.398313 -131.911652 0.000000
-0.470375 -146.201606 0.000000
-9.117307 2.107904 0.000000
-14.576426 1.045577 0.000000
-11.308982 -3.185520 0.000000
-12.669039 7.052759 0.000000
-13.121324 -7.592499 0.000000
116.062790 -47.107407 0.000000
122.167496 -39.890703 0.000000
113.608229 -39.736129 0.000000
-3.546366 3.956690 0.000000
-7.730299 7.465814 0.000000
-28.314926 -119.353549 0.000000
-24.595676 -114.939681 0.000000
-115.880940 43.080952 0.000000
-114.981483 48.467651 0.000000
-120.188792 41.308331 0.000000
-49.859518 -123.048818 0.000000
-45.032736 -125.076779 0.000000
-46.681689 -119.441304 0.000000
-50.030826 -128.163803 0.000000
-26.724738 -50.343845 0.000000
-26.135677 -55.954811 0.000000
-134.227583 -7.586436 0.000000
-139.923043 -5.683747 0.000000
-133.656624 -13.328019 0.000000
-140.971848 -0.437725 0.000000
-145.839800 -4.246872 0.000000
-147.693427 1.852284 0.000000
-27.704087 -108.589879 0.000000
-30.569487 -103.316786 0.000000
-33.171396 -108.751803 0.000000
-35.848182 -102.099873 0.000000
-45.030899 101.014016 0.000000
-50.486359 105.235214 0.000000
-52.935279 100.058118 0.000000
-46.312727 107.619433 0.000000
-9.234178 12.021359 0.000000
-14.288715 -143.745160 0.000000
-16.021595 -150.387267 0.000000
-22.636843 -149.968392 0.000000
164.877025 10.599408 0.000000
159.603417 5.161754 0.000000
-42.778888 -115.100382 0.000000
-48.591640 -113.573769 0.000000
40.011826 123.232608 0.000000
38.316171 115.078369 0.000000
-156.207613 98.090381 0.000000
-116.380636 -21.111103 0.000000
-121.066750 -20.314726 0.000000
-10.958887 17.582577 0.000000
-5.874625 163.111090 0.000000
-10.395503 169.760572 0.000000
-5.837635 175.459052 0.000000
1.026357 134.994164 0.000000
1.772673 127.175150 0.000000
5.859529 132.658430 0.000000
8.180588 144.867065 0.000000
3.025155 147.702263 0.000000
2.602373 142.076508 0.000000
7.580662 150.756465 0.000000
-137.251353 3.867260 0.000000
-132.045531 2.140634 0.000000
-133.572747 8.102108 0.000000
-128.295967 5.774117 0.000000
-143.149643 6.549400 0.000000
-39.107004 101.969879 0.000000
-41.242061 107.318559 0.000000
19.549038 -122.249833 0.000000
18.396237 -128.345025 0.000000
24.398379 -125.710782 0.000000
-175.939202 -165.572871 0.000000
180.070827 -60.391833 0.000000
175.087564 -57.161691 0.000000
173.937041 -63.595283 0.000000
20.740442 -116.881680 0.000000
15.210467 -119.603439 0.000000
-165.570243 175.935482 0.000000
169.647085 -60.680886 0.000000
15.038192 -113.962236 0.000000
-3.159037 129.161377 0.000000
175.935482 165.570242 0.000000
144.845310 5.618003 0.000000
146.187317 12.725100 0.000000
139.487911 10.822461 0.000000
-5.099721 135.130967 0.000000
178.385046 -66.349699 0.000000
134.628328 7.504843 0.000000
132.669902 0.923209 0.000000
138.954094 3.628093 0.000000
68.546509 91.498826 0.000000
71.365092 97.508814 0.000000
64.778889 95.176074 0.000000
66.488355 100.937202 0.000000
193.323273 -2.030559 0.000000
10.069203 121.836548 0.000000
8.024567 127.119293 0.000000
4.938112 122.527108 0.000000
165.572871 -175.939202 0.000000
11.430359 116.264965 0.000000
16.854755 115.265233 0.000000
-9.710602 -127.311546 0.000000
-11.970035 -132.403596 0.000000
152.081864 170.601548 0.000000
170.601611 -152.081916 0.000000
-16.748171 -132.386045 0.000000
-10.837146 -137.743073 0.000000
120.370890 123.437570 0.000000
-170.601555 152.081873 0.000000
30.593991 -121.439878 0.000000
30.799747 -115.039923 0.000000
-11.883348 -121.926655 0.000000
-6.924551 -122.605734 0.000000
-152.081924 -170.601616 0.000000
-40.029737 192.959096 0.000000
-37.179118 199.331944 0.000000
-43.852644 198.874326 0.000000
40.663987 -193.983620 0.000000
44.182048 -199.320153 0.000000
-194.014391 -40.664254 0.000000
-199.570212 -44.346971 0.000000
-13.647124 -116.785532 0.000000
-18.218142 -114.606108 0.000000
-112.975230 39.175558 0.000000
-117.496321 36.768284 0.000000
-112.815873 31.754225 0.000000
-108.172643 39.015159 0.000000
-105.178023 33.943810 0.000000
94.083948 -41.903506 0.000000
100.216822 -39.246638 0.000000
95.721660 -36.022004 0.000000
102.555631 -33.500611 0.000000
149.509876 -183.620201 0.000000
151.136358 -179.223780 0.000000
-127.936536 10.778450 0.000000
-133.014286 12.931358 0.000000
183.618700 149.510901 0.000000
179.223729 151.136274 0.000000
-149.510906 183.618705 0.000000
-151.136279 179.223735 0.000000
-183.620204 -149.509879 0.000000
-179.223784 -151.136361 0.000000
-132.584808 18.542810 0.000000
-137.808390 16.631762 0.000000
-137.426757 23.010868 0.000000
-122.507175 11.512869 0.000000
-123.340025 6.527169 0.000000
61.942040 142.949519 0.000000
67.810399 139.873691 0.000000
67.482521 146.103584 0.000000
-196.699821 -80.651070 0.000000
-191.439143 -75.916387 0.000000
121.227851 194.567319 0.000000
123.492316 200.170977 0.000000
117.846285 197.675997 0.000000
126.398761 194.606810 0.000000
194.567404 -121.227857 0.000000
200.171016 -123.492317 0.000000
197.676142 -117.846285 0.000000
194.606847 -126.398766 0.000000
-117.824138 12.418743 0.000000
0.655772 1.060491 0.000000
1.306930 6.547814 0.000000
-194.567705 121.228044 0.000000
-200.171263 123.492363 0.000000
-197.677400 117.846299 0.000000
-194.606995 126.398858 0.000000
0.630756 -3.828450 0.000000
5.792810 -1.207267 0.000000
3.965951 -7.870201 0.000000
11.504564 131.890507 0.000000
-121.228054 -194.567767 0.000000
-123.492471 -200.171136 0.000000
-117.847021 -197.676452 0.000000
-126.398880 -194.606994 0.000000
156.186085 -182.870561 0.000000
-200.830600 -76.445998 0.000000
182.870561 156.186085 0.000000
17.138107 131.051153 0.000000
15.368094 136.640719 0.000000
-17.383598 -199.296181 0.000000
-11.133010 -199.783867 0.000000
-182.870561 -156.186085 0.000000
-156.186086 182.870561 0.000000
22.109154 135.300844 0.000000
118.124238 -27.898591 0.000000
121.722668 -24.674379 0.000000
114.518519 -23.023408 0.000000
120.496464 -18.258064 0.000000
36.304082 100.304043 0.000000
34.698404 94.423819 0.000000
8.186630 20.185268 0.000000
12.969744 18.195313 0.000000
12.616873 22.829526 0.000000
-125.811843 1.138245 0.000000
30.419026 199.941308 0.000000
-102.283724 39.895906 0.000000
-105.272635 44.062282 0.000000
199.947974 -30.601916 0.000000
-110.510374 45.259172 0.000000
-99.565479 35.077673 0.000000
-96.689709 40.789300 0.000000
-93.879921 36.107036 0.000000
130.234404 17.270971 0.000000
133.345163 23.120829 0.000000
126.292522 21.841202 0.000000
128.699314 27.423040 0.000000
-18.202707 6.729219 0.000000
160.231415 -173.461806 0.000000
-8.621944 157.925212 0.000000
152.109402 7.295379 0.000000
-5.251042 152.055076 0.000000
-1.629762 146.829728 0.000000
143.611054 0.021108 0.000000
12.128555 97.826659 0.000000
18.536021 97.294738 0.000000
15.687955 102.489135 0.000000
173.461806 160.231415 0.000000
15.476928 92.324213 0.000000
78.630611 -137.788494 0.000000
-94.208303 24.556464 0.000000
-97.621801 19.103559 0.000000
-90.993496 18.766858 0.000000
-173.461806 -160.231415 0.000000
-94.628885 14.545443 0.000000
37.872835 18.113826 0.000000
36.526840 25.105139 0.000000
128.830460 11.933773 0.000000
134.624254 12.916641 0.000000
136.643215 17.082378 0.000000
122.657977 10.880380 0.000000
128.096472 6.451331 0.000000
122.741327 16.578474 0.000000
9.231019 -117.339203 0.000000
9.584628 -122.600232 0.000000
-160.231415 173.461806 0.000000
13.734786 -125.200079 0.000000
135.281709 70.901530 0.000000
127.043502 70.324436 0.000000
130.008017 65.557805 0.000000
-4.546125 -22.442614 0.000000
-7.214861 -17.979692 0.000000
-100.626117 13.284062 0.000000
-103.500765 18.249639 0.000000
-106.111006 22.587585 0.000000
-109.169903 17.774335 0.000000
-111.193359 23.746737 0.000000
-4.541647 116.326058 0.000000
-9.259560 119.850580 0.000000
-9.463339 113.472226 0.000000
-14.419871 117.200039 0.000000
0.817800 113.261212 0.000000
0.783182 119.932799 0.000000
6.776157 116.474391 0.000000
15.154301 28.230473 0.000000
15.190622 36.387433 0.000000
9.211753 33.863532 0.000000
22.218024 32.191228 0.000000
-151.921459 17.412226 0.000000
-150.496605 24.796082 0.000000
-146.584854 20.308246 0.000000
-144.083334 24.943272 0.000000
-3.139376 140.866513 0.000000
-80.117157 140.173672 0.000000
-86.723781 144.894969 0.000000
-86.963944 138.283535 0.000000
-80.738988 148.224962 0.000000
103.653068 95.523014 0.000000
104.266387 101.936978 0.000000
112.352486 197.570030 0.000000
105.834826 197.082601 0.000000
197.570385 -112.352474 0.000000
197.083894 -105.834764 0.000000
-97.660324 104.483229 0.000000
130.181230 77.375918 0.000000
85.151248 -138.240508 0.000000
89.214476 -141.221001 0.000000
-197.575319 112.351867 0.000000
-197.109772 105.829900 0.000000
141.000537 67.222611 0.000000
82.056107 -196.664420 0.000000
76.733402 -192.435068 0.000000
76.490480 -199.309259 0.000000
-112.355339 -197.570435 0.000000
-105.849977 -197.080939 0.000000
-199.315064 17.374761 0.000000
-199.847710 11.112310 0.000000
94.269371 -107.778337 0.000000
-105.350706 -104.195061 0.000000
-107.096115 -93.581842 0.000000
45.471483 -180.713444 0.000000
47.944377 -184.743857 0.000000
-14.353907 193.020758 0.000000
-181.371105 -45.045691 0.000000
-185.867331 -47.925749 0.000000
53.448471 -197.468314 0.000000
56.087202 -192.059026 0.000000
47.793213 -191.857463 0.000000
-82.021309 196.670539 0.000000
-76.653323 192.501687 0.000000
-76.324803 199.143381 0.000000
53.583336 -185.718697 0.000000
-189.265321 -109.212453 0.000000
-197.462904 -105.924698 0.000000
-197.260453 -112.320467 0.000000
93.007608 -95.912937 0.000000
95.423269 -101.870225 0.000000
99.735777 -97.947039 0.000000
109.212457 -189.264260 0.000000
105.924651 -197.462043 0.000000
112.320452 -197.260040 0.000000
100.055930 -104.677742 0.000000
-109.324790 188.987515 0.000000
-105.946529 197.327088 0.000000
-112.343702 197.189137 0.000000
188.985394 109.324162 0.000000
197.325798 105.946566 0.000000
197.188424 112.343579 0.000000
-197.474759 -99.304974 0.000000
99.304999 -197.472736 0.000000
-99.306763 197.478842 0.000000
197.476970 99.307128 0.000000
-194.562855 -87.157971 0.000000
-197.262782 -92.158131 0.000000
115.425475 -85.482273 0.000000
120.861496 -84.942143 0.000000
112.086572 -81.085528 0.000000
87.160425 -194.554892 0.000000
92.159007 -197.257839 0.000000
133.407005 -105.323953 0.000000
194.311273 86.902324 0.000000
197.236264 92.127768 0.000000
134.157236 -110.824269 0.000000
-87.171396 194.594510 0.000000
-92.165513 197.277225 0.000000
-97.119750 -85.336353 0.000000
-197.253634 91.441686 0.000000
-192.775892 84.970235 0.000000
-102.952288 -87.395472 0.000000
-85.872678 -198.319649 0.000000
-82.348155 -193.471269 0.000000
79.708440 198.367791 0.000000
85.866009 198.082952 0.000000
198.377855 -79.711893 0.000000
198.089892 -85.866961 0.000000
-199.587937 84.514468 0.000000
197.034466 -92.815969 0.000000
92.816210 197.030870 0.000000
-83.797283 -127.777512 0.000000
-92.829738 -197.072685 0.000000
193.253235 -83.112026 0.000000
83.109773 193.238484 0.000000
-75.318954 123.879283 0.000000
-68.697705 120.458975 0.000000
-69.774251 127.265024 0.000000
-80.161465 -199.322536 0.000000
196.993701 -99.244541 0.000000
99.244681 196.991077 0.000000
-99.263712 -196.995449 0.000000
-62.604817 123.660573 0.000000
181.275251 -52.229536 0.000000
-89.409015 121.296496 0.000000
-85.623431 112.185640 0.000000
-197.091157 99.094221 0.000000
-80.289427 112.570046 0.000000
-194.233038 75.406336 0.000000
-199.918642 78.442072 0.000000
-198.891471 71.989691 0.000000
89.191460 83.636940 0.000000
131.408304 -180.260403 0.000000
135.737451 -175.991588 0.000000
54.944051 165.656145 0.000000
123.256885 63.151465 0.000000
128.834161 53.029610 0.000000
84.856146 -160.620423 0.000000
-180.260413 -131.408321 0.000000
-175.991617 -135.737463 0.000000
-54.595125 170.423104 0.000000
180.260383 131.408329 0.000000
175.991579 135.737467 0.000000
-131.408364 180.260397 0.000000
-135.737495 175.991619 0.000000
-52.172372 166.184958 0.000000
-134.940771 90.834178 0.000000
-199.675479 38.137351 0.000000
-199.431160 31.487419 0.000000
-38.145195 -199.671412 0.000000
-31.496414 -199.425072 0.000000
144.844622 194.838013 0.000000
139.670114 190.424445 0.000000
146.796503 189.282741 0.000000
194.838013 -144.844622 0.000000
190.424448 -139.670116 0.000000
189.282741 -146.796504 0.000000
66.312631 -189.154741 0.000000
62.666009 -193.054773 0.000000
-86.723898 199.822649 0.000000
-194.838016 144.844629 0.000000
-190.424458 139.670136 0.000000
-189.282744 146.796511 0.000000
-144.844629 -194.838017 0.000000
-139.670137 -190.424460 0.000000
-146.796511 -189.282744 0.000000
35.660332 -27.629345 0.000000
29.534208 -25.338634 0.000000
31.220436 -33.293848 0.000000
23.611247 -30.376571 0.000000
-199.807420 -86.717472 0.000000
199.865439 86.749483 0.000000
86.718687 -199.803696 0.000000
145.281125 166.782136 0.000000
-1.975818 198.317567 0.000000
2.635084 192.054403 0.000000
197.959213 65.706311 0.000000
191.354600 66.840096 0.000000
192.594197 61.358454 0.000000
137.503183 -76.377181 0.000000
143.626320 -78.133644 0.000000
141.962627 -72.026354 0.000000
153.059344 78.163464 0.000000
166.782143 -145.281127 0.000000
-166.782154 145.281147 0.000000
-53.747635 -173.597665 0.000000
146.405639 78.337165 0.000000
-72.091299 172.442811 0.000000
-72.374491 165.506314 0.000000
-67.083746 172.158384 0.000000
-176.411240 -69.227006 0.000000
-171.104018 -71.746146 0.000000
-171.459938 -66.467468 0.000000
-165.400786 -71.754439 0.000000
-145.281148 -166.782158 0.000000
-195.668169 81.022109 0.000000
-5.064001 123.832877 0.000000
136.562529 99.151420 0.000000
-128.644393 -60.598447 0.000000
-173.576842 53.677043 0.000000
148.017660 33.431642 0.000000
150.694135 26.720888 0.000000
122.528832 -188.311530 0.000000
-188.311741 -122.528857 0.000000
188.311619 122.528980 0.000000
71.674693 -171.213726 0.000000
72.119543 -165.244082 0.000000
67.218286 -170.244654 0.000000
-90.501192 -124.993615 0.000000
-85.957600 -121.851338 0.000000
-122.529053 188.311919 0.000000
129.973311 199.346711 0.000000
-86.765770 -117.167132 0.000000
199.346716 -129.973313 0.000000
141.439833 -89.669781 0.000000
-84.071989 -112.265668 0.000000
-199.346738 129.973337 0.000000
-129.973339 -199.346741 0.000000
153.994278 200.235897 0.000000
148.034990 199.606145 0.000000
-69.424327 177.189055 0.000000
200.235897 -153.994278 0.000000
199.606145 -148.034990 0.000000
172.497615 -81.374167 0.000000
-200.235897 153.994279 0.000000
-199.606146 148.034992 0.000000
-153.994279 -200.235897 0.000000
-148.034993 -199.606146 0.000000
153.892750 -199.980779 0.000000
81.371093 172.442638 0.000000
199.980779 153.892750 0.000000
-199.980779 -153.892750 0.000000
-153.892751 199.980779 0.000000
132.699804 194.178318 0.000000
-168.646917 -85.674750 0.000000
194.178323 -132.699807 0.000000
-194.178341 132.699836 0.000000
-86.189623 168.380477 0.000000
85.894650 -168.301029 0.000000
138.442307 110.073611 0.000000
167.875333 86.765414 0.000000
-132.699839 -194.178344 0.000000
-58.585431 197.674329 0.000000
-187.410364 -55.009731 0.000000
59.110526 -198.695896 0.000000
-172.372340 81.896167 0.000000
-58.489543 -162.150878 0.000000
-49.545656 -154.896113 0.000000
197.798795 58.399579 0.000000
186.338149 61.446804 0.000000
-77.314804 -180.526315 0.000000
-78.835564 -187.224495 0.000000
-185.828835 -74.587660 0.000000
-110.355833 -127.074074 0.000000
-116.250996 -131.505660 0.000000
-162.530317 58.959172 0.000000
87.177307 142.741255 0.000000
79.267182 140.913212 0.000000
86.106258 135.808191 0.000000
74.867154 -186.063675 0.000000
67.268147 -158.546510 0.000000
73.871714 -158.724455 0.000000
104.751094 131.797269 0.000000
109.108660 127.154456 0.000000
127.526856 -109.663403 0.000000
131.483829 -116.106542 0.000000
-78.392104 161.229003 0.000000
-73.840114 158.279869 0.000000
-80.146121 166.329714 0.000000
128.788905 -186.405102 0.000000
-186.405173 -128.788924 0.000000
-75.379585 186.387623 0.000000
192.243549 -36.270861 0.000000
188.777658 -31.151444 0.000000
186.405120 128.788965 0.000000
-128.789010 186.405224 0.000000
-200.106583 -134.246440 0.000000
134.246436 -200.106575 0.000000
-134.246451 200.106590 0.000000
200.106577 134.246444 0.000000
116.737249 130.717029 0.000000
-162.672825 78.280693 0.000000
-161.145218 -77.989613 0.000000
-158.065152 -73.255052 0.000000
-166.555405 -79.515682 0.000000
77.988435 -161.174778 0.000000
79.807618 -166.195327 0.000000
-141.243390 91.620379 0.000000
-104.507995 -122.460827 0.000000
-91.574921 -141.043849 0.000000
194.495478 32.808159 0.000000
-98.324778 -103.021582 0.000000
-95.689543 121.630345 0.000000
-103.253249 -99.219157 0.000000
-58.730131 -169.902885 0.000000
-64.877336 -173.535964 0.000000
-59.136349 -176.938711 0.000000
-177.591747 70.496609 0.000000
-174.185756 66.012383 0.000000
116.698427 101.936280 0.000000
-144.320333 14.359332 0.000000
-142.102538 20.030320 0.000000
-34.560145 187.257880 0.000000
-31.466479 194.216717 0.000000
89.357776 148.430889 0.000000
-148.634497 98.414022 0.000000
-145.931877 93.219612 0.000000
-181.962803 76.310633 0.000000
-175.237209 76.937654 0.000000
-74.059712 137.676449 0.000000
-73.704238 144.344760 0.000000
155.833426 -75.750997 0.000000
151.498756 -72.303441 0.000000
76.187094 155.330133 0.000000
72.676088 151.042222 0.000000
-103.129838 107.688463 0.000000
-170.158118 40.873072 0.000000
65.849753 162.328048 0.000000
61.936599 157.098088 0.000000
60.910028 163.488100 0.000000
-40.884405 -169.896297 0.000000
89.314929 129.517386 0.000000
92.695224 124.481257 0.000000
86.683418 124.098747 0.000000
188.584529 -51.206444 0.000000
191.958004 -46.800961 0.000000
195.044657 -51.672899 0.000000
-137.671514 66.540525 0.000000
-140.270336 60.771280 0.000000
-133.100460 61.692997 0.000000
-137.052833 55.742571 0.000000
162.467555 -65.931332 0.000000
157.312977 -62.083812 0.000000
163.644785 -61.035015 0.000000
-30.349848 182.800951 0.000000
-35.581299 180.729914 0.000000
55.053256 160.069648 0.000000
160.239263 -55.228589 0.000000
-138.273166 -83.015644 0.000000
79.472000 134.557954 0.000000
82.509728 129.508236 0.000000
-183.354518 51.261508 0.000000
22.156972 92.843003 0.000000
-50.858480 -184.153434 0.000000
21.765121 102.498230 0.000000
162.407754 76.573103 0.000000
168.988437 76.574890 0.000000
-35.361777 174.410565 0.000000
59.948661 180.381294 0.000000
61.326608 175.077228 0.000000
65.554794 178.609343 0.000000
56.647408 175.399513 0.000000
-91.733603 -119.430729 0.000000
138.421133 77.730940 0.000000
142.002191 82.657233 0.000000
155.857501 57.040226 0.000000
162.564366 59.636186 0.000000
-114.018950 90.695554 0.000000
-109.319061 95.021867 0.000000
-91.968437 141.788712 0.000000
92.910402 -144.121201 0.000000
91.954911 133.836065 0.000000
92.322626 138.978954 0.000000
106.143223 -100.836332 0.000000
111.131885 -104.488729 0.000000
116.444779 -104.302499 0.000000
110.355033 102.756350 0.000000
-27.830947 -175.384728 0.000000
-175.470161 28.193561 0.000000
179.442565 61.042309 0.000000
-8.010019 188.869104 0.000000
-8.075545 196.316578 0.000000
-108.328470 66.443967 0.000000
-101.534915 68.824954 0.000000
-89.979641 -113.036666 0.000000
19.150773 87.610077 0.000000
25.757991 88.364622 0.000000
-159.094484 -66.111181 0.000000
-154.740288 -68.974518 0.000000
-93.769016 -107.991801 0.000000
170.224933 81.822747 0.000000
-167.685627 57.996123 0.000000
-173.284605 60.226398 0.000000
91.171128 119.150816 0.000000
90.858969 113.394993 0.000000
-121.285976 -58.184571 0.000000
-123.100215 -65.071635 0.000000
54.667244 170.750592 0.000000
50.848911 174.978666 0.000000
-81.595641 171.122424 0.000000
170.886204 -54.957196 0.000000
174.708975 -51.115414 0.000000
184.897827 75.604544 0.000000
81.386661 -170.972813 0.000000
-170.989257 -81.432913 0.000000
111.717697 -88.823617 0.000000
105.394592 -92.692242 0.000000
24.794291 81.776957 0.000000
-84.627157 30.681118 0.000000
-88.213397 36.484563 0.000000
-91.052188 30.354580 0.000000
74.412966 -130.682452 0.000000
155.666630 26.256955 0.000000
-72.560648 -199.535637 0.000000
160.510228 -201.337349 0.000000
0.731770 27.008781 0.000000
3.481611 22.533688 0.000000
200.222502 159.588333 0.000000
-159.588334 200.222502 0.000000
-201.337349 -160.510228 0.000000
169.717295 -38.584206 0.000000
157.981213 -42.167847 0.000000
161.145291 -49.821516 0.000000
144.345435 -49.008268 0.000000
144.211021 -44.661196 0.000000
150.159466 -42.169380 0.000000
144.618803 -37.068521 0.000000
196.505262 82.035663 0.000000
192.231218 76.890193 0.000000
199.035102 76.538185 0.000000
-60.148053 172.938069 0.000000
144.287569 27.614007 0.000000
-164.994366 -62.537370 0.000000
-172.547607 -59.544874 0.000000
63.795103 -165.670185 0.000000
60.262456 -172.916285 0.000000
68.239634 -176.178991 0.000000
147.637780 -90.509623 0.000000
194.896135 71.784907 0.000000
-67.447987 159.997551 0.000000
-61.314812 -130.492631 0.000000
-65.195887 -137.708242 0.000000
-56.969922 -137.236965 0.000000
-91.047122 92.657762 0.000000
76.600272 -170.858840 0.000000
-84.472493 89.731270 0.000000
127.830961 -66.441869 0.000000
130.940410 -60.471513 0.000000
125.103715 -61.489252 0.000000
150.788703 73.852991 0.000000
156.232204 73.219140 0.000000
90.751627 -38.578486 0.000000
134.061040 -65.663048 0.000000
89.966050 -32.630513 0.000000
126.277378 -55.108652 0.000000
-166.221291 -53.923218 0.000000
-189.567958 79.147568 0.000000
-198.278224 24.563875 0.000000
-76.869541 171.293569 0.000000
65.141153 185.110773 0.000000
58.754406 186.629520 0.000000
-24.575089 -198.268130 0.000000
155.702263 -48.020387 0.000000
-201.086340 -71.318841 0.000000
165.669719 -54.995088 0.000000
60.538913 169.479321 0.000000
179.765199 -35.670244 0.000000
132.932654 -99.844834 0.000000
163.577337 -33.711714 0.000000
170.082406 -31.253644 0.000000
-71.149854 200.643116 0.000000
146.091623 70.840772 0.000000
145.654640 64.490417 0.000000
151.260093 68.134845 0.000000
150.411689 60.569546 0.000000
157.115914 65.009726 0.000000
-170.924950 -76.505508 0.000000
-143.789956 -83.581727 0.000000
122.539469 -103.848927 0.000000
101.654252 -28.642638 0.000000
106.934102 -27.075037 0.000000
109.478760 -33.899584 0.000000
112.288903 -28.224693 0.000000
-151.634273 -73.554567 0.000000
-145.056890 -72.580884 0.000000
-90.746176 125.905690 0.000000
-147.736541 -78.823849 0.000000
-92.621769 135.811955 0.000000
131.164598 -73.259356 0.000000
-34.183182 -161.740649 0.000000
-199.068150 -58.100188 0.000000
100.193491 132.369507 0.000000
-107.192468 89.243454 0.000000
-155.343749 -80.208477 0.000000
79.042533 122.858789 0.000000
74.439233 130.208350 0.000000
-121.882220 103.970249 0.000000
-192.919584 -48.593397 0.000000
-130.096475 -66.733564 0.000000
-130.277285 -73.458189 0.000000
83.919145 -103.655573 0.000000
86.026138 -98.118221 0.000000
89.608996 -103.734825 0.000000
93.735958 -87.961149 0.000000
87.694951 -90.420201 0.000000
-162.227483 33.783843 0.000000
-155.886231 93.053901 0.000000
88.256031 -83.419402 0.000000
185.156460 -65.217572 0.000000
18.819879 -104.704832 0.000000
13.860136 -107.639759 0.000000
20.686680 -110.042439 0.000000
43.731074 143.301762 0.000000
40.580161 148.082588 0.000000
36.028688 143.427531 0.000000
-178.729257 55.950572 0.000000
-41.689525 -154.357014 0.000000
58.346137 -114.576505 0.000000
-96.058456 -90.681701 0.000000
-91.291482 -86.651908 0.000000
-89.540126 -93.479424 0.000000
-84.544395 -87.827195 0.000000
-77.467169 -163.282734 0.000000
-48.945510 94.043325 0.000000
186.338338 47.719105 0.000000
-90.069625 -75.811964 0.000000
194.350439 -30.701451 0.000000
-96.283995 -97.578366 0.000000
-41.784732 95.994788 0.000000
-150.220649 9.631139 0.000000
-44.015410 -199.481354 0.000000
-199.482225 44.005399 0.000000
-117.036494 -31.254229 0.000000
-113.494631 -26.093486 0.000000
186.710494 -58.677307 0.000000
-52.623697 -160.307341 0.000000
85.475479 117.485218 0.000000
-48.875783 184.823163 0.000000
-138.650497 10.255016 0.000000
52.112170 -165.351933 0.000000
-66.547836 -108.360791 0.000000
-68.796803 -100.533944 0.000000
116.575906 -33.501735 0.000000
-17.054817 168.373147 0.000000
-15.576023 173.287632 0.000000
-22.703930 167.602782 0.000000
-117.493876 86.362670 0.000000
74.766304 197.470370 0.000000
-112.126558 83.542317 0.000000
103.702266 121.203907 0.000000
-122.298815 120.858887 0.000000
-19.104468 162.941820 0.000000
-153.502483 41.111253 0.000000
197.484830 -74.775014 0.000000
-74.695747 151.924080 0.000000
-69.518493 149.511011 0.000000
141.440128 73.006604 0.000000
-126.912707 110.218959 0.000000
189.197691 72.109187 0.000000
116.373570 66.005785 0.000000
138.567310 -58.851635 0.000000
139.196136 -50.264749 0.000000
144.392364 -61.615550 0.000000
140.551492 -65.986869 0.000000
146.309868 -67.554792 0.000000
-87.764893 131.161587 0.000000
-81.222755 128.402186 0.000000
-82.403549 135.500537 0.000000
-76.225890 132.290488 0.000000
174.896067 74.667089 0.000000
47.515742 -71.219045 0.000000
50.227232 -76.610900 0.000000
55.249010 -70.990661 0.000000
-190.601090 58.407915 0.000000
-58.628516 -190.737888 0.000000
-109.740352 -66.619536 0.000000
-54.463514 -179.309372 0.000000
26.024822 162.997312 0.000000
34.384826 161.273589 0.000000
31.010495 168.446871 0.000000
37.985965 166.855207 0.000000
-151.372685 63.355560 0.000000
188.528254 29.729251 0.000000
-169.838906 -47.944118 0.000000
-163.106746 -45.966941 0.000000
200.577996 71.351677 0.000000
179.235249 76.294248 0.000000
57.864113 192.396602 0.000000
74.102940 136.446009 0.000000
-42.325769 184.628516 0.000000
164.908354 49.634117 0.000000
125.215826 91.701561 0.000000
72.647058 141.826255 0.000000
-107.556346 -59.344474 0.000000
-134.512904 -98.277939 0.000000
-67.608328 -132.110510 0.000000
-72.176145 -129.866752 0.000000
74.572246 145.794776 0.000000
-97.709578 134.075662 0.000000
110.264514 85.571882 0.000000
113.539477 80.855587 0.000000
-54.887585 -131.334848 0.000000
-49.937382 -133.807223 0.000000
200.373728 -51.354411 0.000000
-111.077831 -21.323441 0.000000
-112.554947 -15.759576 0.000000
160.782163 70.477262 0.000000
-15.108528 146.549427 0.000000
-17.057096 152.017452 0.000000
-22.211054 147.228919 0.000000
-23.028795 152.996781 0.000000
-32.080876 -98.480821 0.000000
-39.580135 -97.308514 0.000000
200.375601 31.570034 0.000000
192.512596 -57.978792 0.000000
128.748819 82.908869 0.000000
50.664886 200.256926 0.000000
-100.704110 -119.436705 0.000000
-34.402339 -92.185360 0.000000
9.057401 91.804388 0.000000
7.026257 96.892408 0.000000
146.615085 -73.711001 0.000000
-22.255452 135.966265 0.000000
-20.727134 129.422879 0.000000
-17.811829 134.215300 0.000000
-93.807226 -155.674497 0.000000
-27.076681 132.006231 0.000000
-17.851143 -22.271506 0.000000
-23.364182 -17.490027 0.000000
-23.409285 -24.288143 0.000000
-28.436972 -21.320294 0.000000
-130.848036 55.399121 0.000000
-134.513068 49.586453 0.000000
-30.001453 -13.980330 0.000000
-22.742141 -10.525521 0.000000
83.573628 38.454289 0.000000
78.563300 41.977161 0.000000
78.627035 35.146643 0.000000
72.596711 38.621394 0.000000
89.404884 34.878754 0.000000
89.800095 41.170114 0.000000
94.326180 37.633777 0.000000
31.177629 -108.725452 0.000000
25.637213 -112.471822 0.000000
36.497838 -111.900872 0.000000
-1.894237 -118.530105 0.000000
-0.372127 -124.604318 0.000000
2.489374 -114.661373 0.000000
0.456614 -107.836296 0.000000
-20.316326 -96.780389 0.000000
-18.602818 -103.260325 0.000000
-13.997772 -98.697325 0.000000
77.518110 -144.966777 0.000000
-25.104572 -101.675275 0.000000
119.142934 22.857732 0.000000
122.279273 27.655121 0.000000
117.754993 33.488072 0.000000
110.934449 37.046338 0.000000
111.301280 31.257463 0.000000
116.251820 39.704615 0.000000
167.315285 58.895175 0.000000
-102.966562 -47.744845 0.000000
-98.021563 -52.261337 0.000000
-96.283085 -46.259170 0.000000
-104.632853 -53.416304 0.000000
-7.962664 103.526080 0.000000
-5.175743 99.311574 0.000000
-2.872785 104.587072 0.000000
-0.063705 98.098188 0.000000
-9.471860 108.436128 0.000000
-13.555251 103.545165 0.000000
-14.734159 109.907513 0.000000
-31.159167 200.597601 0.000000
3.331563 -128.742430 0.000000
8.421458 -127.411638 0.000000
-143.250397 55.411783 0.000000
101.405661 30.742556 0.000000
99.981931 37.593944 0.000000
95.646748 32.348972 0.000000
105.862014 33.829737 0.000000
-69.706892 155.351995 0.000000
-129.276661 -3.345287 0.000000
-128.001767 -10.400671 0.000000
96.111535 -13.065493 0.000000
94.123486 -18.936246 0.000000
101.683145 -16.061543 0.000000
-70.684854 133.136268 0.000000
100.138920 -23.640037 0.000000
66.994914 151.953091 0.000000
97.481647 -6.376389 0.000000
91.512040 -8.984572 0.000000
91.363608 -3.105441 0.000000
114.997015 27.009694 0.000000
-37.545158 -111.815368 0.000000
-35.596544 -117.677041 0.000000
-38.480378 -106.854461 0.000000
-32.430672 -81.888048 0.000000
-27.702465 -77.234729 0.000000
-34.587102 -75.732392 0.000000
-29.265248 -69.703981 0.000000
-37.330668 -86.370809 0.000000
-29.222473 -87.369138 0.000000
152.126511 -67.076966 0.000000
-101.890263 30.108775 0.000000
-96.908094 30.155023 0.000000
-87.395663 24.323827 0.000000
70.844048 -190.036397 0.000000
7.124085 109.347223 0.000000
12.597681 107.034907 0.000000
12.270360 112.150884 0.000000
8.853931 102.856789 0.000000
27.723891 180.881883 0.000000
-66.028201 -71.652562 0.000000
-61.190037 -67.450993 0.000000
-68.057103 -65.653367 0.000000
-62.965567 -61.241269 0.000000
-70.901068 -74.775067 0.000000
-63.571119 -77.783115 0.000000
-68.753033 -81.416051 0.000000
72.383365 123.794180 0.000000
116.983157 15.745355 0.000000
112.699679 20.981935 0.000000
-71.781456 -135.976009 0.000000
-8.654931 140.049417 0.000000
-12.636536 141.762365 0.000000
-12.517658 135.990887 0.000000
-8.660244 145.375957 0.000000
56.171460 111.146077 0.000000
52.199264 116.310587 0.000000
-101.478473 -93.412656 0.000000
-130.761665 115.675477 0.000000
-21.365409 158.132790 0.000000
-14.816827 157.500150 0.000000
-132.008081 67.710318 0.000000
-12.294186 163.060796 0.000000
13.937981 142.489439 0.000000
13.225849 148.752414 0.000000
136.910315 -70.941458 0.000000
20.449696 141.119694 0.000000
28.194983 -18.578443 0.000000
23.469322 -23.452490 0.000000
22.310197 -16.363831 0.000000
-51.600363 56.270288 0.000000
-49.278332 49.692852 0.000000
-43.573029 55.620170 0.000000
-41.805295 48.636906 0.000000
47.086611 12.144065 0.000000
40.393261 10.911579 0.000000
45.283686 6.562407 0.000000
2.916827 32.812494 0.000000
-3.667423 31.545241 0.000000
-129.189711 71.781482 0.000000
4.048170 38.838203 0.000000
9.898862 40.358314 0.000000
31.880795 -102.177266 0.000000
37.327681 -105.759358 0.000000
-55.672351 -143.425007 0.000000
-41.039684 -147.992142 0.000000
33.214563 -95.936609 0.000000
26.704469 -99.123315 0.000000
27.928547 -91.784928 0.000000
-60.350039 -110.222579 0.000000
-58.243786 -116.902049 0.000000
-54.426463 -111.538590 0.000000
-64.248473 -114.963570 0.000000
-50.358783 -107.297981 0.000000
-46.869818 -103.623752 0.000000
-51.750342 -101.349285 0.000000
174.408670 -33.954744 0.000000
-46.710358 -97.723398 0.000000
-147.929545 40.860799 0.000000
-142.661859 43.740702 0.000000
-142.998943 36.880292 0.000000
-52.629438 -118.286257 0.000000
-20.911925 123.592888 0.000000
-26.287587 125.598305 0.000000
-20.318792 117.906967 0.000000
-16.525937 122.263811 0.000000
-99.796422 -147.668947 0.000000
-93.698281 -145.676208 0.000000
85.581627 24.696126 0.000000
79.293612 27.804751 0.000000
80.848173 22.145662 0.000000
74.935857 23.824801 0.000000
-39.234263 64.305096 0.000000
-35.825945 69.970737 0.000000
-43.020451 69.662492 0.000000
-39.591212 74.688653 0.000000
72.851857 46.026546 0.000000
77.939321 48.205662 0.000000
-100.283427 -132.303712 0.000000
84.239282 46.706305 0.000000
66.882112 49.971219 0.000000
67.276491 43.049395 0.000000
-60.243118 -200.109166 0.000000
60.519943 46.595126 0.000000
-200.096165 60.173473 0.000000
76.492115 60.242721 0.000000
80.349508 54.243878 0.000000
82.741071 60.550092 0.000000
39.010876 89.612282 0.000000
43.156916 84.036013 0.000000
45.739079 91.110539 0.000000
71.049899 60.824212 0.000000
73.403139 53.765833 0.000000
49.859921 85.996766 0.000000
73.440362 31.336450 0.000000
83.872486 31.391540 0.000000
67.927132 34.255365 0.000000
68.513026 27.457916 0.000000
62.136147 31.149930 0.000000
2.080003 106.901854 0.000000
3.024024 101.866519 0.000000
41.625151 39.594457 0.000000
37.381473 32.585294 0.000000
44.651768 32.120329 0.000000
41.517879 27.498132 0.000000
57.227148 27.368139 0.000000
57.689773 19.357061 0.000000
63.016242 23.329903 0.000000
52.297542 22.942912 0.000000
69.024761 20.057118 0.000000
35.879171 171.869915 0.000000
-84.487676 -133.330943 0.000000
-89.805420 -136.274467 0.000000
109.840442 -49.581464 0.000000
110.499627 -44.417812 0.000000
105.886816 -46.823267 0.000000
102.301119 -44.270552 0.000000
100.907917 -49.592500 0.000000
97.629249 -46.090822 0.000000
-109.858415 60.020996 0.000000
-116.154401 57.884899 0.000000
-111.203682 53.011817 0.000000
-114.612679 63.855594 0.000000
-39.915924 85.635055 0.000000
-43.336069 80.186753 0.000000
-35.914578 80.505144 0.000000
-36.544742 91.595720 0.000000
-44.476292 89.889852 0.000000
115.889443 9.748349 0.000000
110.443023 8.040501 0.000000
106.641290 1.958751 0.000000
-101.469157 6.978236 0.000000
-108.600649 5.727085 0.000000
-102.615677 1.654532 0.000000
-107.920786 -2.202675 0.000000
-95.158710 8.166636 0.000000
-0.183258 44.064341 0.000000
6.522387 45.927713 0.000000
32.365370 88.457245 0.000000
41.625125 95.240465 0.000000
30.490588 82.503981 0.000000
3.891579 72.838996 0.000000
5.212328 65.417454 0.000000
11.634061 68.990163 0.000000
-2.369490 67.882718 0.000000
-15.804507 56.195507 0.000000
-13.551878 61.165655 0.000000
-20.174769 60.283806 0.000000
-16.245958 65.777042 0.000000
-17.972192 50.346690 0.000000
-10.652593 52.291667 0.000000
-12.769345 46.002366 0.000000
-47.113834 74.268828 0.000000
-50.985544 80.140032 0.000000
-47.361461 84.745653 0.000000
-51.020461 68.521464 0.000000
-46.574730 62.783170 0.000000
59.587857 68.678037 0.000000
65.941941 64.388346 0.000000
65.553134 71.114874 0.000000
59.990248 61.565452 0.000000
-46.301295 144.036745 0.000000
72.659734 74.358492 0.000000
66.134521 77.351332 0.000000
70.339451 81.280927 0.000000
-32.075782 75.201809 0.000000
-30.055764 80.476847 0.000000
-32.468221 86.519815 0.000000
-28.280375 69.790235 0.000000
-32.243953 63.734829 0.000000
46.500174 -120.698905 0.000000
-32.261235 104.739316 0.000000
-33.589612 97.702877 0.000000
-36.414657 107.650670 0.000000
-27.849021 91.872524 0.000000
17.623812 80.437580 0.000000
12.229422 86.357408 0.000000
4.877488 86.049069 0.000000
2.055921 92.406455 0.000000
-54.501451 -15.164248 0.000000
-56.310533 -9.412235 0.000000
-60.265983 -13.362052 0.000000
-50.097317 -9.666196 0.000000
-121.182215 -83.881150 0.000000
-35.802828 153.119121 0.000000
-65.451956 -11.649480 0.000000
-64.679016 -17.703997 0.000000
-38.344663 159.040859 0.000000
-71.013638 -14.756859 0.000000
78.857252 -107.292034 0.000000
-26.570985 187.432297 0.000000
-54.815538 62.379140 0.000000
-59.400505 55.368759 0.000000
-56.449379 49.371027 0.000000
-59.799021 68.511436 0.000000
-54.886358 73.404126 0.000000
25.275911 -36.633689 0.000000
25.594036 -43.553134 0.000000
91.117883 22.708259 0.000000
90.626495 28.466922 0.000000
86.021631 18.500531 0.000000
-83.175036 -94.665886 0.000000
-82.347675 -15.875087 0.000000
-75.840440 -19.141804 0.000000
-76.461893 -10.088782 0.000000
-9.176052 35.588367 0.000000
-7.359912 41.954462 0.000000
-14.649047 39.156232 0.000000
-10.988413 29.719980 0.000000
156.593048 -30.157326 0.000000
-70.118464 3.854630 0.000000
-67.669801 -1.690238 0.000000
-63.834763 2.268747 0.000000
-73.238027 -2.444666 0.000000
-58.596588 0.668628 0.000000
-59.061963 7.142706 0.000000
-53.067057 2.762447 0.000000
8.946757 -89.862215 0.000000
11.136808 -83.104331 0.000000
4.547401 -84.661783 0.000000
6.609165 -78.345911 0.000000
41.955533 101.493948 0.000000
48.186929 98.252190 0.000000
38.793644 106.988250 0.000000
-99.625411 -20.630751 0.000000
-93.585310 -23.338937 0.000000
-94.672559 -15.591126 0.000000
-87.403834 -19.682718 0.000000
-98.651342 -27.502993 0.000000
-92.507958 -30.032096 0.000000
19.207115 -83.616841 0.000000
21.335893 -89.932068 0.000000
25.391278 -85.186556 0.000000
-45.039057 -47.500576 0.000000
-47.518076 -39.076001 0.000000
-52.933842 -44.917259 0.000000
-39.678862 -42.688921 0.000000
-135.632767 72.205701 0.000000
66.151238 57.396715 0.000000
72.644969 66.893767 0.000000
-96.917809 -34.475296 0.000000
-105.789329 -25.783468 0.000000
-21.157670 94.109646 0.000000
-14.205610 91.970572 0.000000
-17.675357 98.518870 0.000000
-20.234234 87.983327 0.000000
-21.011891 104.241893 0.000000
38.095496 -163.212284 0.000000
-14.865655 -33.551338 0.000000
-9.757974 -35.819978 0.000000
-10.033889 -30.324820 0.000000
-12.968254 -40.090526 0.000000
-15.022089 -27.753648 0.000000
-20.800196 -29.759037 0.000000
-89.449566 58.336374 0.000000
-81.493936 54.574863 0.000000
-83.632535 62.197136 0.000000
-134.721733 -92.608759 0.000000
-87.840914 50.490888 0.000000
-78.240709 65.694610 0.000000
-85.200291 68.523753 0.000000
-80.823324 73.838168 0.000000
-69.256938 59.346298 0.000000
-66.221251 65.400650 0.000000
-71.915951 65.358545 0.000000
-62.560975 61.062913 0.000000
-74.196729 71.908264 0.000000
-80.136075 -83.216682 0.000000
-87.077148 -81.129319 0.000000
53.293984 65.616251 0.000000
52.625262 72.505298 0.000000
59.208796 77.130445 0.000000
46.622238 61.120447 0.000000
-36.472884 38.061437 0.000000
-37.811610 30.716432 0.000000
-30.551542 33.945081 0.000000
-32.601888 27.330691 0.000000
-34.818354 45.772821 0.000000
-42.073919 41.205579 0.000000
-145.645593 -87.325418 0.000000
61.957518 -74.138072 0.000000
61.805591 -79.915138 0.000000
67.495743 -77.894611 0.000000
7.968882 -96.949331 0.000000
14.234879 -94.669408 0.000000
15.376893 -88.535097 0.000000
-169.661698 -42.311467 0.000000
0.436013 -100.428294 0.000000
6.762389 -104.169900 0.000000
-88.052014 11.879169 0.000000
-89.043190 4.796686 0.000000
-77.040452 3.713170 0.000000
-73.103953 10.436953 0.000000
-24.061250 65.118267 0.000000
-28.244700 59.040077 0.000000
22.744648 69.404353 0.000000
24.823815 63.701920 0.000000
28.441071 69.829140 0.000000
-23.257510 54.343322 0.000000
-19.898855 71.133619 0.000000
-24.275151 76.048387 0.000000
136.890182 52.868227 0.000000
28.943588 13.804023 0.000000
33.874632 8.584074 0.000000
34.084463 13.878312 0.000000
27.810895 7.193911 0.000000
40.587285 171.341589 0.000000
39.268642 4.599624 0.000000
-5.182739 48.511558 0.000000
-1.923542 37.524631 0.000000
-3.996053 55.601200 0.000000
-9.472807 58.604280 0.000000
46.518581 -49.753896 0.000000
46.257097 -41.875949 0.000000
24.194249 75.390886 0.000000
7.081766 57.501352 0.000000
0.716336 59.887112 0.000000
12.459184 62.489869 0.000000
-4.426620 61.290467 0.000000
-171.345575 18.149514 0.000000
92.073768 -25.674461 0.000000
85.828265 -21.071290 0.000000
86.121967 -27.295315 0.000000
80.047090 -24.788883 0.000000
88.851177 -14.461584 0.000000
-13.225359 83.873537 0.000000
-8.991905 88.790159 0.000000
-3.166921 86.203708 0.000000
-4.439901 93.525100 0.000000
-47.041697 -3.169481 0.000000
-33.387169 -2.867643 0.000000
-28.474258 -7.268673 0.000000
61.358792 -39.038895 0.000000
54.119507 -39.121391 0.000000
59.211972 -45.722510 0.000000
65.039800 172.435112 0.000000
57.992297 -35.590157 0.000000
-31.925176 4.516361 0.000000
-29.465388 10.370835 0.000000
-36.563898 10.090413 0.000000
-32.397769 15.960232 0.000000
21.086887 25.109849 0.000000
24.507493 19.846048 0.000000
25.876004 25.231393 0.000000
17.678616 20.050100 0.000000
-27.274004 22.230024 0.000000
-18.278393 25.219113 0.000000
-24.794505 30.039350 0.000000
-20.758310 18.916371 0.000000
-22.740531 36.423116 0.000000
-28.491060 40.824686 0.000000
176.966063 -28.773324 0.000000
34.805783 -69.723467 0.000000
28.986665 -71.388579 0.000000
33.920170 -76.482681 0.000000
30.835274 -65.093079 0.000000
40.557672 -74.469277 0.000000
41.653699 -68.073681 0.000000
-52.722485 -23.173512 0.000000
-48.603547 -17.502143 0.000000
-58.748803 -20.623715 0.000000
-41.932762 -19.752437 0.000000
-15.967008 77.571320 0.000000
-10.862648 72.036526 0.000000
-19.628900 81.955735 0.000000
-44.190292 -32.862370 0.000000
-38.478478 -35.556546 0.000000
-39.078208 -27.884666 0.000000
-32.824694 -31.936985 0.000000
-59.613668 128.225351 0.000000
-50.928608 -31.521237 0.000000
-56.003806 -36.879663 0.000000
-39.169112 -49.838715 0.000000
-64.860822 131.374635 0.000000
-36.961006 -21.339820 0.000000
-33.151953 -24.931782 0.000000
-33.198915 -19.283740 0.000000
31.548336 76.354598 0.000000
42.458530 -29.815261 0.000000
41.969571 -21.809630 0.000000
-46.579693 -25.569930 0.000000
39.903844 -156.377574 0.000000
-78.310001 30.571333 0.000000
-79.411947 24.218269 0.000000
-81.120596 36.232656 0.000000
-84.054310 18.192685 0.000000
62.752847 -65.743051 0.000000
71.681510 -63.474572 0.000000
66.140451 -57.893367 0.000000
68.526909 -70.998238 0.000000
20.254573 -41.653212 0.000000
18.303123 -36.568393 0.000000
16.572133 -30.450218 0.000000
11.076990 -36.411225 0.000000
9.368539 -28.953909 0.000000
-88.215927 -13.675954 0.000000
-92.859064 -9.639920 0.000000
-90.046988 -3.279817 0.000000
-99.091900 -4.659436 0.000000
-96.018288 2.200445 0.000000
47.434254 -34.659859 0.000000
54.549972 -31.448173 0.000000
52.511934 -45.489467 0.000000
4.020686 -35.333097 0.000000
-0.310680 -39.332682 0.000000
5.337171 -41.461091 0.000000
4.557690 184.732375 0.000000
-0.756230 -45.399187 0.000000
-68.417159 31.514215 0.000000
-73.145498 28.138284 0.000000
-66.636133 25.819406 0.000000
13.027885 -43.885443 0.000000
-125.074335 54.825230 0.000000
-95.378634 54.426482 0.000000
-99.713681 51.424656 0.000000
-95.182823 48.011433 0.000000
-163.903567 -38.401084 0.000000
-100.630586 45.808931 0.000000
-97.027554 61.995485 0.000000
118.854739 -59.286814 0.000000
112.556833 -63.536950 0.000000
-91.005637 64.458731 0.000000
21.082240 -98.014440 0.000000
-63.194817 -26.197613 0.000000
-62.057414 -32.546243 0.000000
-57.327141 -28.624736 0.000000
-67.981170 -30.875141 0.000000
-90.870953 42.836775 0.000000
-84.210766 42.625264 0.000000
-20.318771 43.425934 0.000000
-26.063677 47.613575 0.000000
-16.807082 32.738923 0.000000
-61.284091 -84.144916 0.000000
-59.528519 -90.249341 0.000000
-65.219210 -93.815316 0.000000
-56.592369 -80.080848 0.000000
-58.734379 -73.838369 0.000000
89.639202 13.484361 0.000000
82.657494 12.444220 0.000000
87.830571 8.121605 0.000000
85.645660 1.198163 0.000000
93.237559 3.071131 0.000000
83.057160 -58.476212 0.000000
86.904765 -65.188135 0.000000
89.403935 -57.059278 0.000000
93.789529 -61.858945 0.000000
79.391986 -53.519691 0.000000
77.482906 -59.402477 0.000000
73.258670 -55.547732 0.000000
-69.359408 -22.710691 0.000000
83.093136 -78.423848 0.000000
82.149023 -86.250205 0.000000
-74.356241 -27.635420 0.000000
-82.059319 -24.777780 0.000000
-77.064785 41.175936 0.000000
-79.313311 47.329104 0.000000
-72.979352 51.104088 0.000000
-76.001671 58.149716 0.000000
71.009933 -4.032545 0.000000
62.068824 -4.994635 0.000000
66.885208 -11.611867 0.000000
65.639610 0.920263 0.000000
-73.249628 -44.066272 0.000000
-66.556741 -38.820621 0.000000
-74.364417 -35.771478 0.000000
-66.799938 -47.144092 0.000000
-80.094674 -32.137459 0.000000
-91.036273 85.647180 0.000000
-182.797951 69.551382 0.000000
54.229095 14.535979 0.000000
-3.397959 74.573930 0.000000
0.334471 79.533870 0.000000
27.896013 140.357111 0.000000
-21.831437 -89.447641 0.000000
-26.980542 -94.299119 0.000000
-24.567348 -83.288901 0.000000
-15.317834 -91.524204 0.000000
-76.432626 -63.774622 0.000000
-71.004742 -59.217984 0.000000
-73.416922 -69.539087 0.000000
-65.300775 -54.368601 0.000000
-73.852996 -52.854850 0.000000
-37.105868 117.643486 0.000000
71.193604 12.077984 0.000000
66.106211 8.223818 0.000000
72.060405 4.607240 0.000000
77.715783 16.690570 0.000000
38.089116 60.445039 0.000000
43.156530 54.278815 0.000000
5.526557 -67.103714 0.000000
1.788880 -73.317617 0.000000
9.969193 -72.052351 0.000000
8.924705 -60.172634 0.000000
0.178866 -61.965414 0.000000
1.785124 -55.826515 0.000000
69.841059 -95.926511 0.000000
-58.228020 -50.214503 0.000000
-56.840335 -56.644948 0.000000
-60.396149 -42.933579 0.000000
15.259344 45.150777 0.000000
22.229828 39.911749 0.000000
48.538363 -25.802045 0.000000
11.193561 51.279628 0.000000
15.502476 57.681960 0.000000
-88.535594 -45.663190 0.000000
-86.646605 -53.125190 0.000000
-80.334868 -47.987595 0.000000
-55.759683 -124.215026 0.000000
-91.967868 -51.107029 0.000000
171.363752 -24.905824 0.000000
177.623171 -22.424567 0.000000
171.581065 -17.812635 0.000000
162.986065 -38.910046 0.000000
53.677501 92.412784 0.000000
15.634669 -59.134652 0.000000
13.138752 -52.459100 0.000000
33.328835 -157.876550 0.000000
-96.550368 116.792443 0.000000
12.898300 -65.251856 0.000000
29.101415 -53.790425 0.000000
33.403300 -57.804837 0.000000
25.465754 -49.078795 0.000000
29.199224 35.975329 0.000000
28.664329 43.494562 0.000000
34.851301 45.853615 0.000000
28.164269 50.808890 0.000000
-1.787690 181.014439 0.000000
104.228943 66.637417 0.000000
36.274057 52.681914 0.000000
67.809633 -36.096070 0.000000
61.229072 -32.574317 0.000000
94.497703 -81.340662 0.000000
73.195240 -40.120420 0.000000
74.864365 -32.343189 0.000000
79.005258 -39.270517 0.000000
-32.503809 112.366992 0.000000
-26.117237 108.526325 0.000000
-20.482745 112.549629 0.000000
-95.252609 94.793229 0.000000
-156.937746 -48.998121 0.000000
-160.518322 -52.008174 0.000000
-60.654543 14.349520 0.000000
-52.588344 10.579017 0.000000
-83.549964 0.563602 0.000000
-78.890245 -2.977087 0.000000
-55.180791 -64.104608 0.000000
-54.303028 -70.445909 0.000000
-37.927018 -69.243473 0.000000
-33.450258 -63.508067 0.000000
-35.709287 -55.873622 0.000000
-42.414055 -74.770252 0.000000
-39.412088 -80.466482 0.000000
51.208625 30.136426 0.000000
55.609921 35.052483 0.000000
59.136280 -107.500290 0.000000
58.560327 1.272279 0.000000
53.560416 -3.778025 0.000000
-110.649379 -49.268061 0.000000
-111.555313 -42.572228 0.000000
47.448740 77.982083 0.000000
40.266948 76.486885 0.000000
36.493768 82.527660 0.000000
53.211692 79.823306 0.000000
47.196223 49.063537 0.000000
41.661537 47.355904 0.000000
34.306096 39.083683 0.000000
-61.183973 -97.966628 0.000000
-53.994986 -95.662375 0.000000
-185.855563 24.299099 0.000000
-65.862425 55.001874 0.000000
182.200628 25.926970 0.000000
183.900867 17.762943 0.000000
189.388627 21.949432 0.000000
-56.617592 124.007014 0.000000
162.703381 65.990880 0.000000
-170.073265 -5.400837 0.000000
30.395597 28.585461 0.000000
92.059738 -48.008632 0.000000
88.124592 -43.474453 0.000000
85.318836 -38.611919 0.000000
82.521922 -44.832459 0.000000
-71.536161 21.903804 0.000000
-64.759215 20.294268 0.000000
47.619170 -63.681074 0.000000
-7.190001 -99.531218 0.000000
-10.017174 -93.870110 0.000000
84.517143 -7.563852 0.000000
78.335360 -0.646376 0.000000
-24.342152 -185.824858 0.000000
-53.750626 42.582858 0.000000
-47.255733 43.833125 0.000000
76.206336 84.463261 0.000000
72.578722 87.589889 0.000000
-49.523118 36.037578 0.000000
-42.568132 34.891609 0.000000
-29.912379 -148.334758 0.000000
-32.616263 128.768946 0.000000
-160.097048 38.979063 0.000000
-57.222026 35.773083 0.000000
-155.768367 32.083332 0.000000
58.764319 -25.941618 0.000000
62.509119 -19.148618 0.000000
53.794036 -19.068630 0.000000
58.835875 -11.163214 0.000000
-45.249262 28.747489 0.000000
-53.795469 28.968312 0.000000
-147.348076 30.855526 0.000000
-39.250215 -159.949594 0.000000
-31.191830 53.109884 0.000000
142.848286 47.980599 0.000000
-36.389613 58.608814 0.000000
47.100799 -16.891126 0.000000
41.323258 -15.032604 0.000000
34.887470 -18.940841 0.000000
29.725568 147.337174 0.000000
51.716303 -11.723668 0.000000
25.263084 170.595084 0.000000
-21.476586 -73.091031 0.000000
-20.123744 -79.524464 0.000000
-61.756949 30.414761 0.000000
-64.730791 36.149071 0.000000
-68.933841 15.554723 0.000000
146.633169 85.525222 0.000000
-5.551382 -74.388418 0.000000
-0.650421 -79.549281 0.000000
-3.192052 -68.277968 0.000000
-87.774715 74.552811 0.000000
-59.118129 19.962910 0.000000
62.842704 -51.682478 0.000000
54.664244 -52.578830 0.000000
69.167042 -51.580537 0.000000
-4.654850 -57.495582 0.000000
-7.205980 -62.956670 0.000000
-3.391436 -51.632236 0.000000
-8.596482 -53.575179 0.000000
-9.246496 -47.187861 0.000000
-93.761337 -40.426327 0.000000
69.542254 -19.603958 0.000000
73.308814 -25.456502 0.000000
75.462126 -18.810945 0.000000
36.131920 69.411277 0.000000
-140.529611 30.143105 0.000000
-30.319819 -140.731178 0.000000
193.570912 26.518376 0.000000
30.964526 63.276945 0.000000
199.157214 26.681748 0.000000
24.231443 58.363738 0.000000
18.456102 64.817456 0.000000
-21.671461 -65.928450 0.000000
-26.574271 -62.970259 0.000000
-30.208016 -58.502804 0.000000
-75.977973 17.342066 0.000000
-65.657626 9.255394 0.000000
13.875683 -77.592472 0.000000
150.823861 39.076148 0.000000
156.384669 39.472687 0.000000
103.398249 58.920751 0.000000
-39.925975 17.065637 0.000000
-34.726749 21.330118 0.000000
-39.058207 24.596380 0.000000
17.720372 73.041805 0.000000
133.674988 -54.623790 0.000000
48.001392 -56.877650 0.000000
-45.864050 -79.636398 0.000000
-51.436310 -81.951164 0.000000
-50.721520 -75.616789 0.000000
-46.479670 5.277683 0.000000
-44.625505 12.049210 0.000000
-119.085165 -51.810683 0.000000
145.196952 40.222301 0.000000
150.598989 44.719814 0.000000
10.978910 7.580298 0.000000
6.072035 4.347080 0.000000
11.855825 2.170281 0.000000
35.919521 -64.050164 0.000000
77.833498 98.808131 0.000000
74.630214 93.339868 0.000000
157.623886 -35.773012 0.000000
-150.663971 -45.013338 0.000000
-151.673599 -52.442264 0.000000
4.336012 -185.093441 0.000000
-27.014165 138.158400 0.000000
-29.408763 143.873499 0.000000
79.791370 94.022824 0.000000
-150.235569 36.200109 0.000000
-185.015018 -4.015350 0.000000
181.192773 39.849532 0.000000
141.666635 -31.342639 0.000000
136.793485 -28.069070 0.000000
160.356491 -8.315037 0.000000
56.707059 122.416410 0.000000
62.067029 118.450734 0.000000
57.890478 116.229460 0.000000
25.545714 -119.355406 0.000000
-153.078390 -36.790491 0.000000
-157.856891 -41.340879 0.000000
-32.033210 117.852795 0.000000
-26.294516 117.515035 0.000000
-32.181558 122.100609 0.000000
23.694410 129.360175 0.000000
13.871364 126.394607 0.000000
165.108698 -4.428447 0.000000
-77.665349 -72.737887 0.000000
-75.398865 -78.792808 0.000000
89.768439 -77.995676 0.000000
88.116273 -72.560445 0.000000
190.639833 -25.559488 0.000000
-36.406732 -150.398156 0.000000
89.057593 75.108522 0.000000
80.782285 74.406526 0.000000
131.603413 -48.756202 0.000000
129.128416 -42.967979 0.000000
124.033570 -47.900164 0.000000
126.761040 -20.427367 0.000000
126.647935 -27.078132 0.000000
131.571653 -22.796157 0.000000
132.676835 -16.898734 0.000000
-40.816346 177.861078 0.000000
34.695419 -150.010374 0.000000
126.131219 -13.794847 0.000000
63.250699 112.558458 0.000000
63.903947 106.382968 0.000000
16.731417 -23.486606 0.000000
14.840053 -16.355024 0.000000
-37.312261 143.299542 0.000000
9.141711 -16.579438 0.000000
-159.753747 -33.036183 0.000000
187.086316 0.730789 0.000000
74.779136 -69.550904 0.000000
72.502330 -75.181993 0.000000
77.289465 -75.316326 0.000000
81.652327 -71.274996 0.000000
79.375616 -64.822660 0.000000
53.355979 133.586686 0.000000
166.971673 23.029261 0.000000
161.191999 22.570662 0.000000
165.065959 16.543584 0.000000
24.913490 150.591701 0.000000
19.239829 147.688949 0.000000
159.117574 15.949660 0.000000
30.409535 155.106390 0.000000
23.791187 -173.049525 0.000000
21.181189 -179.272448 0.000000
33.025796 121.948755 0.000000
-23.548767 -132.198515 0.000000
-14.888977 -127.075514 0.000000
22.212027 12.897412 0.000000
31.172017 20.424381 0.000000
196.501296 21.360583 0.000000
19.599063 -155.764616 0.000000
18.554832 -149.434737 0.000000
14.707378 -160.161376 0.000000
38.996634 -59.817363 0.000000
123.787811 -31.360709 0.000000
26.384432 -158.880301 0.000000
20.522320 -161.837150 0.000000
-156.427080 -20.281741 0.000000
99.015479 -92.296795 0.000000
-64.604847 -162.549488 0.000000
57.982662 -100.777401 0.000000
11.977167 75.094839 0.000000
124.964210 -71.973804 0.000000
59.674006 107.458535 0.000000
60.756308 103.286375 0.000000
54.287616 103.918800 0.000000
97.118985 42.255701 0.000000
26.283444 0.466935 0.000000
22.782147 5.780111 0.000000
-72.054771 100.515324 0.000000
-8.997571 -152.955481 0.000000
-23.485304 142.486520 0.000000
-18.241318 140.846136 0.000000
-125.902963 29.898889 0.000000
-120.045165 30.562866 0.000000
83.825066 -120.938413 0.000000
-25.364529 163.256381 0.000000
-27.297856 157.675784 0.000000
-162.469000 64.605215 0.000000
-63.373467 81.467419 0.000000
-32.519720 156.920770 0.000000
-28.856788 151.352029 0.000000
-154.942539 2.390035 0.000000
-161.917699 -2.787565 0.000000
173.954459 25.305674 0.000000
53.966720 -103.635608 0.000000
44.846495 -97.301764 0.000000
42.082504 -103.680116 0.000000
38.683950 -98.402158 0.000000
-51.324797 111.377629 0.000000
-130.990912 45.021437 0.000000
84.834991 91.138225 0.000000
78.395688 89.035933 0.000000
82.085991 84.820918 0.000000
137.922581 28.516968 0.000000
133.256693 29.215572 0.000000
8.488990 80.051960 0.000000
140.356240 21.968957 0.000000
109.906412 62.727910 0.000000
-118.777832 53.149165 0.000000
-2.512206 -85.643290 0.000000
2.582742 -91.725998 0.000000
19.217300 -168.840979 0.000000
18.461140 -173.971169 0.000000
147.846451 -30.242661 0.000000
152.470478 -36.263125 0.000000
-171.489615 -19.167168 0.000000
-175.584010 -23.174689 0.000000
151.731435 -25.451575 0.000000
150.062701 -20.602656 0.000000
-45.514025 -130.308444 0.000000
67.130709 86.700043 0.000000
61.911062 90.224368 0.000000
-52.009501 87.403623 0.000000
-56.526171 82.895345 0.000000
124.407861 80.349034 0.000000
48.196714 130.623418 0.000000
-4.345905 -93.226857 0.000000
-58.697569 86.824817 0.000000
-57.564775 78.640835 0.000000
125.338018 33.368072 0.000000
-82.799209 -62.750222 0.000000
-56.828093 106.106875 0.000000
-79.674992 -56.995454 0.000000
77.568808 79.794252 0.000000
83.339050 79.435387 0.000000
-158.551864 -9.109457 0.000000
-151.166137 -9.494169 0.000000
10.407332 -11.447078 0.000000
-106.756998 -44.606752 0.000000
9.813568 -164.340068 0.000000
-101.455492 -40.657443 0.000000
-11.485249 23.252566 0.000000
35.448873 150.340259 0.000000
100.018334 5.218389 0.000000
98.604967 -0.520163 0.000000
96.474552 10.748080 0.000000
104.744834 40.520277 0.000000
-10.210523 -57.949574 0.000000
50.617027 123.336301 0.000000
-15.116197 -62.109793 0.000000
131.578121 -5.389042 0.000000
1.886943 -50.011540 0.000000
7.766515 -53.681686 0.000000
6.733506 -47.816341 0.000000
92.464856 -67.993888 0.000000
-193.886497 -55.402527 0.000000
146.212139 -84.671190 0.000000
155.547353 1.441695 0.000000
119.493269 -53.129075 0.000000
147.133244 19.976072 0.000000
-135.233423 29.938357 0.000000
-91.041930 79.413020 0.000000
-15.841190 19.636578 0.000000
42.190083 129.570050 0.000000
15.898682 -178.484607 0.000000
-112.437306 11.877634 0.000000
22.818697 46.234933 0.000000
19.592803 51.639715 0.000000
-106.623349 12.022681 0.000000
7.972954 -110.934794 0.000000
13.678951 -101.100495 0.000000
167.576744 28.466988 0.000000
-187.527870 47.839069 0.000000
-30.895510 -113.901335 0.000000
-69.050323 78.161264 0.000000
-62.052336 75.297255 0.000000
-67.578410 71.651730 0.000000
-158.098258 8.956242 0.000000
11.904941 161.406252 0.000000
7.372401 156.814123 0.000000
-4.541118 -27.336702 0.000000
1.766249 -29.350364 0.000000
-37.299939 112.641314 0.000000
-10.286633 97.026789 0.000000
-47.899858 -187.493743 0.000000
-3.597351 -33.989805 0.000000
107.932158 -59.827183 0.000000
100.778825 -59.900154 0.000000
104.907001 -53.477738 0.000000
31.441749 57.297897 0.000000
51.932807 -65.859238 0.000000
107.485305 -19.071954 0.000000
-10.390290 -68.709570 0.000000
-16.551824 -69.073638 0.000000
-11.273283 175.677507 0.000000
-108.563252 -54.503245 0.000000
-60.247960 24.704106 0.000000
-155.522864 -4.354686 0.000000
-2.430811 186.849587 0.000000
-17.780480 -15.132059 0.000000
66.899421 -27.330987 0.000000
-127.329252 15.686037 0.000000
-151.036082 -2.772277 0.000000
54.262142 -86.321352 0.000000
124.126623 -7.250643 0.000000
126.476478 -0.349729 0.000000
102.887363 -3.887419 0.000000
103.065517 -9.506850 0.000000
17.470814 -135.523981 0.000000
-91.441401 -35.278385 0.000000
-129.637534 -17.348581 0.000000
106.864792 -39.599533 0.000000
45.218851 124.791878 0.000000
-126.763957 60.867257 0.000000
154.158707 20.683343 0.000000
-20.351639 -38.082477 0.000000
-17.285141 -45.548947 0.000000
-3.388349 192.517880 0.000000
160.551773 -1.004961 0.000000
-25.333501 -44.830014 0.000000
-21.841632 -108.673037 0.000000
-77.588811 -41.818998 0.000000
-82.294296 -39.090378 0.000000
17.381849 6.943750 0.000000
4.398811 -121.984186 0.000000
-17.153314 12.946678 0.000000
-25.244651 14.549463 0.000000
-24.317553 7.085094 0.000000
-11.149008 152.259799 0.000000
178.012360 19.585610 0.000000
24.901221 107.635860 0.000000
-181.007093 -22.004773 0.000000
141.199833 34.829347 0.000000
15.202989 13.242081 0.000000
-169.831542 -23.785026 0.000000
55.915011 -79.286731 0.000000
49.620553 36.854274 0.000000
-117.321575 24.961775 0.000000
18.839126 108.518581 0.000000
28.413229 111.987483 0.000000
121.624508 4.892835 0.000000
-61.048472 -38.407542 0.000000
-122.667161 -5.115515 0.000000
157.532997 10.656570 0.000000
151.878755 14.644395 0.000000
-88.256278 -26.140357 0.000000
-34.034628 148.074306 0.000000
30.881504 128.162008 0.000000
-4.467037 109.492307 0.000000
-32.773936 -48.254361 0.000000
-32.540124 -40.400496 0.000000
79.328960 7.783677 0.000000
59.427614 97.734367 0.000000
-86.450066 -32.286487 0.000000
-16.824498 -108.966953 0.000000
-12.312675 -104.732163 0.000000
28.831411 -146.725279 0.000000
29.356907 -153.716629 0.000000
-47.070460 -68.825670 0.000000
24.092953 -151.635611 0.000000
-103.132873 63.220176 0.000000
-103.057263 56.300056 0.000000
-63.091107 -103.383911 0.000000
-56.450813 -103.917336 0.000000
24.030419 -5.012410 0.000000
30.437138 -5.627437 0.000000
-133.132221 119.331063 0.000000
62.594525 38.551144 0.000000
56.457205 41.231997 0.000000
43.773175 -60.729008 0.000000
130.479207 32.770847 0.000000
-91.070977 69.997031 0.000000
-111.030754 -8.431233 0.000000
-107.544522 -13.617839 0.000000
-104.916179 -7.521932 0.000000
16.818593 -71.227691 0.000000
20.355031 -77.428222 0.000000
22.952331 -71.667452 0.000000
56.441911 -64.077590 0.000000
-101.022376 -12.749706 0.000000
-154.314627 -29.594079 0.000000
47.842434 -114.282544 0.000000
9.464007 -158.539135 0.000000
32.011046 115.596888 0.000000
33.838073 110.644645 0.000000
-26.695308 -34.585653 0.000000
14.663428 -165.877611 0.000000
24.147107 144.241100 0.000000
-4.832600 -2.886163 0.000000
-10.988225 -23.143632 0.000000
-13.593541 -18.333994 0.000000
67.753905 -45.097561 0.000000
81.770224 -16.349723 0.000000
-6.302618 -40.352557 0.000000
8.077329 27.181642 0.000000
28.405386 93.713821 0.000000
39.253039 -35.440970 0.000000
39.049416 -40.799053 0.000000
75.915542 -11.401780 0.000000
97.018380 -30.018377 0.000000
-11.661510 123.768830 0.000000
-16.907690 -10.130320 0.000000
-7.911133 80.380116 0.000000
-82.174269 9.012143 0.000000
106.803929 25.817843 0.000000
40.357612 -83.097189 0.000000
31.987422 -83.717252 0.000000
26.114287 -78.498226 0.000000
-100.852412 24.725609 0.000000
-106.340156 27.811124 0.000000
112.796899 -55.096497 0.000000
-25.545088 84.109078 0.000000
102.499707 17.576170 0.000000
98.135340 24.777880 0.000000
45.263264 -7.910176 0.000000
46.413109 0.423126 0.000000
52.133433 5.588046 0.000000
20.341479 -26.904606 0.000000
-41.885727 -102.853280 0.000000
-43.643881 -108.894816 0.000000
59.436689 -58.467177 0.000000
110.161877 14.604172 0.000000
104.508969 10.280074 0.000000
45.595864 69.743765 0.000000
108.304377 -5.362219 0.000000
35.732315 -90.695735 0.000000
-42.558686 -37.565840 0.000000
93.981386 17.965880 0.000000
-72.834589 35.838469 0.000000
-135.596066 -1.667932 0.000000
-120.461642 -26.043981 0.000000
62.925504 15.105479 0.000000
59.932363 7.607644 0.000000
-25.835089 100.219153 0.000000
24.932688 -10.078783 0.000000
-8.926350 64.924377 0.000000
38.725251 -2.622493 0.000000
8.348060 137.890206 0.000000
36.635128 -53.051217 0.000000
42.221794 -91.236274 0.000000
-15.317584 128.850332 0.000000
-39.618060 2.199756 0.000000
36.786606 -10.249060 0.000000
42.594979 -55.195272 0.000000
-84.104636 -7.883482 0.000000
18.948890 -47.661404 0.000000
20.935092 -54.861538 0.000000
-61.904138 -5.618637 0.000000
-69.247308 -7.479688 0.000000
52.838203 -59.327822 0.000000
-37.573454 52.374535 0.000000
-30.261929 -53.804917 0.000000
96.205951 -53.523103 0.000000
85.783750 -50.865030 0.000000
-78.827626 13.745962 0.000000
141.811320 16.394412 0.000000
2.796086 51.629479 0.000000
57.631078 -167.284117 0.000000
-106.269069 -18.310797 0.000000
-105.086004 50.000782 0.000000
-9.382108 130.615343 0.000000
48.246533 43.471174 0.000000
16.743198 151.578014 0.000000
90.530939 -52.194878 0.000000
-95.501394 68.053808 0.000000
75.688125 -47.415751 0.000000
29.591514 -13.306399 0.000000
32.769530 1.630910 0.000000
-27.496044 -27.947739 0.000000
48.523124 -83.063855 0.000000
-54.634077 -3.923870 0.000000
82.443060 -32.299364 0.000000
52.918531 46.726872 0.000000
53.604294 -26.078985 0.000000
56.592697 85.304049 0.000000
-88.496539 -38.548954 0.000000
63.223518 82.744432 0.000000
41.644967 -50.942496 0.000000
-41.789414 60.974624 0.000000
24.873063 -104.786033 0.000000
-86.636361 -59.218648 0.000000
130.347203 -10.797694 0.000000
-125.629574 -22.386431 0.000000
45.004060 -87.289953 0.000000
77.450058 -5.870937 0.000000
78.764106 65.178548 0.000000
77.819937 69.763306 0.000000
59.380460 -83.967140 0.000000
72.188836 -15.264827 0.000000
-26.159152 -39.387185 0.000000
81.210973 -49.357088 0.000000
54.025204 98.267213 0.000000
-41.937355 7.245151 0.000000
108.109161 19.856817 0.000000
45.093027 -78.219598 0.000000
42.032796 65.047979 0.000000
POLYGONS 8828 35312
3 240 241 242
3 240 243 241
3 244 245 246
3 245 247 246
3 248 249 250
3 251 252 253
3 248 254 249
3 255 256 257
3 258 182 259
3 260 261 262
3 182 183 259
3 263 264 265
3 266 123 267
3 260 268 261
3 123 124 267
3 269 270 271
3 272 273 274
3 272 275 273
3 276 277 278
3 276 279 277
3 280 281 274
3 280 282 281
3 283 284 262
3 283 285 284
3 286 287 250
3 286 288 287
3 289 290 278
3 289 291 290
3 292 293 294
3 293 295 294
3 296 297 298
3 297 299 298
3 300 301 302
3 301 303 302
3 304 305 306
3 305 307 306
3 308 309 310
3 311 312 313
3 314 315 316
3 317 318 319
3 320 321 322
3 308 323 309
3 321 324 322
3 325 326 327
3 328 329 330
3 325 331 326
3 328 332 329
3 333 334 335
3 336 337 338
3 333 339 334
3 340 341 342
3 341 343 342
3 344 345 295
3 346 347 348
3 349 350 307
3 351 352 353
3 354 355 247
3 356 357 358
3 347 359 348
3 360 361 362
3 363 364 365
3 366 367 368
3 364 369 365
3 370 371 372
3 373 374 375
3 376 377 378
3 379 380 381
3 376 382 377
3 383 384 385
3 384 386 385
3 387 388 389
3 390 337 391
3 390 392 337
3 388 393 389
3 394 395 396
3 397 398 399
3 400 401 402
3 400 403 401
3 397 404 398
3 405 406 407
3 408 409 410
3 409 411 410
3 412 413 414
3 183 184 415
3 416 417 418
3 416 419 417
3 420 421 422
3 423 424 425
3 426 427 428
3 429 430 431
3 432 433 434
3 124 125 435
3 436 437 438
3 432 439 433
3 440 441 442
3 443 444 445
3 441 446 442
3 447 448 449
3 65 66 450
3 451 452 453
3 454 455 456
3 452 457 453
3 458 459 460
3 461 462 463
3 464 465 466
3 7 8 467
3 462 468 463
3 469 470 471
3 472 473 474
3 475 476 477
3 478 236 237
3 473 479 474
3 480 481 482
3 483 484 485
3 486 487 488
3 489 490 178
3 490 177 178
3 491 492 493
3 491 494 492
3 487 495 488
3 424 496 425
3 497 498 119
3 498 118 119
3 499 500 353
3 500 501 353
3 502 503 504
3 503 505 504
3 506 507 508
3 509 59 60
3 506 510 507
3 511 388 512
3 511 393 388
3 513 514 515
3 514 516 515
3 517 518 519
3 515 520 513
3 518 521 519
3 522 523 524
3 525 526 527
3 525 528 526
3 523 529 524
3 530 531 532
3 522 524 533
3 530 534 531
3 535 536 537
3 535 538 536
3 539 540 541
3 540 542 541
3 184 543 415
3 184 185 543
3 524 544 533
3 545 546 547
3 548 549 550
3 548 551 549
3 552 553 554
3 555 556 557
3 558 559 560
3 125 561 435
3 125 126 561
3 559 562 560
3 563 564 565
3 250 566 567
3 568 569 570
3 571 572 573
3 568 574 569
3 262 575 576
3 66 577 450
3 66 67 577
3 578 579 580
3 581 582 583
3 278 584 585
3 579 586 580
3 274 587 588
3 556 589 557
3 590 591 592
3 8 593 467
3 8 9 593
3 529 523 594
3 595 596 597
3 590 598 591
3 599 600 601
3 478 602 236
3 602 235 236
3 547 546 553
3 546 554 553
3 600 603 601
3 599 604 605
3 490 606 177
3 606 176 177
3 565 564 572
3 564 573 572
3 604 607 605
3 608 609 610
3 498 611 118
3 611 117 118
3 583 582 612
3 582 613 612
3 614 615 616
3 608 617 609
3 509 618 59
3 618 58 59
3 597 596 619
3 596 620 619
3 621 622 623
3 624 625 626
3 627 628 629
3 625 630 626
3 631 632 633
3 634 635 636
3 631 637 632
3 633 638 639
3 634 640 635
3 567 248 250
3 576 260 262
3 641 642 643
3 588 272 274
3 620 628 627
3 620 596 628
3 585 276 278
3 644 645 646
3 185 647 543
3 185 186 647
3 645 644 648
3 649 650 651
3 652 653 654
3 421 655 422
3 656 657 658
3 653 652 659
3 660 661 662
3 126 663 561
3 126 127 663
3 664 665 666
3 649 667 650
3 665 664 668
3 656 669 657
3 670 671 672
3 673 674 675
3 674 673 676
3 67 677 577
3 67 68 677
3 678 679 581
3 679 680 581
3 581 577 678
3 613 642 641
3 613 582 642
3 678 577 677
3 681 682 683
3 9 684 593
3 9 10 684
3 685 686 595
3 686 687 595
3 595 593 685
3 685 593 684
3 641 643 688
3 602 689 235
3 689 234 235
3 690 691 692
3 691 693 692
3 688 509 641
3 618 509 688
3 627 629 694
3 606 695 176
3 695 175 176
3 696 697 698
3 697 699 698
3 694 478 627
3 602 478 694
3 567 253 248
3 611 700 117
3 700 116 117
3 581 680 582
3 680 642 582
3 576 257 260
3 585 265 276
3 588 271 272
3 618 701 58
3 701 57 58
3 595 687 596
3 687 628 596
3 702 703 704
3 629 705 694
3 629 706 705
3 689 602 694
3 702 707 703
3 708 709 710
3 695 606 711
3 708 712 709
3 713 714 715
3 700 611 716
3 643 717 688
3 643 718 717
3 701 618 688
3 628 706 629
3 628 687 706
3 563 561 719
3 719 561 663
3 186 720 647
3 186 187 720
3 713 721 714
3 722 723 724
3 725 647 720
3 722 726 723
3 727 728 729
3 730 492 731
3 545 543 725
3 127 732 663
3 127 128 732
3 731 733 730
3 494 731 492
3 719 663 732
3 734 735 736
3 728 737 729
3 725 543 647
3 738 64 739
3 68 740 677
3 68 69 740
3 678 741 679
3 741 742 679
3 678 677 740
3 642 718 643
3 642 680 718
3 739 612 738
3 612 743 738
3 10 744 684
3 10 11 744
3 685 745 686
3 745 746 686
3 685 684 744
3 689 694 747
3 694 705 747
3 689 748 234
3 638 749 639
3 750 734 736
3 751 752 753
3 695 711 754
3 711 755 754
3 695 756 175
3 757 734 750
3 322 758 759
3 752 760 753
3 700 716 761
3 716 762 761
3 700 763 116
3 324 758 322
3 679 742 680
3 742 718 680
3 701 688 764
3 688 717 764
3 701 765 57
3 766 767 768
3 686 746 687
3 746 706 687
3 705 769 747
3 705 770 769
3 748 689 747
3 755 771 754
3 755 772 771
3 756 695 754
3 762 773 761
3 762 774 773
3 763 700 761
3 717 775 764
3 717 776 775
3 765 701 764
3 706 770 705
3 706 746 770
3 777 725 720
3 777 778 725
3 187 779 720
3 780 6 781
3 777 782 778
3 782 783 778
3 777 720 779
3 784 772 755
3 784 785 772
3 786 719 732
3 786 787 719
3 128 788 732
3 781 619 780
3 786 789 787
3 789 790 787
3 786 732 788
3 791 774 762
3 791 792 774
3 793 678 740
3 793 741 678
3 69 794 740
3 619 795 780
3 793 796 741
3 796 797 741
3 793 740 794
3 718 776 717
3 718 742 776
3 798 685 744
3 798 745 685
3 11 799 744
3 800 801 258
3 798 802 745
3 802 803 745
3 798 744 799
3 748 747 804
3 747 769 804
3 766 805 767
3 800 258 552
3 778 783 785
3 783 772 785
3 756 754 806
3 754 771 806
3 807 808 809
3 800 552 810
3 787 790 792
3 790 774 792
3 763 761 811
3 761 773 811
3 807 812 808
3 813 814 266
3 741 797 742
3 797 776 742
3 765 764 815
3 764 775 815
3 816 817 818
3 813 266 571
3 745 803 746
3 803 770 746
3 769 819 804
3 769 820 819
3 703 748 804
3 771 821 806
3 771 822 821
3 709 756 806
3 773 823 811
3 773 824 823
3 714 763 811
3 775 825 815
3 775 826 825
3 723 765 815
3 770 820 769
3 770 803 820
3 827 777 779
3 827 782 777
3 813 571 828
3 810 552 489
3 827 829 782
3 829 830 782
3 827 779 831
3 772 822 771
3 772 783 822
3 832 786 788
3 832 789 786
3 489 554 833
3 552 554 489
3 832 834 789
3 834 835 789
3 832 788 836
3 774 824 773
3 774 790 824
3 837 793 794
3 837 796 793
3 828 571 497
3 497 573 838
3 837 839 796
3 839 840 796
3 837 794 841
3 776 826 775
3 776 797 826
3 842 798 799
3 842 802 798
3 571 573 497
3 843 844 845
3 842 846 802
3 846 847 802
3 842 799 848
3 703 804 704
3 804 819 704
3 286 250 249
3 849 845 844
3 782 830 783
3 830 822 783
3 709 806 710
3 806 821 710
3 283 262 261
3 849 850 845
3 789 835 790
3 835 824 790
3 714 811 715
3 811 823 715
3 289 278 277
3 851 852 853
3 796 840 797
3 840 826 797
3 723 815 724
3 815 825 724
3 280 274 273
3 854 853 852
3 802 847 803
3 847 820 803
3 819 855 704
3 286 249 856
3 479 857 858
3 821 859 710
3 249 860 856
3 858 857 861
3 823 862 715
3 283 261 863
3 864 865 858
3 825 866 724
3 261 867 863
3 858 861 864
3 289 277 868
3 277 869 868
3 437 827 831
3 280 273 870
3 273 871 870
3 854 872 853
3 873 874 875
3 876 877 878
3 879 878 877
3 880 877 876
3 879 881 878
3 413 832 836
3 882 852 851
3 875 874 883
3 884 844 843
3 614 286 856
3 885 883 874
3 614 288 286
3 621 283 863
3 621 285 283
3 395 837 841
3 660 289 868
3 660 291 289
3 681 280 870
3 681 282 280
3 885 886 883
3 567 887 253
3 888 584 290
3 887 889 253
3 380 842 848
3 890 587 281
3 576 891 257
3 892 575 284
3 891 893 257
3 585 894 265
3 895 566 287
3 838 762 716
3 894 896 265
3 588 897 271
3 897 898 271
3 829 264 830
3 899 900 901
3 671 902 672
3 900 903 901
3 904 905 906
3 907 908 909
3 834 252 835
3 908 910 909
3 833 755 711
3 908 907 911
3 912 913 914
3 913 915 914
3 839 256 840
3 913 912 916
3 905 917 906
3 918 919 920
3 919 921 920
3 919 918 922
3 846 270 847
3 923 924 925
3 926 927 928
3 926 929 927
3 930 931 932
3 930 933 931
3 934 935 936
3 934 937 935
3 938 939 940
3 938 941 939
3 716 498 838
3 611 498 716
3 493 942 943
3 711 490 833
3 606 490 711
3 944 945 946
3 944 947 945
3 948 949 945
3 950 290 291
3 949 946 945
3 951 281 282
3 952 953 954
3 955 284 285
3 952 956 953
3 957 287 288
3 958 959 953
3 614 856 615
3 959 954 953
3 960 961 962
3 960 963 961
3 621 863 622
3 964 965 961
3 965 962 961
3 966 967 968
3 660 868 661
3 966 969 967
3 970 971 964
3 972 973 967
3 974 975 972
3 973 968 967
3 681 870 682
3 976 977 978
3 979 980 977
3 980 978 977
3 981 982 958
3 817 983 818
3 984 985 948
3 986 987 988
3 989 990 987
3 990 988 987
3 991 480 992
3 480 993 992
3 994 475 995
3 475 996 995
3 997 469 998
3 469 999 998
3 1000 464 1001
3 464 1002 1001
3 1003 456 1004
3 1003 1005 456
3 1006 449 1007
3 1006 1008 449
3 1009 445 1010
3 1009 1011 445
3 1012 460 1013
3 1012 1014 460
3 1015 482 1016
3 1015 850 482
3 1017 477 1018
3 1017 872 477
3 1019 471 1020
3 1019 881 471
3 1021 466 1022
3 1021 886 466
3 1023 1024 1025
3 1026 1027 1028
3 1029 1030 1031
3 1032 1033 1034
3 1035 1031 1030
3 1036 1037 1038
3 1029 1039 1030
3 1040 1041 1042
3 1043 1044 1045
3 1046 1045 1044
3 1043 1047 1044
3 1048 1049 1050
3 1051 1050 1049
3 1048 1052 1049
3 1053 1054 1055
3 1056 1055 1054
3 1057 873 1058
3 873 1059 1058
3 1060 880 1061
3 880 1062 1061
3 1063 882 1064
3 882 1065 1064
3 1066 884 1067
3 884 1068 1067
3 938 940 953
3 940 958 953
3 930 932 945
3 932 948 945
3 934 936 967
3 936 972 967
3 926 928 961
3 928 964 961
3 1021 1022 1069
3 1022 1070 1069
3 1019 1020 1071
3 1020 1072 1071
3 1017 1018 1073
3 1018 1074 1073
3 1015 1016 1075
3 1016 1076 1075
3 1053 1077 1054
3 1078 271 270
3 272 271 1078
3 1079 265 264
3 276 265 1079
3 1080 257 256
3 260 257 1080
3 1081 253 252
3 248 253 1081
3 281 587 274
3 284 575 262
3 287 566 250
3 1082 1015 1075
3 1082 1083 1015
3 1084 1017 1073
3 1084 1085 1017
3 1086 1019 1071
3 1086 1087 1019
3 1088 1021 1069
3 1088 1089 1021
3 1012 1013 1090
3 1013 1091 1090
3 1003 1004 1092
3 1004 1093 1092
3 1009 1010 1094
3 1010 1095 1094
3 1006 1007 1096
3 1007 1097 1096
3 1098 883 1099
3 883 886 1099
3 1100 878 1101
3 878 881 1101
3 1102 853 1103
3 853 872 1103
3 1104 845 1105
3 845 850 1105
3 947 930 945
3 290 584 278
3 1104 843 845
3 843 1104 1106
3 963 926 961
3 1093 1106 1104
3 1102 851 853
3 851 1102 1107
3 956 938 953
3 1091 1107 1102
3 1100 876 878
3 876 1100 1108
3 969 934 967
3 1097 1108 1100
3 1098 875 883
3 875 1098 1109
3 1095 1109 1098
3 982 1110 1111
3 1110 645 1111
3 1110 1112 645
3 900 1104 1105
3 900 1113 1104
3 908 1102 1103
3 908 1114 1102
3 913 1100 1101
3 913 1115 1100
3 919 1098 1099
3 919 1116 1098
3 985 1117 1118
3 1117 653 1118
3 646 616 1119
3 646 645 616
3 654 623 1120
3 654 653 623
3 666 662 1121
3 666 665 662
3 675 683 1122
3 675 674 683
3 1117 1123 653
3 971 1124 1125
3 1126 1003 1092
3 1126 1127 1003
3 1128 1012 1090
3 1128 1129 1012
3 1130 1006 1096
3 1130 1131 1006
3 1132 1009 1094
3 1132 1133 1009
3 1088 1069 1134
3 1069 1135 1134
3 1086 1071 1136
3 1071 1137 1136
3 1084 1073 1138
3 1073 1139 1138
3 1082 1075 1140
3 1075 1141 1140
3 1124 674 1125
3 1124 1142 674
3 975 1143 1144
3 1143 665 1144
3 1143 1145 665
3 615 860 454
3 856 860 615
3 622 867 458
3 648 1034 1111
3 1034 959 1111
3 659 1038 1118
3 1038 949 1118
3 668 1028 1144
3 1028 973 1144
3 676 1042 1125
3 1042 965 1125
3 863 867 622
3 661 869 447
3 868 869 661
3 682 871 443
3 870 871 682
3 1030 1146 1035
3 1147 1035 1146
3 1148 1146 1030
3 1149 1150 1151
3 1149 1152 1150
3 1153 1154 1155
3 1153 1156 1154
3 1157 1158 1159
3 1157 1160 1158
3 1161 1162 1163
3 1161 1164 1162
3 1049 1165 1051
3 1166 1051 1165
3 1167 1165 1049
3 1044 1168 1046
3 1169 1046 1168
3 1170 1168 1044
3 1054 1171 1056
3 1172 1056 1171
3 674 676 1125
3 1173 1171 1054
3 665 668 1144
3 1174 1175 1176
3 653 659 1118
3 1177 1174 1176
3 645 648 1111
3 1174 1177 1178
3 1128 1090 1179
3 1090 1114 1179
3 1126 1092 1180
3 1092 1113 1180
3 1132 1094 1181
3 1094 1116 1181
3 1130 1096 1182
3 1096 1115 1182
3 1183 1184 1185
3 1183 1186 1184
3 1187 1188 1189
3 1187 630 1188
3 1190 1191 1192
3 1190 1193 1191
3 1194 1195 1196
3 1194 1197 1195
3 1198 1199 1200
3 1198 1201 1199
3 1202 1203 1204
3 1202 1205 1203
3 1206 1207 1208
3 1206 1209 1207
3 1149 1151 1210
3 1151 1211 1210
3 1153 1155 1212
3 1155 1213 1212
3 1157 1159 1214
3 1159 1215 1214
3 1161 1163 1216
3 1163 1217 1216
3 919 1099 921
3 1099 1089 921
3 908 1103 910
3 1103 1085 910
3 913 1101 915
3 1101 1087 915
3 900 1105 903
3 1105 1083 903
3 646 1119 1127
3 1119 1005 1127
3 654 1120 1129
3 1120 1014 1129
3 666 1121 1131
3 1121 1008 1131
3 675 1122 1133
3 1122 1011 1133
3 1218 1082 1140
3 1218 903 1082
3 1219 1084 1138
3 1219 910 1084
3 1220 1086 1136
3 1220 915 1086
3 1221 1088 1134
3 1221 921 1088
3 393 1222 1223
3 393 1224 1222
3 1225 1226 1227
3 1228 1225 1227
3 1225 1228 1229
3 1230 1231 1232
3 1233 1230 1232
3 1230 1233 1234
3 1235 1236 1237
3 1238 1235 1237
3 1239 1240 1241
3 1240 1242 1241
3 1243 1244 1245
3 1244 1246 1245
3 1247 1248 1249
3 1248 1250 1249
3 1251 1252 1253
3 1252 1254 1253
3 1174 1126 1180
3 1174 1178 1126
3 1230 1130 1182
3 1230 1234 1130
3 1225 1128 1179
3 1225 1229 1128
3 1235 1132 1181
3 1235 1255 1132
3 1256 1257 1258
3 1256 227 1257
3 1259 1260 1261
3 1259 168 1260
3 1262 1263 1264
3 1262 50 1263
3 1265 1266 1267
3 1265 109 1266
3 1221 1134 1268
3 1134 1269 1268
3 1220 1136 1270
3 1136 1271 1270
3 1219 1138 1272
3 1138 1273 1272
3 1218 1140 1274
3 1140 1275 1274
3 1198 1200 1242
3 1200 947 1242
3 1202 1204 1250
3 1204 956 1250
3 1190 1192 1246
3 1192 963 1246
3 1194 1196 1254
3 1196 969 1254
3 1276 1251 1253
3 1276 1277 1251
3 1278 1243 1245
3 1278 1279 1243
3 1280 1247 1249
3 1280 1281 1247
3 1282 1239 1241
3 1282 1283 1239
3 1235 1238 1255
3 1284 929 1192
3 1285 971 970
3 1192 929 926
3 963 1192 926
3 1286 937 1196
3 1287 975 974
3 1288 1289 1041
3 1196 937 934
3 1290 1291 1027
3 1292 982 981
3 969 1196 934
3 1293 1294 1033
3 1295 933 1200
3 1296 985 984
3 1297 1298 1037
3 1200 933 930
3 947 1200 930
3 1299 941 1204
3 1204 941 938
3 1174 1180 1175
3 493 1300 942
3 956 1204 938
3 1226 1301 1227
3 1225 1179 1226
3 1179 911 1226
3 1302 1227 1301
3 1175 1303 1176
3 1230 1182 1231
3 1182 916 1231
3 1304 1176 1303
3 1236 1305 1237
3 1235 1181 1236
3 1181 922 1236
3 1306 1237 1305
3 1231 1307 1232
3 1308 1232 1307
3 1309 1310 1311
3 1310 1312 1311
3 312 1309 1311
3 1313 1314 1315
3 1314 1178 1315
3 1316 1317 1318
3 1317 1229 1318
3 1319 1320 1321
3 1320 1234 1321
3 1322 1323 1324
3 1323 1255 1324
3 1325 944 1326
3 944 1298 1326
3 1327 952 1328
3 952 1294 1328
3 1329 960 1330
3 960 1289 1330
3 1331 966 1332
3 966 1291 1332
3 1333 1334 1335
3 1334 1336 1335
3 318 1333 1335
3 1031 1035 1337
3 1337 1338 1031
3 54 1338 1337
3 1050 1051 1339
3 1339 1340 1050
3 231 1340 1339
3 1045 1046 1341
3 1341 1342 1045
3 113 1342 1341
3 1055 1056 1343
3 1343 1344 1055
3 172 1344 1343
3 1313 644 646
3 1313 646 1314
3 646 1127 1314
3 1316 652 654
3 1316 654 1317
3 654 1129 1317
3 1319 664 666
3 1319 666 1320
3 666 1131 1320
3 1322 673 675
3 1322 675 1323
3 1032 1150 1152
3 675 1133 1323
3 14 1345 1346
3 1036 1154 1156
3 1346 1345 1347
3 13 14 1346
3 1026 1158 1160
3 190 1348 1349
3 1349 1348 1350
3 1040 1162 1164
3 1351 1329 1330
3 1351 1246 1329
3 1352 1331 1332
3 1352 1254 1331
3 1353 1325 1326
3 1353 1242 1325
3 1282 1241 1354
3 1241 1355 1354
3 1278 1245 1356
3 1245 1357 1356
3 1358 1327 1328
3 1358 1250 1327
3 1280 1249 1359
3 1249 1360 1359
3 1276 1253 1361
3 1253 1362 1361
3 189 190 1349
3 72 1363 1364
3 1364 1363 1365
3 71 72 1364
3 131 1366 1367
3 1367 1366 1368
3 130 131 1367
3 1369 1257 1370
3 1371 1372 1373
3 1371 1374 1372
3 1375 1376 1377
3 1375 1378 1376
3 1379 1380 1381
3 1379 1382 1380
3 1383 1384 1385
3 1383 1386 1384
3 1273 1376 1272
3 1273 1387 1376
3 1378 1219 1272
3 1378 1388 1219
3 1275 1372 1274
3 1275 1389 1372
3 1374 1218 1274
3 1374 1390 1218
3 1271 1380 1270
3 1271 1391 1380
3 1382 1220 1270
3 1382 1392 1220
3 1269 1384 1268
3 1269 1393 1384
3 1386 1221 1268
3 1386 1394 1221
3 1395 1276 1361
3 1395 1396 1276
3 1397 1278 1356
3 1397 1398 1278
3 1399 1280 1359
3 1399 1400 1280
3 1401 1282 1354
3 1401 1402 1282
3 1353 1326 1403
3 1326 1404 1403
3 1351 1330 1405
3 1330 1406 1405
3 1358 1328 1407
3 1328 1408 1407
3 1352 1332 1409
3 1332 1410 1409
3 1383 1385 1411
3 1385 1412 1411
3 1379 1381 1413
3 1381 1414 1413
3 1375 1377 1415
3 1377 1416 1415
3 1371 1373 1417
3 1373 1418 1417
3 1419 1420 1421
3 1420 1422 1421
3 1423 1424 1425
3 1424 1426 1425
3 1427 1288 1428
3 1427 1406 1288
3 1429 1290 1430
3 1429 1410 1290
3 1431 1293 1432
3 1431 1408 1293
3 1433 1297 1434
3 1433 1404 1297
3 1370 1257 228
3 228 229 1370
3 1435 1263 1436
3 1436 1263 51
3 51 52 1436
3 1437 1260 1438
3 1438 1260 169
3 169 170 1438
3 1439 1266 1440
3 1315 1177 1211
3 1440 1266 110
3 110 111 1440
3 1318 1228 1213
3 1081 834 1441
3 1441 412 1081
3 1321 1233 1215
3 1081 252 834
3 1080 839 1442
3 1324 1238 1217
3 1442 394 1080
3 1443 1444 1445
3 1023 1446 1024
3 1447 1448 1449
3 1025 1450 1451
3 1452 1423 1425
3 1452 1453 1423
3 1454 1419 1421
3 1454 1455 1419
3 1397 1356 1456
3 1356 1457 1456
3 1401 1354 1458
3 1354 1459 1458
3 1399 1359 1460
3 1359 1461 1460
3 1395 1361 1462
3 1361 1463 1462
3 1080 256 839
3 1464 1465 1466
3 1079 829 1467
3 1468 217 218
3 1467 436 1079
3 1450 1469 1451
3 1079 264 829
3 1470 40 41
3 1471 1351 1405
3 1471 1357 1351
3 1472 1352 1409
3 1472 1362 1352
3 1473 1353 1403
3 1473 1355 1353
3 1474 1358 1407
3 1474 1360 1358
3 1431 1432 1475
3 1432 1476 1475
3 1433 1434 1477
3 1434 1478 1477
3 1429 1430 1479
3 1430 1480 1479
3 1427 1428 1481
3 1428 1482 1481
3 1078 846 1483
3 1484 1485 1486
3 1483 379 1078
3 1487 158 159
3 1078 270 846
3 1488 1489 1047
3 1170 1047 1489
3 1490 1489 1488
3 1491 1492 1039
3 1148 1039 1492
3 1493 1492 1491
3 1494 1495 1077
3 1173 1077 1495
3 1496 1495 1494
3 1497 1498 1052
3 1167 1052 1498
3 1499 1498 1497
3 1175 1500 1303
3 370 1501 412
3 1304 1502 1176
3 1503 1300 493
3 1231 1504 1307
3 1067 1501 370
3 1308 1505 1232
3 366 1506 394
3 1226 1507 1301
3 1508 1509 1510
3 1302 1511 1227
3 1064 1506 366
3 1236 1512 1305
3 360 1513 436
3 1306 1514 1237
3 1515 1508 1510
3 1516 1517 1518
3 1061 1513 360
3 1519 99 100
3 1473 1403 1520
3 1403 1521 1520
3 1471 1405 1522
3 1405 1523 1522
3 1474 1407 1524
3 1407 1525 1524
3 1472 1409 1526
3 1409 1527 1526
3 329 1383 1411
3 329 979 1383
3 1528 1379 1413
3 1528 989 1379
3 1529 1375 1415
3 1529 1530 1375
3 1531 1371 1417
3 1531 1532 1371
3 1533 1534 1535
3 1533 1536 1534
3 1537 1538 1539
3 1537 1540 1538
3 1541 1395 1462
3 1541 1542 1395
3 1543 1397 1456
3 1543 1544 1397
3 1545 1399 1460
3 1545 1546 1399
3 1547 1401 1458
3 1547 1548 1401
3 1500 899 901
3 1500 1175 899
3 1507 907 909
3 1507 1226 907
3 1504 912 914
3 1504 1231 912
3 1512 918 920
3 1512 1236 918
3 329 1411 330
3 1411 1549 330
3 1528 1413 1550
3 1413 1551 1550
3 1552 1149 1210
3 1552 1476 1149
3 1553 1153 1212
3 1553 1478 1153
3 1554 1157 1214
3 1554 1480 1157
3 1555 1161 1216
3 1555 1482 1161
3 1529 1415 1556
3 1557 508 1558
3 1531 1417 1559
3 1557 1560 508
3 356 1561 379
3 1388 1378 1562
3 562 1563 94
3 1564 1507 1565
3 1058 1561 356
3 1390 1374 1566
3 372 1567 993
3 1568 1500 1569
3 993 1066 372
3 1392 1382 1570
3 372 1066 1067
3 1571 1504 1572
3 368 1573 996
3 1394 1386 1574
3 996 1063 368
3 1575 1512 1576
3 1577 1429 1479
3 1577 1527 1429
3 1578 1427 1481
3 1578 1523 1427
3 1579 1431 1475
3 1579 1525 1431
3 1580 1433 1477
3 1580 1521 1433
3 1552 1210 1581
3 1210 1502 1581
3 1553 1212 1582
3 1212 1511 1582
3 1554 1214 1583
3 1214 1505 1583
3 1584 1471 1522
3 1584 1457 1471
3 1555 1216 1585
3 1216 1514 1585
3 1586 1472 1526
3 1586 1463 1472
3 1587 1473 1520
3 1587 1459 1473
3 1588 1474 1524
3 1588 1461 1474
3 1587 1520 1589
3 1520 1590 1589
3 1584 1522 1591
3 1522 1592 1591
3 1588 1524 1593
3 1524 1594 1593
3 1586 1526 1595
3 1526 1596 1595
3 368 1063 1064
3 362 1597 999
3 999 1060 362
3 362 1060 1061
3 1543 1456 345
3 1598 1599 1600
3 1547 1458 350
3 1599 1601 1600
3 1541 1462 355
3 94 1563 93
3 1545 1460 374
3 1602 1603 1604
3 1605 1606 1607
3 1605 1608 1606
3 1609 1610 1611
3 1607 1612 1613
3 1614 1615 1616
3 1615 1617 1616
3 1612 1618 1613
3 1607 1606 1612
3 1619 1620 1621
3 1620 1622 1621
3 1623 1624 1625
3 1624 1626 1625
3 344 1543 345
3 344 1627 1543
3 354 1541 355
3 354 1628 1541
3 349 1547 350
3 349 1629 1547
3 1579 1610 1525
3 1610 1594 1525
3 1606 1630 1612
3 1475 1631 1632
3 1580 1620 1521
3 1620 1590 1521
3 1580 1477 1622
3 1477 1633 1622
3 1577 1615 1527
3 1615 1596 1527
3 1577 1479 1617
3 1479 1634 1617
3 1578 1624 1523
3 1624 1592 1523
3 1578 1481 1626
3 1481 1635 1626
3 373 1545 374
3 373 1636 1545
3 625 1637 1638
3 625 1639 1637
3 1640 1641 1642
3 1643 990 1528
3 358 1644 1002
3 332 980 329
3 1641 1645 1642
3 1646 1647 1529
3 1648 1649 1640
3 1650 1651 1531
3 299 311 298
3 299 312 311
3 1648 1652 1649
3 1653 1654 1655
3 303 317 302
3 303 318 317
3 1653 1656 1654
3 1657 1658 1659
3 1002 1057 358
3 358 1057 1058
3 1657 1660 1658
3 1661 241 1662
3 555 1584 1591
3 555 557 1584
3 1663 1586 1595
3 1663 1664 1586
3 1665 1587 1589
3 1665 1666 1587
3 1667 1588 1593
3 1667 1668 1588
3 1669 328 405
3 1669 332 328
3 1661 1670 241
3 719 787 563
3 955 892 284
3 1671 501 500
3 1672 1673 1674
3 1673 1675 1674
3 1676 1677 1678
3 1677 1679 1678
3 955 1493 892
3 787 792 563
3 1680 1681 1682
3 1681 1683 1682
3 1684 1685 1686
3 1687 1688 1689
3 1464 1690 1465
3 1686 1691 1671
3 1692 632 1693
3 632 637 1693
3 1692 1694 1695
3 1694 1696 1695
3 1493 1697 892
3 1698 1699 1700
3 1701 1702 1703
3 1701 1704 1702
3 1705 1706 1703
3 1705 86 1706
3 1707 651 1708
3 1707 1709 651
3 1710 1711 1708
3 1710 145 1711
3 1699 1712 1700
3 1713 1714 1715
3 1714 1716 1715
3 1649 1717 1718
3 1719 1614 1616
3 1719 1720 1614
3 1617 1721 1616
3 1617 1722 1721
3 555 1591 1723
3 1591 1724 1723
3 805 1725 1726
3 1649 1652 1717
3 1667 1593 1727
3 1593 1728 1727
3 1729 1730 1718
3 1731 1728 1609
3 1729 1209 1730
3 1632 1732 1733
3 1665 1589 1734
3 1589 1735 1734
3 1663 1595 1736
3 1595 1720 1736
3 1737 1623 1625
3 1737 1724 1623
3 1626 1738 1625
3 1626 1426 1738
3 1739 1619 1621
3 1739 1735 1619
3 1622 1740 1621
3 1622 1422 1740
3 1557 1741 1742
3 1710 1708 651
3 1743 1687 1301
3 1687 1302 1301
3 1744 1681 1303
3 1681 1304 1303
3 1745 1673 1307
3 1673 1308 1307
3 1746 1677 1305
3 1677 1306 1305
3 297 296 1747
3 957 895 287
3 301 300 1748
3 957 1490 895
3 1490 1749 895
3 312 299 1309
3 951 890 281
3 1557 1750 1741
3 951 1499 890
3 318 303 1333
3 1499 1751 890
3 1742 1605 1752
3 1605 1753 1752
3 1754 1755 1756
3 1443 1552 1581
3 1443 1631 1552
3 1454 1553 1582
3 1454 1633 1553
3 1447 1554 1583
3 1447 1634 1554
3 1452 1555 1585
3 1452 1635 1555
3 1754 603 1755
3 1757 1758 1759
3 1758 586 1759
3 1760 1761 1762
3 1763 1764 1765
3 1764 1766 1765
3 1767 1768 1769
3 1768 1770 1769
3 950 888 290
3 1760 1771 1761
3 1772 1773 1774
3 1772 1775 1773
3 1776 1777 1774
3 1776 1778 1777
3 1779 1780 1781
3 1779 1782 1780
3 1783 1784 1781
3 1783 1785 1784
3 1781 1784 1779
3 1784 1786 1779
3 1787 1758 1788
3 1787 586 1758
3 725 778 545
3 778 785 545
3 1789 1790 1721
3 1773 1791 1792
3 1773 1775 1791
3 1793 1794 1792
3 1795 1796 1733
3 1793 1797 1794
3 1798 1799 1800
3 1799 1420 1800
3 1792 1794 1773
3 1794 1776 1773
3 1801 1802 1803
3 1802 1804 1803
3 1805 1806 1807
3 1808 1779 1809
3 1810 1811 1807
3 1808 1782 1779
3 1786 1812 1809
3 1786 1813 1812
3 942 1814 1815
3 1816 1817 1818
3 1819 1820 1815
3 805 1726 1821
3 1822 1823 1824
3 1822 1825 1823
3 1826 1827 1828
3 1827 1424 1828
3 1829 1830 1831
3 1830 1832 1831
3 1833 1834 1738
3 1835 1661 1824
3 297 1747 1836
3 1747 83 1836
3 1837 243 1740
3 1835 1670 1661
3 950 1496 888
3 1821 1838 805
3 301 1748 1839
3 1748 142 1839
3 1496 1840 888
3 1841 1842 1843
3 1502 1177 1176
3 1844 1838 1821
3 1177 1502 1211
3 1845 331 325
3 1511 1228 1227
3 403 1846 401
3 1228 1511 1213
3 1847 38 1848
3 1669 405 1849
3 1505 1233 1232
3 1843 1850 1845
3 1851 1852 1853
3 1847 1854 38
3 1855 1856 1857
3 1233 1505 1215
3 1855 1858 1856
3 1857 1859 1648
3 1514 1238 1237
3 1859 1652 1648
3 1860 1861 1862
3 924 1863 925
3 1864 1865 1866
3 1865 1867 1866
3 1868 1869 1870
3 923 1871 924
3 1864 1872 1873
3 1874 1669 1849
3 1872 1875 1873
3 1876 1877 1878
3 1873 1865 1864
3 1874 1849 1879
3 1873 1880 1865
3 1881 1882 1883
3 1881 1884 1882
3 1885 1886 1887
3 1885 1888 1886
3 1876 1878 1889
3 1890 1891 1892
3 1537 1539 1893
3 1891 1894 1892
3 1533 1535 1895
3 1896 1897 1898
3 1897 1899 1898
3 1900 1901 1902
3 1443 1445 1631
3 1445 1632 1631
3 1454 1582 1455
3 1900 1903 1901
3 1454 1421 1633
3 1421 1622 1633
3 1904 1653 1902
3 1904 1656 1653
3 1447 1449 1634
3 1449 1617 1634
3 1452 1585 1453
3 1905 461 1906
3 1452 1425 1635
3 1425 1626 1635
3 1907 1908 551
3 1905 342 461
3 1909 1910 1911
3 1910 1912 1911
3 551 1908 1913
3 1914 451 1915
3 1916 1917 1918
3 1914 1919 451
3 1920 1921 1922
3 1921 1923 1922
3 1918 1917 1924
3 1920 1855 1925
3 1804 1444 1803
3 1804 1732 1444
3 1926 1801 1803
3 1855 1927 1925
3 1832 1448 1831
3 1832 1722 1448
3 1928 1829 1831
3 376 1929 1930
3 1420 1419 1800
3 1455 1798 1800
3 376 1931 1929
3 1424 1423 1828
3 1453 1826 1828
3 1932 1933 1934
3 1238 1514 1217
3 884 843 1106
3 1935 1540 1564
3 1540 1688 1564
3 884 1106 1068
3 455 1068 1106
3 1936 1536 1568
3 1536 1683 1568
3 1932 1937 1933
3 1938 1939 1940
3 1938 1941 1939
3 1942 580 1787
3 580 586 1787
3 1943 1657 1942
3 1943 1660 1657
3 1944 1859 1945
3 882 851 1107
3 882 1107 1065
3 1946 1947 1575
3 1944 1652 1859
3 1948 1949 1950
3 1948 1951 1949
3 459 1065 1107
3 880 876 1108
3 1952 1788 1822
3 1788 1825 1822
3 1953 649 1954
3 649 1709 1954
3 1953 1955 1956
3 1952 570 1957
3 1958 1959 1960
3 1959 1704 1960
3 1958 1961 1962
3 570 1963 1957
3 1964 1965 1966
3 1965 1967 1966
3 308 1968 1969
3 308 1970 1968
3 1971 1972 1973
3 1971 1726 1972
3 1530 1538 1974
3 1530 1647 1538
3 1540 1935 1974
3 1532 1534 1975
3 1532 1651 1534
3 1536 1936 1975
3 1976 1932 1977
3 1932 1978 1977
3 1979 1980 1981
3 1979 1982 1980
3 1983 1938 1984
3 1938 1985 1984
3 1986 1987 1988
3 1987 1989 1988
3 880 1108 1062
3 448 1062 1108
3 1990 1023 1991
3 873 875 1109
3 873 1109 1059
3 1990 1446 1023
3 1992 1678 1993
3 1991 1994 1995
3 1996 1674 1997
3 1994 1998 1995
3 1999 1689 2000
3 2001 2002 2003
3 2001 2004 2002
3 1821 1971 2005
3 1821 1726 1971
3 2006 2007 1874
3 2008 1682 2009
3 2005 2010 2011
3 2010 2012 2011
3 2013 2014 2015
3 2013 2016 2014
3 2017 2018 1876
3 2019 1992 2020
3 2021 2022 1695
3 2019 2023 2024
3 2022 2025 1695
3 327 2026 2021
3 327 2027 2026
3 2028 865 2029
3 2030 1760 2031
3 2032 2033 2034
3 1760 2035 2031
3 2034 2036 1998
3 2037 2038 2039
3 522 2040 2041
3 2038 2042 2039
3 2041 759 1685
3 1866 2043 2037
3 1866 1867 2043
3 2037 2043 2038
3 2043 2044 2038
3 38 1854 37
3 2045 2046 2047
3 2048 1296 984
3 2049 215 2050
3 2051 1292 981
3 2052 542 540
3 2049 2053 215
3 2054 555 1723
3 2047 2055 2052
3 976 978 2056
3 2057 1287 974
3 215 2053 214
3 2058 1285 970
3 976 2059 1947
3 731 2059 733
3 986 988 2055
3 1535 2060 1895
3 986 2046 2061
3 2062 627 478
3 795 620 2062
3 2062 620 627
3 2063 641 509
3 730 1503 492
3 2064 1663 1736
3 2064 2065 1663
3 446 1665 1734
3 743 613 2063
3 2063 613 641
3 444 1059 1109
3 743 612 613
3 659 1036 1038
3 795 619 620
3 1650 2060 1535
3 659 652 1036
3 743 2066 738
3 2067 1667 1727
3 2067 2068 1667
3 733 2056 730
3 652 1154 1036
3 648 1032 1034
3 348 504 2069
3 348 359 504
3 2070 321 2071
3 795 2072 780
3 648 644 1032
3 321 2073 2071
3 2074 407 392
3 1934 2075 2076
3 583 612 739
3 644 1150 1032
3 1934 2077 2075
3 2078 2079 2076
3 2080 2081 403
3 597 619 781
3 2078 1970 2079
3 676 1040 1042
3 259 553 258
3 1777 2082 2083
3 676 673 1040
3 553 552 258
3 1777 1778 2082
3 267 572 266
3 673 1162 1040
3 2083 2084 2085
3 572 571 266
3 543 545 547
3 2084 2086 2085
3 547 415 543
3 561 563 565
3 1646 1312 2087
3 565 435 561
3 577 581 583
3 583 450 577
3 593 595 597
3 597 467 593
3 1893 2088 1537
3 547 553 259
3 565 572 267
3 2083 2082 2084
3 668 1026 1028
3 668 664 1026
3 664 1158 1026
3 955 1117 1296
3 2089 2062 238
3 2082 2090 2084
3 237 238 2062
3 2091 2063 61
3 2092 2093 2094
3 60 61 2063
3 743 2063 2091
3 2066 743 2091
3 795 2062 2089
3 2072 795 2089
3 2092 2095 2093
3 955 285 1117
3 64 65 739
3 1650 1336 2060
3 285 1123 1117
3 6 7 781
3 957 1110 1292
3 957 288 1110
3 288 1112 1110
3 1895 2096 1533
3 490 489 833
3 1940 2097 2098
3 1940 2099 2097
3 951 1124 1285
3 2100 2101 2098
3 498 497 838
3 2100 1982 2101
3 365 1637 2102
3 800 180 801
3 2103 2104 2105
3 813 121 814
3 2103 2106 2104
3 365 369 1637
3 951 282 1124
3 2107 2108 2109
3 489 178 810
3 2107 2110 2108
3 2109 2111 2070
3 282 1142 1124
3 497 119 828
3 62 1 2066
3 2066 1 63
3 63 738 2066
3 2111 324 2070
3 239 0 2072
3 2072 0 5
3 5 780 2072
3 2062 478 237
3 2063 509 60
3 810 179 800
3 178 179 810
3 1812 2112 2113
3 828 120 813
3 119 120 828
3 950 1143 1287
3 950 291 1143
3 291 1145 1143
3 2114 2115 2116
3 2089 239 2072
3 1812 1813 2112
3 238 239 2089
3 2091 62 2066
3 61 62 2091
3 801 3 181
3 180 3 801
3 814 2 122
3 121 2 814
3 2113 2112 2117
3 801 182 258
3 814 123 266
3 65 450 739
3 583 739 450
3 7 467 781
3 597 781 467
3 183 415 259
3 547 259 415
3 124 435 267
3 565 267 435
3 2118 1799 2119
3 181 182 801
3 122 123 814
3 120 121 813
3 179 180 800
3 2112 2120 2117
3 5 6 780
3 63 64 738
3 2118 2121 2122
3 2121 574 2122
3 2123 1827 2124
3 2125 1686 2126
3 2123 2127 2128
3 1686 1685 2126
3 2129 1802 2130
3 2131 2132 2107
3 2132 2110 2107
3 2131 2133 2132
3 2134 1830 2135
3 2133 2136 2132
3 2134 2033 2137
3 2107 2138 2131
3 2107 2139 2138
3 2140 2079 310
3 2141 2142 2143
3 2079 1970 310
3 2144 2101 2145
3 2146 2147 2148
3 2149 1954 2150
3 2101 1982 2145
3 559 2151 1563
3 559 2152 2151
3 2153 2154 2155
3 2154 1766 2155
3 2153 904 2156
3 2094 2157 2158
3 2159 2160 2161
3 2160 1770 2161
3 2159 2162 2163
3 2094 2164 2157
3 2119 2121 2118
3 1890 1990 2158
3 1890 1446 1990
3 1999 2104 2165
3 2165 592 2166
3 2167 2168 2169
3 2167 2170 2168
3 2171 2172 2173
3 2169 2174 335
3 2174 2175 335
3 2176 2177 2178
3 2179 2180 2181
3 2176 2182 2177
3 2178 2183 2184
3 2183 2185 2184
3 1723 1737 2186
3 2187 2188 2189
3 2177 2183 2178
3 2177 2190 2183
3 2191 1856 1911
3 1856 1858 1911
3 2192 2193 2194
3 2195 2196 2197
3 2193 2198 2194
3 2067 2199 2068
3 2199 2200 2068
3 2201 2193 2192
3 1727 1731 517
3 2064 2202 2065
3 2201 2203 2193
3 2011 2204 2205
3 2011 2012 2204
3 2205 2206 2207
3 2206 1630 2207
3 2205 2204 2206
3 2204 2208 2206
3 1838 2209 1741
3 2209 1608 1741
3 1741 767 1838
3 1741 1750 767
3 2210 1710 651
3 2211 512 2212
3 2211 2213 512
3 2212 2214 2215
3 2216 1310 2217
3 2214 607 2215
3 2216 2218 2087
3 2219 2220 1900
3 2220 1903 1900
3 2219 809 2221
3 809 2222 2221
3 2184 2223 2224
3 2184 2185 2223
3 2225 1334 2226
3 2224 2223 2227
3 2225 2228 2060
3 2223 2229 2227
3 2194 2230 2231
3 2194 2198 2230
3 2231 2230 2232
3 2230 2233 2232
3 2234 1995 2235
3 1995 1998 2235
3 2236 2092 2234
3 2236 2095 2092
3 2237 2238 1987
3 494 2239 2240
3 2238 1989 1987
3 2241 2242 2243
3 2242 2244 2243
3 1563 2151 2245
3 1539 2087 1893
3 1646 2087 1539
3 2246 1977 2140
3 1977 1978 2140
3 2247 1984 2144
3 1984 1985 2144
3 2248 2177 2249
3 2177 2182 2249
3 2250 2251 2252
3 2251 2253 2252
3 2254 2251 2250
3 2189 1769 2187
3 2254 2255 2251
3 2256 1898 2257
3 2256 2258 1898
3 2257 2259 1930
3 2259 382 1930
3 2197 1765 2195
3 2260 1968 2078
3 1968 1970 2078
3 2261 1980 2100
3 1980 1982 2100
3 1988 2262 2263
3 1988 1989 2262
3 2264 2262 2265
3 2262 1989 2265
3 2266 2267 2268
3 2267 2269 2268
3 2270 2271 2272
3 2273 2274 2275
3 2276 2277 2278
3 2276 2279 2277
3 2280 2236 2281
3 2280 2095 2236
3 2273 2282 2274
3 2283 2284 2285
3 2284 2286 2285
3 2287 2288 2289
3 2290 2291 2292
3 2291 2293 2292
3 2294 2295 2290
3 2294 411 2295
3 2296 2297 2298
3 2297 2299 2298
3 399 398 2300
3 398 2301 2300
3 2075 2302 2303
3 2075 2077 2302
3 2303 2302 2304
3 2302 211 2304
3 2097 2305 2306
3 2097 2099 2305
3 2306 2305 2307
3 2305 34 2307
3 2308 2309 2310
3 2309 2311 2310
3 2288 2312 2289
3 2313 2314 2315
3 2316 2317 2318
3 2313 2319 2314
3 2320 2321 2322
3 2323 2324 359
3 2321 2325 2322
3 2326 2327 2328
3 2327 2329 2328
3 2323 2330 2049
3 2331 2332 608
3 2332 617 608
3 2331 2333 2334
3 2335 2336 369
3 2333 91 2334
3 2337 2338 2339
3 2338 2340 2339
3 2335 2341 1847
3 2342 2343 2344
3 2342 2345 2343
3 2346 2287 2347
3 2346 2348 2287
3 2349 2322 2347
3 2349 2350 2322
3 2351 2352 1897
3 2352 1899 1897
3 2351 2353 2354
3 2116 98 99
3 2353 150 2354
3 2355 2356 2357
3 2298 2299 2358
3 2359 309 2360
3 2355 2361 2356
3 2362 2363 1951
3 2360 2364 2359
3 2365 2366 2367
3 2368 2369 2370
3 2366 2371 2367
3 2370 2372 1929
3 2116 2115 98
3 2372 2373 1929
3 410 2374 408
3 2375 2376 2377
3 2378 2379 2380
3 2379 2381 2380
3 2380 340 2378
3 2376 2382 2377
3 2378 1905 2379
3 1905 2383 2379
3 2300 2384 2385
3 2300 2301 2384
3 2386 2001 346
3 2001 2330 346
3 2387 2013 363
3 2013 2341 363
3 2388 89 2389
3 331 2390 2271
3 331 2391 2390
3 2392 148 2393
3 1005 454 456
3 2394 2395 2396
3 2394 2027 2395
3 454 1005 615
3 2397 2248 2398
3 2397 2190 2248
3 2398 2252 2399
3 1014 458 460
3 2252 2253 2399
3 2398 2399 2397
3 2400 2401 2402
3 2403 2404 2405
3 2400 2406 2401
3 2102 2407 2408
3 2102 1639 2407
3 2409 2410 2411
3 2412 2413 2414
3 2415 2416 2386
3 2416 2004 2386
3 2069 2417 2418
3 2069 505 2417
3 2418 2419 2276
3 2412 2420 2413
3 2421 2422 2387
3 2422 2016 2387
3 458 1014 622
3 2423 2261 2421
3 2423 2424 2261
3 2425 2426 2427
3 2426 2428 2427
3 1008 447 449
3 2429 485 2430
3 2429 2431 485
3 2350 416 418
3 2432 2433 2430
3 2434 2043 2435
3 2043 1867 2435
3 2432 2272 2433
3 1871 2436 924
3 760 2437 2438
3 2273 2439 2440
3 447 1008 661
3 1011 443 445
3 2273 2441 2439
3 209 210 2077
3 2442 2443 2444
3 443 1011 682
3 2282 2445 2446
3 1936 1566 1975
3 33 4 2099
3 2443 2447 2444
3 2448 2449 2450
3 2451 2452 2453
3 2451 2454 2452
3 2395 2027 2270
3 2438 2455 760
3 2456 2457 2458
3 2318 2402 2316
3 1566 1532 1975
3 2402 2208 2316
3 1566 1374 1532
3 2459 2460 2461
3 2459 2462 2460
3 2463 153 154
3 2461 2464 2425
3 2464 2465 2425
3 562 94 95
3 2466 1659 2467
3 1659 2468 2467
3 1935 1562 1974
3 2469 578 2466
3 2470 2471 2472
3 1562 1530 1974
3 2466 2467 2469
3 2471 2473 2472
3 2474 2451 2475
3 2474 2454 2451
3 2476 2477 2478
3 2278 2479 2480
3 1562 1378 1530
3 2476 2481 2477
3 1946 1574 977
3 2479 2415 2480
3 2482 2483 2484
3 2482 2485 2483
3 2486 2167 2326
3 2167 2487 2326
3 2488 2489 2490
3 2488 2491 2489
3 2492 2321 2493
3 2321 2494 2493
3 2495 2496 2492
3 2495 2497 2496
3 2498 2499 2482
3 2499 2485 2482
3 2500 2501 2502
3 2501 2503 2502
3 2504 2505 2506
3 2507 2508 2509
3 2507 2510 2508
3 2464 2439 2509
3 2464 2511 2439
3 2512 2513 2514
3 2512 2515 2513
3 2514 2516 2443
3 2516 2447 2443
3 2517 2518 2519
3 2520 2521 2512
3 2521 2515 2512
3 2522 2471 2523
3 2522 2473 2471
3 2414 2524 2525
3 2414 2526 2524
3 2527 2528 2529
3 2527 2530 2528
3 2456 2531 2532
3 2532 2457 2456
3 2429 2533 2534
3 2429 2535 2533
3 1574 979 977
3 2536 2537 2534
3 2536 2538 2537
3 2539 2540 2541
3 2540 2542 2541
3 2543 2544 2545
3 2543 2546 2544
3 2521 2478 2547
3 1574 1386 979
3 2478 486 2547
3 2548 2342 2549
3 2342 2550 2549
3 2263 2551 2552
3 2263 430 2551
3 2529 2553 2554
3 1690 2555 2556
3 2557 1570 987
3 2529 2385 2553
3 2558 422 2559
3 422 655 2559
3 2547 486 2560
3 1570 989 987
3 2561 378 2562
3 378 2563 2562
3 2564 2565 2566
3 2567 2568 2569
3 2567 2570 2568
3 2571 2572 2573
3 1570 1382 989
3 2572 2574 2573
3 2575 2536 2571
3 2575 2538 2536
3 2576 2577 2543
3 2577 2546 2543
3 2578 2579 2580
3 2463 152 153
3 2579 2318 2580
3 820 2581 819
3 2582 2583 2584
3 2585 2586 2578
3 437 1467 827
3 1467 829 827
3 822 2587 821
3 2584 2583 2588
3 413 1441 832
3 2585 2589 2586
3 2564 2590 2565
3 1441 834 832
3 824 2591 823
3 2592 2593 2594
3 2595 2590 2564
3 2582 2584 2596
3 395 1442 837
3 2597 2598 2599
3 2600 2601 2602
3 2601 2603 2602
3 1442 839 837
3 2604 2334 2245
3 2605 2606 2607
3 826 2608 825
3 2245 92 93
3 380 1483 842
3 2606 2565 2607
3 2605 2609 2453
3 1483 846 842
3 2609 2610 2453
3 2427 2611 2612
3 2613 248 1081
3 2245 2334 92
3 2614 260 1080
3 2427 2428 2611
3 2612 2615 2616
3 2617 1803 1444
3 2618 276 1079
3 2615 2345 2616
3 2619 2376 2620
3 1444 1443 2617
3 2619 2382 2376
3 2621 2611 2622
3 2623 272 1078
3 2624 2625 2626
3 2626 157 158
3 2626 2625 157
3 2627 1848 2628
3 2628 39 40
3 2628 1848 39
3 2611 2428 2622
3 2629 2050 2630
3 2630 216 217
3 2630 2050 216
3 2621 2631 2470
3 849 480 482
3 830 263 822
3 1926 1803 2617
3 835 251 824
3 2052 540 2045
3 2631 2632 2470
3 840 255 826
3 2633 2524 2634
3 2045 2047 2052
3 2524 2526 2634
3 847 269 820
3 2635 2636 2633
3 472 2045 540
3 2635 2637 2636
3 850 849 482
3 2638 2639 2640
3 854 475 477
3 2639 2641 2640
3 872 854 477
3 879 469 471
3 2642 2643 1491
3 2573 2644 2645
3 2643 1493 1491
3 2646 2647 1488
3 2647 1490 1488
3 2573 2574 2644
3 2648 2649 1494
3 2649 1496 1494
3 2650 2651 1497
3 2652 2653 2645
3 2651 1499 1497
3 381 356 379
3 881 879 471
3 2652 2654 2653
3 396 366 394
3 2655 2644 2656
3 2389 89 90
3 885 464 466
3 886 885 466
3 898 269 271
3 2393 148 149
3 2657 1761 2658
3 896 263 265
3 2657 2658 2659
3 893 255 257
3 2657 548 1761
3 889 251 253
3 1515 2660 2661
3 414 370 412
3 2662 2663 2664
3 2663 2662 2665
3 2663 134 2664
3 2663 133 134
3 438 360 436
3 2666 2667 2668
3 2644 2574 2656
3 2667 2666 2669
3 380 379 1483
3 2667 75 2668
3 2655 2670 2403
3 2667 74 75
3 2670 2404 2403
3 437 436 1467
3 2671 2672 2520
3 2673 2674 2675
3 2674 2673 2676
3 395 394 1442
3 2672 2478 2520
3 2674 193 2675
3 2671 2677 2678
3 2674 192 193
3 2677 2679 2678
3 2680 2566 2606
3 2681 2682 2683
3 413 412 1441
3 2682 2681 2684
3 2566 2565 2606
3 2682 17 2683
3 2682 16 17
3 2642 2685 2643
3 2685 2642 722
3 2686 2660 1515
3 2646 2687 2647
3 2680 2688 2689
3 2687 2646 713
3 2690 32 2691
3 2650 2692 2651
3 2692 2650 702
3 1941 2690 2691
3 2648 2693 2649
3 2693 2648 708
3 31 32 2690
3 1029 726 722
3 2688 2694 2689
3 1031 726 1029
3 2695 2696 2697
3 1043 721 713
3 2696 2698 2697
3 1045 721 1043
3 2699 2313 2700
3 1048 707 702
3 2699 2319 2313
3 1050 707 1048
3 2701 2702 2703
3 1053 712 708
3 2701 2481 2702
3 1055 712 1053
3 698 2656 2704
3 698 699 2656
3 2705 1711 146
3 2706 2707 2636
3 2708 1706 87
3 1574 1946 1576
3 2707 2709 2636
3 1394 1574 1576
3 2710 2711 2706
3 1946 1575 1576
3 1570 2557 1572
3 1392 1570 1572
3 2557 1571 1572
3 2710 2712 2711
3 2713 2714 2715
3 1562 1935 1565
3 2714 2716 2715
3 1388 1562 1565
3 1935 1564 1565
3 1566 1936 1569
3 1390 1566 1569
3 1936 1568 1569
3 692 2513 2717
3 370 372 1067
3 2513 2515 2717
3 366 368 1064
3 360 362 1061
3 356 358 1058
3 2718 892 1697
3 2697 2698 2438
3 2488 2561 2719
3 2592 2493 2720
3 2721 2722 2491
3 2723 2493 2592
3 2724 2725 2726
3 2727 895 1749
3 2724 2728 2725
3 768 1558 2729
3 2730 2731 2732
3 2733 890 1751
3 2731 2734 2732
3 2735 2366 2736
3 1750 1558 768
3 2735 2371 2366
3 2737 2738 2713
3 2738 2739 2713
3 2737 2740 2741
3 2737 2742 2740
3 2743 2744 2586
3 2745 888 1840
3 2744 2746 2586
3 2747 2748 2749
3 614 616 1112
3 614 1112 288
3 2750 2499 2751
3 645 1112 616
3 621 623 1123
3 621 1123 285
3 2750 2485 2499
3 653 1123 623
3 660 662 1145
3 2752 2731 2753
3 2752 2734 2731
3 2753 2754 2755
3 2754 2756 2755
3 660 1145 291
3 2757 2758 2759
3 665 1145 662
3 681 683 1142
3 2758 2760 2759
3 681 1142 282
3 674 1142 683
3 2761 2762 2757
3 2761 2763 2762
3 251 835 252
3 2764 2765 2766
3 2764 2767 2765
3 2364 2768 2769
3 2769 2770 2771
3 2569 2772 2564
3 2569 2722 2772
3 982 1111 958
3 2769 2768 2770
3 255 840 256
3 2773 2774 2775
3 985 1118 948
3 2773 2776 2774
3 263 830 264
3 759 2777 322
3 975 1144 972
3 269 847 270
3 971 1125 964
3 2777 2778 322
3 2779 2780 1141
3 135 2780 2779
3 2781 2782 1139
3 2036 2783 515
3 76 2782 2781
3 2784 2748 2747
3 242 2785 2786
3 242 1670 2785
3 2787 2788 1137
3 2749 1755 2747
3 1755 2789 2747
3 2790 2791 2792
3 194 2788 2787
3 2793 2794 1135
3 18 2794 2793
3 2792 2791 432
3 1288 1040 1428
3 1288 1041 1040
3 1040 1164 1428
3 2795 208 2796
3 1297 1036 1434
3 1937 2795 2796
3 1297 1037 1036
3 2797 569 2121
3 1036 1156 1434
3 2797 1963 569
3 2127 808 2128
3 808 812 2128
3 1290 1026 1430
3 2123 2798 2127
3 1290 1027 1026
3 2123 2124 2798
3 1026 1160 1430
3 1293 1032 1432
3 2799 808 2127
3 2799 2222 808
3 1840 1496 2649
3 2705 526 1711
3 207 208 2795
3 526 528 1711
3 1749 1490 2647
3 1188 2800 2801
3 2802 2463 2243
3 1188 630 2800
3 1751 1499 2651
3 1184 2803 2804
3 2244 2802 2243
3 1184 1186 2803
3 1697 1493 2643
3 2805 2806 2807
3 2808 2809 2810
3 2806 2811 2807
3 1293 1033 1032
3 1032 1152 1432
3 2812 2813 2814
3 2815 2816 2817
3 2814 2813 226
3 2818 2819 2820
3 2820 2819 49
3 2816 2821 2817
3 2822 2823 2824
3 2824 2823 167
3 2825 2826 2827
3 2827 2826 108
3 2718 891 892
3 891 575 892
3 2727 887 895
3 887 566 895
3 2733 897 890
3 897 587 890
3 2745 894 888
3 894 584 888
3 1279 2828 2813
3 2813 2828 225
3 1283 2829 2819
3 2819 2829 48
3 1277 2830 2823
3 2823 2830 166
3 1281 2831 2826
3 1949 511 2213
3 2826 2831 107
3 1949 1224 511
3 1544 2832 2833
3 1872 2834 2835
3 1872 2836 2834
3 1548 2837 2838
3 1689 2839 1687
3 1546 2840 2841
3 2839 2842 1687
3 1542 2843 2844
3 333 2845 339
3 2846 2847 1414
3 333 2848 2845
3 2849 2850 1412
3 139 2851 2852
3 2850 1549 1412
3 80 2853 2854
3 2846 2855 2847
3 2856 2854 1416
3 2846 197 2855
3 79 2854 2856
3 2857 2852 1418
3 138 2852 2857
3 2239 1791 2858
3 1398 2833 2828
3 2828 2833 224
3 1402 2838 2829
3 2829 2838 47
3 2859 2849 1412
3 1791 1775 2858
3 1312 2216 2087
3 2854 2860 1416
3 2860 313 1416
3 21 2849 2859
3 1396 2844 2830
3 2830 2844 165
3 1400 2841 2831
3 2852 2861 1418
3 2831 2841 106
3 2861 319 1418
3 985 1296 1117
3 971 1285 1124
3 982 1292 1110
3 975 1287 1143
3 2862 2863 2864
3 22 2865 2849
3 1273 2782 2866
3 2866 2782 77
3 1275 2780 2867
3 2867 2780 136
3 1269 2794 2868
3 2868 2794 19
3 2863 2869 2864
3 2870 1702 1959
3 1451 2871 2032
3 1959 1702 1704
3 2810 2809 750
3 1451 1469 2871
3 649 651 1709
3 2032 2872 1451
3 1336 2225 2060
3 1271 2788 2873
3 2018 2017 542
3 2873 2788 195
3 862 2591 2727
3 2727 2591 889
3 866 2608 2718
3 2718 2608 893
3 859 2587 2745
3 2745 2587 896
3 855 2581 2733
3 2872 2874 1451
3 2733 2581 898
3 1391 2873 2846
3 2846 2873 196
3 2875 2876 2877
3 1387 2866 2856
3 2856 2866 78
3 2007 2006 1503
3 1389 2867 2857
3 2857 2867 137
3 2876 199 2877
3 1393 2868 2859
3 2859 2868 20
3 758 2126 759
3 2878 2126 758
3 2879 2880 931
3 931 2880 984
3 855 819 2581
3 1956 1955 640
3 859 821 2587
3 640 2881 1956
3 866 825 2608
3 2882 2176 1756
3 1756 2176 2883
3 862 823 2591
3 2884 1665 446
3 446 510 2884
3 2885 2886 927
3 1206 2887 1730
3 927 2886 970
3 2888 2889 939
3 939 2889 981
3 2890 2891 935
3 935 2891 974
3 2887 2892 1730
3 2048 955 1296
3 2028 2893 858
3 2051 957 1292
3 2058 951 1285
3 2057 950 1287
3 1516 1519 100
3 2197 202 203
3 1519 1516 1518
3 534 2894 2895
3 2895 2894 205
3 538 2896 2897
3 2897 2896 29
3 1484 1487 159
3 1487 1484 1486
3 2189 26 27
3 2805 1470 41
3 1470 2805 2807
3 2898 2899 2900
3 2899 2898 1368
3 2900 2899 371
3 2899 1567 371
3 2901 2902 2903
3 439 2904 2905
3 2902 2901 1365
3 2843 2906 2844
3 2906 164 2844
3 2903 2902 367
3 2902 1573 367
3 2907 2908 2909
3 2908 2907 1350
3 2909 2908 361
3 2908 1597 361
3 2910 2911 2912
3 2911 2910 1347
3 2912 2911 357
3 2911 1644 357
3 2913 2914 2915
3 2915 2914 2916
3 455 1004 456
3 2832 2917 2833
3 1106 1093 1004
3 2693 710 859
3 708 710 2693
3 2917 223 2833
3 2893 2028 1996
3 2687 715 862
3 713 715 2687
3 2840 2918 2841
3 2893 479 858
3 2918 105 2841
3 2692 704 855
3 702 704 2692
3 333 2221 2848
3 2685 724 866
3 722 724 2685
3 2175 2221 333
3 1004 455 1106
3 2837 2919 2838
3 459 1013 460
3 1107 1091 1013
3 1013 459 1107
3 448 1007 449
3 1108 1097 1007
3 1007 448 1108
3 444 1010 445
3 1109 1095 1010
3 1010 444 1109
3 2919 46 2838
3 2920 2613 1501
3 2354 2921 2922
3 2920 254 2613
3 2923 2924 2925
3 1067 2920 1501
3 2926 2927 2928
3 1067 1068 2920
3 2926 2105 2927
3 860 254 2920
3 2067 2929 2199
3 2930 2614 1506
3 2930 268 2614
3 1064 2930 1506
3 1064 1065 2930
3 867 268 2930
3 2931 2618 1513
3 2160 2159 2932
3 2067 2933 2929
3 2931 279 2618
3 1061 2931 1513
3 1061 1062 2931
3 869 279 2931
3 151 2921 2354
3 2934 2935 2936
3 2937 2938 2939
3 2938 2940 2939
3 2941 2623 1561
3 2941 275 2623
3 1058 2941 1561
3 1058 1059 2941
3 871 275 2941
3 1151 1313 1315
3 1151 1150 1313
3 1151 1315 1211
3 1155 1316 1318
3 1155 1154 1316
3 1155 1318 1213
3 1159 1319 1321
3 2942 2855 2876
3 2855 198 2876
3 2607 2565 2762
3 2943 2762 2565
3 1159 1158 1319
3 1159 1321 1215
3 1163 1322 1324
3 1163 1162 1322
3 1796 518 2944
3 518 1731 2944
3 1694 2945 1842
3 1694 1693 2945
3 2154 2153 2946
3 1163 1324 1217
3 2947 2948 423
3 1199 1295 1200
3 1295 1199 2949
3 1191 1284 1192
3 1284 1191 2950
3 1203 1299 1204
3 1299 1203 2951
3 2952 2953 2954
3 1195 1286 1196
3 2955 2858 2956
3 1286 1195 2957
3 2955 2020 2858
3 2665 2958 2663
3 1772 2959 2956
3 2663 2958 132
3 132 133 2663
3 2669 2960 2667
3 2667 2960 73
3 2961 2105 2104
3 1772 2962 2959
3 2106 2165 2104
3 1955 635 640
3 73 74 2667
3 2676 2963 2674
3 2674 2963 191
3 191 192 2674
3 2684 2964 2682
3 2682 2964 15
3 15 16 2682
3 2965 2966 836
3 129 2966 2965
3 2967 2934 2936
3 2968 2969 841
3 1312 2970 1311
3 70 2969 2968
3 2971 2972 831
3 188 2972 2971
3 2973 2974 848
3 12 2974 2973
3 1312 1646 2970
3 726 1338 2975
3 1336 2976 1335
3 2975 1338 55
3 721 1342 2977
3 1336 1650 2976
3 2977 1342 114
3 707 1340 2978
3 2978 1340 232
3 712 1344 2979
3 2979 1344 173
3 2899 1368 2980
3 2980 992 2899
3 1456 2981 345
3 2899 992 1567
3 2902 1365 2982
3 2982 995 2902
3 2902 995 1573
3 2908 1350 2983
3 1456 557 2981
3 1462 2984 355
3 1462 1664 2984
3 1458 2985 350
3 2983 998 2908
3 2908 998 1597
3 2965 128 129
3 2965 836 788
3 788 128 2965
3 1458 1666 2985
3 2968 69 70
3 1475 2986 1579
3 2968 841 794
3 794 69 2968
3 2971 187 188
3 2971 831 779
3 779 187 2971
3 1475 1632 2986
3 2973 11 12
3 2973 848 799
3 799 11 2973
3 1460 2987 374
3 1346 2974 13
3 2911 1347 2988
3 1460 1668 2987
3 2989 735 1485
3 1346 1347 2910
3 735 1852 1485
3 1839 142 143
3 2910 2974 1346
3 1349 2972 189
3 1349 1350 2907
3 1836 83 84
3 2907 2972 1349
3 1364 2969 71
3 1364 1365 2901
3 2901 2969 1364
3 2565 2590 2943
3 1367 2966 130
3 1509 1861 2990
3 2905 2806 2991
3 2905 1869 2806
3 1367 1368 2898
3 1550 2992 1528
3 1727 1728 1731
3 2898 2966 1367
3 2992 1643 1528
3 2006 2993 1814
3 2994 1815 1814
3 2995 2925 1517
3 2964 1345 15
3 2925 2996 1517
3 2964 2684 2988
3 405 2997 406
3 2988 1345 2964
3 2963 1348 191
3 2997 2998 406
3 2963 2676 2983
3 2983 1348 2963
3 2960 1363 73
3 2960 2669 2982
3 344 293 1627
3 2982 1363 2960
3 2958 1366 132
3 293 2999 1627
3 2958 2665 2980
3 2980 1366 2958
3 3000 3001 1676
3 2017 3002 1806
3 917 1807 1806
3 3003 3004 3005
3 3000 1453 3001
3 2988 1001 2911
3 2911 1001 1644
3 2900 414 413
3 413 836 2900
3 1723 1724 1737
3 2900 836 2898
3 2903 396 395
3 395 841 2903
3 349 305 1629
3 2903 841 2901
3 305 3006 1629
3 3007 506 1560
3 3007 3008 506
3 1680 3009 3010
3 3009 2173 3010
3 2842 2839 3011
3 2839 2166 3011
3 2909 438 437
3 3011 3012 2842
3 3011 1455 3012
3 437 831 2909
3 2909 831 2907
3 2912 381 380
3 380 848 2912
3 2912 848 2910
3 2935 3013 3014
3 1343 171 172
3 2935 3015 3013
3 2879 933 1295
3 1295 3016 2879
3 1339 230 231
3 2949 3016 1295
3 2885 929 1284
3 1341 112 113
3 1284 3017 2885
3 2950 3017 1284
3 354 245 1628
3 245 3018 1628
3 1337 53 54
3 1703 3019 1701
3 202 2197 2196
3 3019 3020 1701
3 2888 941 1299
3 1299 3021 2888
3 2951 3021 1299
3 2890 937 1286
3 1286 3022 2890
3 2957 3022 1286
3 1611 2944 1609
3 2944 1731 1609
3 1051 1166 3023
3 1611 2986 1733
3 26 2189 2188
3 2986 1632 1733
3 3023 1339 1051
3 230 1339 3023
3 1035 1147 3024
3 3024 1337 1035
3 53 1337 3024
3 1056 1172 3025
3 3025 1343 1056
3 171 1343 3025
3 1046 1169 3026
3 3026 1341 1046
3 1502 3027 1581
3 1502 1304 3027
3 1511 3012 1582
3 1511 1302 3012
3 112 1341 3026
3 454 2920 455
3 2920 454 860
3 2988 1347 1345
3 14 15 1345
3 2009 1683 1536
3 1514 3001 1585
3 2983 1350 1348
3 190 191 1348
3 2982 1365 1363
3 72 73 1363
3 2980 1368 1366
3 131 132 1366
3 2000 1688 1540
3 1514 1306 3001
3 1068 455 2920
3 458 2930 459
3 246 2967 244
3 2934 2967 246
3 2930 458 867
3 1065 459 2930
3 2798 2124 2181
3 2018 3028 1876
3 447 2931 448
3 2931 447 869
3 1062 448 2931
3 443 2941 444
3 2941 443 871
3 1059 444 2941
3 1147 1436 3024
3 3024 1436 52
3 52 53 3024
3 1166 1370 3023
3 2940 3029 3030
3 3023 1370 229
3 2940 3031 3029
3 229 230 3023
3 1169 1440 3026
3 3026 1440 111
3 111 112 3026
3 2953 3032 3008
3 2953 3033 3032
3 1172 1438 3025
3 3025 1438 170
3 170 171 3025
3 371 414 2900
3 367 396 2903
3 812 1833 2128
3 1424 2123 2128
3 2128 1833 1424
3 574 1837 2122
3 1420 2118 2122
3 2122 1837 1420
3 361 438 2909
3 873 1057 874
3 357 381 2912
3 2046 474 3034
3 3000 3035 1826
3 880 1060 877
3 3000 2024 3035
3 2059 2240 3036
3 2055 3028 2018
3 882 1063 852
3 2114 2362 3037
3 884 1066 844
3 55 56 2975
3 723 726 2975
3 1508 1862 1861
3 232 233 2978
3 703 707 2978
3 2181 3038 2798
3 114 115 2977
3 714 721 2977
3 1851 1853 2967
3 173 174 2979
3 709 712 2979
3 899 1113 900
3 3039 1789 2137
3 1180 1113 899
3 1832 2134 2137
3 2137 1789 1832
3 1241 1242 1355
3 465 1022 466
3 1249 1250 1360
3 470 1020 471
3 1245 1246 1357
3 476 1018 477
3 1253 1254 1362
3 2798 3038 3040
3 3041 3042 3043
3 481 1016 482
3 2910 848 2974
3 12 13 2974
3 2907 831 2972
3 405 3042 1849
3 188 189 2972
3 2901 841 2969
3 70 71 2969
3 2898 836 2966
3 129 130 2966
3 1687 1743 1688
3 1687 2842 1302
3 2822 1197 1194
3 2812 1193 1190
3 2825 1205 1202
3 2818 1201 1198
3 1681 1744 1683
3 1681 1680 1304
3 405 407 3042
3 3044 3045 1878
3 544 1795 3046
3 1804 2129 3046
3 3046 1795 1804
3 3044 2081 3045
3 1770 1716 2161
3 3047 2653 3048
3 1766 1712 2155
3 2653 2654 3048
3 2624 3049 3050
3 1677 1746 1679
3 2096 3051 1533
3 2096 3003 3051
3 3052 3053 1997
3 1677 1676 1306
3 1673 1745 1675
3 1673 1672 1308
3 1390 903 1218
3 1388 910 1219
3 3052 2061 3053
3 1180 899 1175
3 2304 2002 2004
3 898 897 2733
3 212 2002 2304
3 896 894 2745
3 1550 3054 3055
3 893 891 2718
3 2992 1550 3055
3 889 887 2727
3 1392 915 1220
3 1394 921 1221
3 3054 3044 3055
3 2627 2335 1847
3 464 885 1002
3 464 1000 465
3 469 879 999
3 469 997 470
3 480 849 993
3 480 991 481
3 2773 3056 3057
3 475 854 996
3 475 994 476
3 3056 1923 3057
3 1893 3058 2088
3 3058 3059 2088
3 1895 3060 2096
3 3060 3061 2096
3 2135 520 3062
3 2629 2323 2049
3 2951 1205 1267
3 1267 1439 2951
3 2307 2014 2016
3 2949 1201 1264
3 356 381 357
3 1264 1435 2949
3 360 438 361
3 2957 1197 1261
3 366 396 367
3 1261 1437 2957
3 2153 3063 904
3 370 414 371
3 3063 457 904
3 2228 3064 3065
3 3064 3066 3065
3 2159 3067 2162
3 3067 468 2162
3 2950 1193 1258
3 3068 3069 2171
3 1258 1369 2950
3 3068 3070 3069
3 3071 3072 1702
3 3071 3073 3072
3 1181 1116 922
3 3074 3075 3076
3 3075 3077 3076
3 1179 1114 911
3 1182 1115 916
3 35 2014 2307
3 1277 2822 1251
3 1281 2825 1247
3 1279 2812 1243
3 1150 644 1313
3 1283 2818 1239
3 1323 1133 1255
3 2218 3078 3079
3 1320 1131 1234
3 3078 3080 3079
3 1154 652 1316
3 1317 1129 1229
3 1314 1127 1178
3 1283 1402 2829
3 3010 3027 1680
3 1158 664 1319
3 1926 3027 3010
3 47 48 2829
3 1281 1400 2831
3 106 107 2831
3 1162 673 1322
3 1279 1398 2828
3 3081 3082 2295
3 1242 947 1325
3 3081 3049 3082
3 224 225 2828
3 3065 3083 1908
3 1277 1396 2830
3 3065 3066 3083
3 1917 3079 3084
3 3079 3080 3084
3 1884 3085 1904
3 3085 1656 1904
3 165 166 2830
3 1438 1172 1437
3 3005 3086 3087
3 1250 956 1327
3 2147 865 864
3 3005 3004 3086
3 2154 3088 1766
3 3089 2315 2725
3 1517 2996 1223
3 1370 1166 1369
3 1374 1274 1372
3 1389 1373 1372
3 1440 1169 1439
3 2160 3090 1770
3 1246 963 1329
3 1378 1272 1376
3 1436 1147 1435
3 1387 1377 1376
3 1344 712 1055
3 407 406 392
3 1344 172 173
3 402 200 201
3 1340 707 1050
3 1340 231 232
3 1342 721 1045
3 1342 113 114
3 1338 726 1031
3 2315 3091 2725
3 2200 3092 3093
3 1338 54 55
3 3092 1888 3093
3 1382 1270 1380
3 3094 2295 3082
3 1254 969 1331
3 1391 1381 1380
3 1870 1869 2904
3 1386 1268 1384
3 391 24 25
3 2859 20 21
3 2859 1412 1393
3 1393 1385 1384
3 1134 1135 1269
3 2846 196 197
3 520 2783 3062
3 2846 1414 1391
3 1136 1137 1271
3 1138 1139 1273
3 3095 3096 3097
3 2856 78 79
3 2856 1416 1387
3 3095 3098 3096
3 1140 1141 1275
3 2180 2023 3099
3 2857 137 138
3 2857 1418 1389
3 1853 1852 734
3 1033 1294 954
3 1837 1422 1420
3 2867 1389 1275
3 954 959 1033
3 3100 3101 519
3 3101 517 519
3 3102 2214 3103
3 3102 607 2214
3 2147 864 3104
3 1833 1426 1424
3 3104 3105 2147
3 2774 3106 2775
3 2642 1039 1029
3 1029 722 2642
3 2646 1047 1043
3 2774 1736 3106
3 1043 713 2646
3 2650 1052 1048
3 1048 702 2650
3 442 3107 2786
3 2648 1077 1053
3 1053 708 2648
3 981 940 939
3 941 2888 939
3 974 936 935
3 442 1734 3107
3 3005 3108 3109
3 3108 2008 3109
3 3110 3111 598
3 3111 3112 598
3 3046 3113 2040
3 3046 2129 3113
3 937 2890 935
3 984 932 931
3 933 2879 931
3 970 928 927
3 929 2885 927
3 1037 1298 946
3 2867 136 137
3 2161 1714 463
3 2866 1387 1273
3 1714 3114 463
3 946 949 1037
3 1041 1289 962
3 2866 77 78
3 1049 1052 1167
3 515 2783 520
3 2155 1699 453
3 962 965 1041
3 1795 1732 1804
3 1054 1077 1173
3 1027 1291 968
3 916 1115 913
3 1699 3115 453
3 1030 1039 1148
3 911 1114 908
3 968 973 1027
3 1044 1047 1170
3 3042 3041 1879
3 3042 407 3043
3 2557 3052 1571
3 1789 1722 1832
3 2557 2061 3052
3 922 1116 919
3 3027 2617 1581
3 3027 1926 2617
3 2996 314 3116
3 2996 315 314
3 3062 2783 2033
3 2873 1391 1271
3 42 43 433
3 3117 3118 2802
3 2802 3118 2463
3 3119 3120 1813
3 2180 3099 3121
3 3122 3123 3089
3 3124 3125 639
3 3121 3126 2180
3 3125 631 639
3 2987 3127 374
3 2873 195 196
3 2987 2200 3127
3 2156 3128 2946
3 3128 3129 2946
3 2163 3041 2932
3 2142 3130 3131
3 3131 2073 2142
3 3043 2932 3041
3 3132 2945 3133
3 3132 1842 2945
3 1956 3134 3135
3 2868 1393 1269
3 3134 3098 3135
3 2868 19 20
3 2984 3136 355
3 1482 1164 1161
3 2984 3015 3136
3 1315 1178 1177
3 1480 1160 1157
3 1962 3137 3138
3 1478 1156 1153
3 1476 1152 1149
3 1318 1229 1228
3 3139 1636 373
3 1321 1234 1233
3 3137 2583 3138
3 592 2165 2106
3 2985 3140 350
3 2985 3033 3140
3 2981 3141 345
3 1324 1255 1238
3 2981 3031 3141
3 319 318 1559
3 3055 1877 2992
3 465 2684 2681
3 2681 1070 465
3 470 2676 2673
3 598 590 3142
3 3142 3143 598
3 3122 3144 3123
3 1559 1417 319
3 313 312 1556
3 2673 1072 470
3 3145 3146 3147
3 1556 1415 313
3 476 2669 2666
3 1725 766 1823
3 2666 1074 476
3 1823 766 3148
3 481 2665 2662
3 2662 1076 481
3 3146 2712 3147
3 2948 3149 423
3 1550 1551 3054
3 402 2877 200
3 2877 199 200
3 41 2991 2805
3 391 3150 24
3 3150 23 24
3 2975 3151 723
3 1485 1852 1208
3 3152 487 3153
3 2975 56 3151
3 566 887 567
3 575 891 576
3 2977 3154 714
3 584 894 585
3 587 897 588
3 2977 115 3154
3 2979 3155 709
3 2979 174 3155
3 389 1887 1886
3 2978 3156 703
3 2978 233 3156
3 3142 2039 3143
3 1961 1958 3157
3 1961 3158 3159
3 2039 2042 3143
3 1484 2989 1485
3 159 2989 1484
3 1330 1289 1406
3 1332 1291 1410
3 1326 1298 1404
3 1402 1283 1282
3 2811 1869 1189
3 1398 1279 1278
3 2998 2850 336
3 2998 1549 2850
3 3160 1924 3161
3 1924 3162 3161
3 2990 1861 1185
3 3161 3162 3163
3 3164 3165 3166
3 1748 141 142
3 145 146 1711
3 2936 1645 3167
3 2935 1645 2936
3 563 792 564
3 275 272 2623
3 2604 2245 2151
3 528 1708 1711
3 1747 82 83
3 279 276 2618
3 268 260 2614
3 254 248 2613
3 1328 1294 1408
3 1746 1512 1575
3 1575 1679 1746
3 2152 2264 2151
3 1400 1281 1280
3 1745 1504 1571
3 1571 1675 1745
3 1771 2658 1761
3 86 87 1706
3 548 1762 1761
3 2993 1879 3041
3 3041 2163 2993
3 1396 1277 1276
3 1744 1500 1568
3 1568 1683 1744
3 1234 1131 1130
3 1255 1133 1132
3 1743 1507 1564
3 1564 1688 1743
3 1512 920 1576
3 1576 920 1394
3 2980 991 992
3 2948 2947 3168
3 2806 2805 2991
3 144 145 1710
3 993 1567 992
3 2982 994 995
3 996 1573 995
3 85 86 1705
3 2983 997 998
3 999 1597 998
3 2988 1000 1001
3 1002 1644 1001
3 2939 3169 3170
3 2940 3169 2939
3 792 791 564
3 1178 1127 1126
3 1507 909 1565
3 1565 909 1388
3 1229 1129 1128
3 2954 3171 3172
3 2953 3171 2954
3 2065 1664 1663
3 3172 3173 2954
3 2806 1869 2811
3 3174 2000 1540
3 2884 1666 1665
3 1540 1537 3174
3 2961 2000 3174
3 1504 914 1572
3 3166 3165 3175
3 3176 1925 1642
3 3177 3178 3179
3 1642 1925 1927
3 2068 1668 1667
3 3180 2235 2036
3 1572 914 1392
3 2952 3181 2953
3 1111 959 958
3 838 791 762
3 1500 901 1569
3 1569 901 1390
3 3182 2235 3180
3 1118 949 948
3 1144 973 972
3 1408 1294 1293
3 1125 965 964
3 1404 1298 1297
3 1410 1291 1290
3 306 3181 2952
3 1406 1289 1288
3 164 165 2844
3 1396 1542 2844
3 545 785 546
3 223 224 2833
3 573 791 838
3 1047 2646 1488
3 1398 1544 2833
3 2818 1283 2819
3 1039 2642 1491
3 48 49 2819
3 105 106 2841
3 1052 2650 1497
3 1400 1546 2841
3 2825 1281 2826
3 1077 2648 1494
3 107 108 2826
3 46 47 2838
3 1402 1548 2838
3 2812 1279 2813
3 785 784 546
3 225 226 2813
3 2822 1277 2823
3 1373 1389 1418
3 166 167 2823
3 1377 1387 1416
3 3183 3184 3185
3 2933 3186 2929
3 3187 2199 2929
3 2929 3186 3187
3 1426 1833 1738
3 3002 1889 3128
3 2640 3188 2638
3 615 1119 616
3 3128 2156 3002
3 1381 1391 1414
3 622 1120 623
3 3128 1889 3129
3 3184 3183 3189
3 2640 3190 3188
3 661 1121 662
3 3184 3191 3185
3 3169 3192 3170
3 682 1122 683
3 2875 3193 2942
3 749 3192 3169
3 1385 1393 1412
3 1516 2995 1517
3 3193 2847 2942
3 100 2995 1516
3 1034 1033 959
3 1647 1539 1538
3 531 2895 3194
3 1540 1974 1538
3 1422 1837 1740
3 3194 532 531
3 1038 1037 949
3 1028 1027 973
3 534 2895 531
3 1042 1041 965
3 2200 3093 3127
3 375 374 3127
3 3127 3093 375
3 2147 3105 2148
3 1739 2786 3107
3 1734 1735 3107
3 2778 2130 2143
3 2142 2073 2143
3 3107 1735 1739
3 2934 3195 2935
3 903 1083 1082
3 1651 1535 1534
3 3095 3196 3197
3 1536 1975 1534
3 910 1085 1084
3 915 1087 1086
3 246 3195 2934
3 921 1089 1088
3 1593 1594 1728
3 1361 1362 1463
3 1094 1095 1116
3 1096 1097 1115
3 1589 1590 1735
3 1090 1091 1114
3 1356 1357 1457
3 2024 1676 1678
3 1722 1789 1721
3 536 2897 3198
3 1679 1993 1678
3 1092 1093 1113
3 1732 1795 1733
3 3198 537 536
3 372 371 1567
3 28 29 2896
3 1595 1596 1720
3 538 1767 2896
3 368 367 1573
3 538 2897 536
3 1591 1592 1724
3 204 205 2894
3 362 361 1597
3 1359 1360 1461
3 534 1763 2894
3 358 357 1644
3 3097 3196 3095
3 3199 3162 1924
3 3158 3162 3199
3 1515 1510 3200
3 219 220 1510
3 220 3200 1510
3 3080 2217 2588
3 1962 1961 3159
3 1518 2114 2116
3 2588 3201 3080
3 3066 2226 3202
3 3159 3201 1962
3 1354 1355 1459
3 3202 2881 3066
3 3157 1958 1960
3 1704 3203 1960
3 1701 1598 3203
3 2839 3204 2166
3 1689 3204 2839
3 3108 3068 2171
3 338 406 2998
3 2106 1875 2835
3 1707 1708 528
3 3005 3068 3108
3 2171 2008 3108
3 3020 1598 1701
3 1707 2150 1709
3 528 2150 1707
3 419 3205 3206
3 1701 3203 1704
3 3206 3205 3157
3 1953 3135 649
3 1610 1579 2986
3 2986 1611 1610
3 649 3135 667
3 249 254 860
3 750 736 3207
3 100 101 2995
3 261 268 867
3 277 279 869
3 160 161 736
3 273 275 871
3 2835 590 2106
3 161 3207 736
3 3208 3209 3210
3 2029 1672 1674
3 3210 3209 3211
3 3211 3212 3210
3 1846 2875 401
3 1675 1997 1674
3 2938 3213 2940
3 2938 2937 294
3 294 3213 2938
3 3070 3130 3069
3 2172 2171 3069
3 3069 3130 2172
3 1884 3214 3085
3 2186 1656 3085
3 3085 3214 2186
3 2875 1846 3193
3 1798 3011 3215
3 3215 3011 2166
3 1709 2150 1954
3 2847 3193 1551
3 3216 2641 3217
3 2641 3218 3217
3 1122 682 1011
3 3217 3218 3219
3 1121 661 1008
3 3220 3221 631
3 351 2748 352
3 2882 2748 351
3 1688 2000 1689
3 2142 2172 3130
3 1120 622 1014
3 3051 2009 1536
3 1536 1533 3051
3 3003 2009 3051
3 1119 615 1005
3 1963 570 569
3 330 1549 2998
3 1683 2009 1682
3 574 2121 569
3 2871 3222 3039
3 1469 3222 2871
3 2629 2049 2050
3 215 216 2050
3 3039 2032 2871
3 3223 3221 3220
3 824 889 2591
3 2627 1847 1848
3 38 39 1848
3 251 889 824
3 822 896 2587
3 526 2705 2392
3 2103 1875 2106
3 2392 527 526
3 1719 3224 3106
3 3225 1875 2103
3 3106 3224 2775
3 263 896 822
3 826 893 2608
3 255 893 826
3 820 898 2581
3 462 3226 468
3 41 42 2991
3 749 3169 3124
3 2940 3030 3124
3 462 461 342
3 218 219 3227
3 3124 3169 2940
3 342 3226 462
3 3009 3228 2173
3 159 160 2989
3 2624 3050 2625
3 590 592 2106
3 156 157 2625
3 269 898 820
3 3009 1680 1682
3 1753 3171 3007
3 2953 3008 3007
3 3007 3171 2953
3 1682 3228 3009
3 3105 3229 514
3 2849 21 22
3 514 513 3105
3 514 3229 516
3 3196 1333 303
3 2054 3230 556
3 556 555 2054
3 556 3230 589
3 1999 2165 3204
3 1355 1242 1353
3 1357 1246 1351
3 1486 2624 2626
3 1360 1250 1358
3 1362 1254 1352
3 2854 79 80
3 3204 1689 1999
3 3204 2165 2166
3 3072 1703 1702
3 3072 3073 1705
3 3087 3231 3070
3 3232 3231 3087
3 1705 1703 3072
3 2114 3037 2115
3 3097 1333 3196
3 97 98 2115
3 1099 886 1089
3 1101 881 1087
3 487 2477 3153
3 3193 1846 3054
3 3194 206 207
3 2135 1830 2146
3 1750 768 767
3 805 1838 767
3 2146 2148 2135
3 2852 138 139
3 865 2147 3233
3 1103 872 1085
3 1724 1592 1623
3 1105 850 1083
3 2807 2627 2628
3 3234 2629 2630
3 1735 1590 1619
3 3233 2147 2146
3 3198 30 31
3 3138 1959 1958
3 2870 1959 3138
3 3133 3235 1901
3 1901 3235 3236
3 163 164 2906
3 1720 1596 1614
3 1764 1763 534
3 1764 1712 1766
3 534 1712 1764
3 1728 1594 1609
3 1768 1767 538
3 1768 1716 1770
3 3237 3238 1943
3 538 1716 1768
3 1660 1943 3238
3 3237 3239 3238
3 439 2905 433
3 2905 2991 433
3 433 2991 42
3 1248 1202 1250
3 2815 3240 3241
3 452 3242 457
3 452 451 1919
3 1919 3242 452
3 3243 986 2061
3 3243 2557 987
3 987 986 3243
3 2061 2557 3243
3 3241 3238 2815
3 3241 3240 3244
3 3245 1309 299
3 2596 1309 3245
3 2613 412 1501
3 1081 412 2613
3 2618 436 1513
3 1079 436 2618
3 2935 3014 3176
3 2614 394 1506
3 1080 394 2614
3 2623 379 1561
3 1078 379 2623
3 3176 1645 2935
3 1248 1247 2825
3 979 1386 1383
3 2825 1202 1248
3 1240 1198 1242
3 1240 1239 2818
3 989 1382 1379
3 2685 1697 2643
3 866 1697 2685
3 2818 1198 1240
3 1244 1190 1246
3 104 105 2918
3 1636 1546 1545
3 2392 147 148
3 3109 2008 2009
3 3109 3003 3005
3 2009 3003 3109
3 1244 1243 2812
3 1697 866 2718
3 2812 1190 1244
3 1252 1194 1254
3 1530 1378 1375
3 1252 1251 2822
3 2822 1194 1252
3 1628 1542 1541
3 2692 1751 2651
3 222 223 2917
3 855 1751 2692
3 1751 855 2733
3 2687 1749 2647
3 2388 88 89
3 1532 1374 1371
3 1629 1548 1547
3 17 2793 2683
3 1070 2681 2683
3 2683 2793 1070
3 1627 1544 1543
3 193 2787 2675
3 862 1749 2687
3 2850 2849 2865
3 2865 336 2850
3 1455 1800 1419
3 1749 862 2727
3 2693 1840 2649
3 45 46 2919
3 859 1840 2693
3 3246 3247 3248
3 1840 859 2745
3 1072 2673 2675
3 2675 2787 1072
3 2096 3004 3003
3 549 1913 3249
3 75 2781 2668
3 1074 2666 2668
3 3230 2054 3223
3 1913 3250 3249
3 2668 2781 1074
3 134 2779 2664
3 3249 3250 3251
3 1076 2662 2664
3 2664 2779 1076
3 2154 3252 3088
3 2162 3253 2994
3 3088 3252 2080
3 3252 2154 2946
3 928 970 964
3 1757 1972 1725
3 3254 1972 1757
3 2817 3110 3143
3 1732 1445 1444
3 932 984 948
3 936 974 972
3 2729 440 2785
3 940 981 958
3 2785 440 2786
3 1722 1449 1448
3 1664 1463 1586
3 2785 1670 2729
3 1453 1828 1423
3 1428 1164 1482
3 1668 1461 1588
3 1113 1093 1104
3 2008 2171 3228
3 1992 1993 3036
3 1114 1091 1102
3 1115 1097 1100
3 3228 1682 2008
3 573 564 791
3 557 1457 1584
3 3228 2171 2173
3 2051 2889 1489
3 1489 2889 1170
3 1666 1459 1587
3 1489 1490 2051
3 2057 2891 1495
3 1335 1559 318
3 1430 1160 1480
3 2821 3110 2817
3 2845 3255 3256
3 1996 1997 3034
3 1495 2891 1173
3 1495 1496 2057
3 1620 1580 1622
3 1620 1619 1590
3 2058 2886 1498
3 1498 2886 1167
3 3255 3257 3256
3 1610 1609 1594
3 1498 1499 2058
3 2048 2880 1492
3 1624 1578 1626
3 1624 1623 1592
3 1492 2880 1148
3 1492 1493 2048
3 1615 1577 1617
3 1615 1614 1596
3 2057 1496 950
3 2058 1499 951
3 2048 1493 955
3 1311 1556 312
3 1116 1095 1098
3 3256 3257 3258
3 2028 1674 1996
3 2029 1674 2028
3 3259 978 332
3 2056 978 3259
3 1524 1525 1594
3 2051 1490 957
3 1168 3021 1439
3 1170 3021 1168
3 1520 1521 1590
3 1439 1169 1168
3 1146 3016 1435
3 1148 3016 1146
3 1526 1527 1596
3 1435 1147 1146
3 1165 3017 1369
3 1167 3017 1165
3 1635 1482 1555
3 1369 1166 1165
3 1171 3022 1437
3 1173 3022 1171
3 1522 1523 1592
3 1437 1172 1171
3 3015 3195 3136
3 247 355 3136
3 1634 1480 1554
3 3136 3195 247
3 2937 292 294
3 3260 2543 2545
3 1633 1478 1553
3 1862 292 2937
3 1860 1862 2937
3 2180 3126 2181
3 1631 1476 1552
3 1432 1152 1476
3 833 784 755
3 1131 1008 1006
3 1477 1478 1633
3 1133 1011 1009
3 1434 1156 1478
3 1512 1746 1305
3 1475 1476 1631
3 1127 1005 1003
3 1129 1014 1012
3 3016 1148 2879
3 1481 1482 1635
3 3016 2949 1435
3 3017 1167 2885
3 3017 2950 1369
3 1479 1480 1634
3 3021 1170 2888
3 3021 2951 1439
3 3022 1173 2890
3 3022 2957 1437
3 906 3002 2156
3 2156 904 906
3 2057 974 2891
3 2890 1173 2891
3 2051 981 2889
3 2888 1170 2889
3 2058 970 2886
3 2885 1167 2886
3 2048 984 2880
3 2879 1148 2880
3 877 999 879
3 1507 1743 1301
3 874 1002 885
3 3261 2363 1518
3 844 993 849
3 2327 3262 2329
3 2327 2326 2487
3 2487 3262 2327
3 1518 1517 3261
3 1651 1532 1531
3 852 996 854
3 1504 1745 1307
3 1706 3263 3019
3 1647 1530 1529
3 2990 1185 1184
3 1184 2804 2990
3 2665 481 991
3 3263 1706 2708
3 3019 3263 3020
3 1224 2363 3261
3 3264 3257 3255
3 1216 1217 1514
3 991 2980 2665
3 2669 476 994
3 994 2982 2669
3 1214 1215 1505
3 2676 470 997
3 997 2983 2676
3 2684 465 1000
3 1212 1213 1511
3 1000 2988 2684
3 2821 2119 3110
3 1500 1744 1303
3 1210 1211 1502
3 598 3143 3110
3 3265 2543 3260
3 2549 340 2380
3 990 989 1528
3 2811 1189 1188
3 1188 2801 2811
3 3170 1185 1860
3 980 979 329
3 1860 1185 1861
3 2550 340 2549
3 1016 481 1076
3 3266 2575 3047
3 2086 3257 3264
3 3267 28 2896
3 1767 3267 2896
3 27 28 3267
3 3268 204 2894
3 1763 3268 2894
3 203 204 3268
3 1018 476 1074
3 1020 470 1072
3 1684 1686 1671
3 243 1837 574
3 1022 465 1070
3 3247 2589 3248
3 3269 817 3270
3 2582 3245 3271
3 2596 3245 2582
3 2124 1827 2179
3 321 320 2073
3 3172 1189 1868
3 1868 1189 1869
3 1868 3173 3172
3 2780 1275 1141
3 2851 139 140
3 321 2070 324
3 3272 2162 2994
3 3272 2993 2163
3 2163 2162 3272
3 2629 3234 2324
3 2324 2323 2629
3 2780 135 136
3 2853 80 81
3 2179 2181 2124
3 920 921 1394
3 3070 3231 3273
3 3273 3130 3070
3 3028 988 1643
3 914 915 1392
3 2782 1273 1139
3 2627 2807 2336
3 1209 3274 1207
3 909 910 1388
3 1485 1208 1207
3 1207 3274 1485
3 3167 1208 1851
3 901 903 1390
3 1851 1208 1852
3 3047 2575 3275
3 1334 2225 1336
3 1334 1333 3097
3 2336 2335 2627
3 2782 76 77
3 1310 2216 1312
3 1310 1309 2596
3 2788 1271 1137
3 2788 194 195
3 2794 1269 1135
3 2794 18 19
3 2055 988 3028
3 1796 1795 544
3 1205 2825 2827
3 108 109 2827
3 626 1187 3276
3 630 1187 626
3 1201 2818 2820
3 3277 3278 1778
3 3269 983 817
3 1841 1845 325
3 49 50 2820
3 2519 3279 3218
3 1193 2812 2814
3 2865 22 23
3 3218 3279 3219
3 3280 3281 2294
3 1201 2949 1199
3 2294 3282 3280
3 1843 1845 1841
3 1205 2951 1203
3 1193 2950 1191
3 1696 1841 325
3 1197 2957 1195
3 1468 2630 217
3 2023 2019 2955
3 1834 1833 812
3 226 227 2814
3 3234 2630 1468
3 2955 2019 2020
3 1790 1789 3039
3 141 1748 300
3 1197 2822 2824
3 1470 2628 40
3 167 168 2824
3 2807 2628 1470
3 2999 1508 2661
3 2661 1508 1515
3 1508 2999 1862
3 82 1747 296
3 2121 2119 2821
3 1224 3261 1222
3 1517 1223 1222
3 1458 1459 1666
3 1222 3261 1517
3 336 2865 3150
3 2855 2942 2847
3 1460 1461 1668
3 2855 197 198
3 3150 2865 23
3 861 1808 3283
3 302 3284 300
3 3283 1808 3285
3 1830 1829 2146
3 1830 2134 1832
3 300 140 141
3 300 3284 140
3 3104 3229 3105
3 3285 3229 3104
3 1487 2626 158
3 3010 3286 1801
3 2932 2159 2163
3 1447 1583 3287
3 1456 1457 557
3 1486 2626 1487
3 2173 3286 3010
3 3280 3282 3288
3 3287 1583 1928
3 1810 1807 917
3 917 3289 1810
3 1551 1414 2847
3 1462 1463 1664
3 298 3290 296
3 296 81 82
3 296 3290 81
3 3121 2085 3126
3 2962 2085 3121
3 3130 3273 3131
3 3131 3273 2139
3 3291 3057 3292
3 1819 1815 2994
3 2994 3253 1819
3 1802 1801 2141
3 1802 2129 1804
3 1827 1826 2179
3 1539 1647 1646
3 1827 2123 1424
3 2776 3057 3291
3 2172 2142 3286
3 1535 1651 1650
3 3286 2142 2141
3 2926 2103 2105
3 3225 2103 2926
3 1445 1732 1632
3 1369 1258 1257
3 227 228 1257
3 1435 1264 1263
3 1417 1418 319
3 50 51 1263
3 1437 1261 1260
3 168 169 1260
3 2946 2153 2156
3 1874 2007 3259
3 1439 1267 1266
3 109 110 1266
3 1415 1416 313
3 3259 2007 2056
3 3100 2747 3293
3 3293 2747 2789
3 1413 1414 1551
3 1002 874 1057
3 999 877 1060
3 996 852 1063
3 1411 1412 1549
3 993 844 1066
3 1259 2824 168
3 1259 1261 1197
3 1463 1362 1472
3 1197 2824 1259
3 1256 2814 227
3 1256 1258 1193
3 1461 1360 1474
3 1193 2814 1256
3 1265 2827 109
3 1265 1267 1205
3 1457 1357 1471
3 1205 2827 1265
3 1262 2820 50
3 1262 1264 1201
3 1459 1355 1473
3 1201 2820 1262
3 3294 3233 1829
3 1206 1208 3167
3 2029 3233 3294
3 2793 17 18
3 3295 2924 3175
3 2793 1135 1070
3 2924 3295 315
3 2787 193 194
3 1449 1722 1617
3 315 2996 2924
3 3296 351 353
3 501 3296 353
3 2787 1137 1072
3 2781 75 76
3 1548 1629 2837
3 3113 2129 2130
3 2781 1139 1074
3 2779 134 135
3 1546 1636 2840
3 3113 2778 2040
3 2779 1141 1076
3 389 1223 3116
3 1544 1627 2832
3 2130 2778 3113
3 3116 1223 2996
3 3116 1887 389
3 351 3296 2882
3 3297 1918 3298
3 3170 3192 1183
3 1183 1185 3170
3 1542 1628 2843
3 3299 3300 3301
3 2202 2064 2776
3 3297 3300 3299
3 3302 3303 3304
3 3304 3303 3305
3 3306 3093 1885
3 2363 2362 2114
3 2114 1518 2363
3 3307 3308 3309
3 1885 3093 1888
3 1187 1189 3172
3 1720 3106 1736
3 3112 3215 591
3 1719 3106 1720
3 591 3215 592
3 591 598 3112
3 3310 403 400
3 393 1223 389
3 1519 2116 99
3 2080 403 3310
3 1518 2116 1519
3 3311 392 390
3 2074 392 3311
3 1425 1426 1626
3 1421 1422 1622
3 1602 1604 3312
3 1903 3312 1604
3 1544 1398 1397
3 1604 3133 1903
3 3090 3313 2074
3 2160 3313 3090
3 2074 2187 3090
3 1548 1402 1401
3 1231 916 912
3 2962 3121 2959
3 3099 2956 2959
3 2959 3121 3099
3 3314 3315 3316
3 3316 3315 3317
3 1089 886 1021
3 1087 881 1019
3 1236 922 918
3 1085 872 1017
3 1083 850 1015
3 952 954 1294
3 1226 911 907
3 952 1327 956
3 1546 1400 1399
3 944 946 1298
3 1805 541 3318
3 3318 541 542
3 978 980 332
3 206 3194 2895
3 2362 3319 3037
3 520 2135 2148
3 2148 513 520
3 2895 205 206
3 30 3198 2897
3 1951 3319 2362
3 988 990 1643
3 2897 29 30
3 1183 3192 3320
3 3320 3192 3321
3 3175 2923 3322
3 2923 3175 2924
3 3234 2990 2804
3 2804 2324 3234
3 316 3323 3306
3 2807 2811 2801
3 2801 2336 2807
3 944 1325 947
3 1523 1406 1427
3 1799 1798 3112
3 1799 2118 1420
3 966 968 1291
3 1527 1410 1429
3 966 1331 969
3 960 962 1289
3 1542 1396 1395
3 1521 1404 1433
3 960 1329 963
3 3139 3323 316
3 2080 2195 3088
3 1525 1408 1431
3 316 315 3139
3 1407 1408 1525
3 3324 650 3197
3 2210 650 3324
3 3086 3325 3232
3 1403 1404 1521
3 3004 3325 3086
3 1069 1070 1135
3 1209 3326 3274
3 1486 1485 3274
3 3232 3087 3086
3 3111 1799 3112
3 1510 3227 219
3 1409 1410 1527
3 3274 3326 1486
3 147 2392 2705
3 3111 3110 2119
3 1405 1406 1523
3 2705 146 147
3 88 2388 2708
3 2119 1799 3111
3 2708 87 88
3 388 387 3327
3 3327 512 388
3 736 2989 160
3 1071 1072 1137
3 524 3328 544
3 1771 3325 2658
3 529 3328 524
3 1075 1076 1141
3 3326 3049 2624
3 2624 1486 3326
3 1073 1074 1139
3 336 338 2998
3 2658 3325 3329
3 337 392 338
3 3312 3330 1602
3 338 392 406
3 1602 3330 1603
3 3331 1625 1738
3 1443 1581 2617
3 1737 1625 3331
3 2214 2212 3327
3 3177 1793 3332
3 3332 1793 3333
3 3329 3004 3334
3 2860 311 313
3 2860 2854 2853
3 2853 311 2860
3 1887 3116 314
3 3334 3004 2096
3 3335 3224 1719
3 3335 1721 1790
3 1790 3224 3335
3 523 3336 3337
3 522 3336 523
3 3337 594 523
3 3031 3213 3141
3 295 345 3141
3 3141 3213 295
3 3044 1878 3055
3 2530 3338 3339
3 3055 1878 1877
3 3339 3338 3179
3 3073 1836 3340
3 3340 1836 84
3 3341 2558 3270
3 2861 317 319
3 3341 3342 2558
3 2861 2852 2851
3 2851 317 2861
3 3068 3087 3070
3 3005 3087 3068
3 3187 3343 3092
3 3344 3345 3346
3 3092 3343 1888
3 3345 3347 3346
3 3335 1616 1721
3 1719 1616 3335
3 314 316 1887
3 3348 3349 2542
3 316 3306 1885
3 1885 1887 316
3 3350 2115 3037
3 97 2115 3350
3 3351 3071 3271
3 3058 2218 3059
3 3058 1893 2087
3 2087 2218 3058
3 1882 1904 3236
3 1884 1904 1882
3 3236 1883 1882
3 3073 3071 3351
3 3352 519 521
3 2784 519 3352
3 2210 1839 3353
3 3033 3181 3140
3 307 350 3140
3 3140 3181 307
3 2179 3035 3354
3 2023 2180 3354
3 3355 3349 3348
3 3354 3035 2023
3 3356 2724 3357
3 3356 2728 2724
3 3354 2180 2179
3 328 330 2997
3 2997 405 328
3 2997 330 2998
3 2088 3358 2927
3 2927 3358 2928
3 3359 3360 3361
3 3362 976 1947
3 3362 1946 977
3 977 976 3362
3 1947 1946 3362
3 3060 2228 3061
3 3060 1895 2060
3 3359 3363 3360
3 2060 2228 3060
3 3364 3365 3366
3 3353 1839 143
3 3365 3367 3366
3 2420 3368 3369
3 3370 3365 3371
3 3369 3368 3077
3 1509 3227 1510
3 1503 493 492
3 2837 2790 2919
3 3178 493 943
3 3370 3367 3365
3 943 3179 3178
3 3372 3373 3374
3 735 734 1852
3 3373 3375 3374
3 735 2989 736
3 3372 3376 3377
3 2790 2837 1629
3 2919 2790 45
3 2832 2660 2917
3 2660 2832 1627
3 3376 3378 3377
3 43 434 433
3 2620 3379 3380
3 2620 3381 3379
3 2917 2660 222
3 115 116 3154
3 763 714 3154
3 3154 116 763
3 3248 2585 3380
3 174 175 3155
3 3248 2589 2585
3 3382 2622 3383
3 756 709 3155
3 2622 2428 3383
3 3155 175 756
3 3384 729 3382
3 2905 2904 1869
3 2843 2808 2906
3 56 57 3151
3 765 723 3151
3 3151 57 765
3 3384 3385 729
3 233 234 3156
3 3386 3387 3388
3 748 703 3156
3 3156 234 748
3 507 441 3389
3 510 441 507
3 3389 508 507
3 3386 3390 3387
3 2808 2843 1628
3 3391 2715 3392
3 3019 1703 1706
3 2906 2808 163
3 3393 3394 3395
3 554 784 833
3 3393 3396 3394
3 240 1621 1740
3 1739 1621 240
3 3391 2742 2715
3 3397 3103 387
3 3398 3399 3400
3 3103 2214 387
3 3398 3401 3399
3 3062 2134 2135
3 387 2214 3327
3 2033 2134 3062
3 3402 3403 3404
3 1845 2391 331
3 1850 2391 1845
3 1853 244 2967
3 3403 3405 3404
3 3287 1831 1448
3 1448 1447 3287
3 1928 1831 3287
3 3402 3406 3407
3 3406 3408 3407
3 3409 2625 3050
3 3383 2426 3410
3 3383 2428 2426
3 3410 2508 3411
3 156 2625 3409
3 3412 3075 1805
3 2508 2510 3411
3 3413 3414 3415
3 3413 3416 3414
3 3292 1925 3417
3 2704 2572 3418
3 3176 3014 3417
3 2704 2574 2572
3 3417 1925 3176
3 3418 2533 3419
3 2533 2535 3419
3 3420 3421 3422
3 3305 3423 3056
3 3056 3423 1923
3 3056 2773 3305
3 3186 3210 3187
3 3186 2933 3208
3 3208 3210 3186
3 3077 3075 3412
3 3421 3424 3422
3 2228 3065 3425
3 3426 3427 3420
3 3426 3428 3427
3 3425 3065 1907
3 3393 3395 3429
3 3047 2768 3266
3 3430 2553 3431
3 3053 2046 3034
3 2553 2385 3431
3 2541 3432 3430
3 2541 2542 3432
3 2061 2046 3053
3 3433 3434 3435
3 3434 3436 3435
3 3034 1997 3053
3 2925 2995 2923
3 2923 101 102
3 3437 3438 3433
3 2923 2995 101
3 2845 3256 339
3 2845 2848 3255
3 3437 3355 3438
3 2218 3079 3439
3 3439 3079 1916
3 2840 3164 2918
3 3164 2840 1636
3 2710 3440 3441
3 2918 3164 104
3 2710 2637 3440
3 3441 2730 3147
3 2730 3442 3147
3 3443 439 432
3 3444 3445 3446
3 3444 3447 3445
3 3443 2904 439
3 1870 2904 3443
3 2150 525 3448
3 2770 2768 3047
3 3448 525 2258
3 3449 3450 3451
3 3167 1641 2887
3 3450 3452 3451
3 2887 1641 2892
3 2887 1206 3167
3 3078 2216 2217
3 2218 2216 3078
3 3449 3453 3454
3 3453 3455 3454
3 2217 3080 3078
3 3074 541 3075
3 3075 541 1805
3 3052 1997 1675
3 1675 1571 3052
3 2133 3456 2136
3 2133 2131 3231
3 3457 3391 3458
3 3231 3456 2133
3 3457 2742 3391
3 3333 3459 3332
3 3460 3461 3462
3 3178 3177 3332
3 3460 3463 3461
3 3332 3459 3178
3 3464 3465 1464
3 3466 3264 3255
3 3465 1690 1464
3 3040 3264 3466
3 3322 2923 102
3 1672 3294 3467
3 3467 3294 1928
3 1853 734 757
3 3468 3345 3469
3 3076 1783 3470
3 3468 3347 3345
3 2881 640 3083
3 3469 2719 3471
3 3083 640 1908
3 2719 2561 3471
3 3472 3473 2567
3 3473 2570 2567
3 3083 3066 2881
3 2926 3474 3225
3 2928 3474 2926
3 2689 3475 3472
3 2222 809 808
3 2689 2694 3475
3 1686 2125 1691
3 2914 3476 3477
3 518 517 1731
3 3476 3478 3477
3 3479 3480 3481
3 3480 3482 3481
3 3483 3484 3485
3 3483 2371 3484
3 518 1796 521
3 3486 3487 3152
3 3470 1783 3488
3 3487 495 3152
3 2766 3489 3486
3 2766 3490 3489
3 1670 242 241
3 243 1662 241
3 3491 3379 3492
3 3493 943 942
3 3179 943 3493
3 3379 3381 3492
3 3494 397 1819
3 3491 3495 3496
3 404 397 3494
3 3495 3497 3496
3 3498 3499 3500
3 3064 2225 2226
3 2228 2225 3064
3 3498 3501 3499
3 2226 3066 3064
3 3502 3503 3504
3 3505 1960 3203
3 3503 3506 3504
3 3157 1960 3505
3 3507 3508 1810
3 3509 3508 3507
3 3500 2554 3502
3 441 440 3389
3 3500 3510 2554
3 441 510 446
3 3511 3360 3512
3 3360 3363 3512
3 3513 3514 3511
3 1993 3515 3516
3 3513 2760 3514
3 3516 3515 1947
3 3517 3518 3519
3 3417 3291 3292
3 3518 3520 3519
3 3014 3291 3417
3 3521 3522 3523
3 3522 3524 3523
3 3525 3373 3526
3 2024 1678 3527
3 3373 3528 3526
3 1992 2019 3527
3 3527 1678 1992
3 3529 3530 3525
3 3527 2019 2024
3 390 391 3531
3 3529 3532 3530
3 3531 391 25
3 400 402 3533
3 3534 3535 3536
3 3537 3538 3539
3 3534 3540 3541
3 3040 2127 2798
3 3538 3542 3539
3 3543 3518 3374
3 3518 3544 3374
3 3033 2884 3032
3 510 3008 3032
3 3543 3545 3546
3 3545 3547 3546
3 3032 2884 510
3 3444 2761 3548
3 3444 2763 2761
3 3533 402 201
3 3548 3404 3549
3 3404 3405 3549
3 3550 3551 3552
3 3551 3553 3552
3 2200 2199 3092
3 3092 2199 3187
3 3554 3555 3556
3 3554 3557 3555
3 3556 3558 3546
3 2149 3316 3559
3 3559 3316 3317
3 1509 1508 1861
3 3558 3520 3546
3 2240 3560 3561
3 3562 3563 3564
3 3561 3560 2020
3 3562 2517 3563
3 864 861 3283
3 3564 3565 3566
3 3565 3567 3566
3 3568 3569 3570
3 3283 3104 864
3 3285 3104 3283
3 3568 3571 3569
3 3572 3573 3574
3 3573 3524 3574
3 3212 3187 3210
3 3575 3576 3572
3 3575 3265 3576
3 2790 1629 2791
3 3577 3578 751
3 3515 1575 1947
3 3515 1993 1679
3 1679 1575 3515
3 3578 3579 751
3 3015 2065 3013
3 2202 3014 3013
3 3013 2065 2202
3 540 539 472
3 3577 2740 3457
3 2740 2742 3457
3 3580 3581 3582
3 3581 3583 3582
3 2791 1629 3006
3 2808 1628 2809
3 2809 1628 3018
3 3584 2752 3580
3 2660 1627 2661
3 3584 2734 2752
3 2661 1627 2999
3 3585 3489 3586
3 3489 3490 3586
3 3537 2700 3587
3 3063 453 457
3 3537 3588 2700
3 3063 2153 2155
3 2155 453 3063
3 3164 1636 3165
3 3587 3123 3589
3 3165 1636 3139
3 3123 3144 3589
3 3166 104 3164
3 3590 3591 3592
3 103 104 3166
3 3590 3593 3591
3 3079 1917 1916
3 3175 3322 3166
3 3166 3322 103
3 3165 3295 3175
3 3139 3295 3165
3 2809 757 750
3 3594 3595 3596
3 3595 3597 3596
3 3018 757 2809
3 3598 3599 3594
3 3598 3600 3599
3 3601 3573 3602
3 2791 3443 432
3 3006 3443 2791
3 3573 3603 3602
3 2928 3300 3474
3 3604 3523 3601
3 3604 3605 3523
3 3189 3225 3474
3 3474 3300 3189
3 3067 463 468
3 3067 2159 2161
3 2161 463 3067
3 2686 222 2660
3 221 222 2686
3 3606 3607 3608
3 2810 163 2808
3 162 163 2810
3 2792 45 2790
3 3606 3609 3607
3 44 45 2792
3 1515 3200 2686
3 2686 3200 221
3 3610 1857 1856
3 3611 3612 3608
3 3611 3613 3612
3 1856 2191 3610
3 3614 3615 3574
3 750 3207 2810
3 3615 3616 3574
3 2810 3207 162
3 3614 3522 3617
3 3522 3618 3617
3 432 434 2792
3 2010 2005 3619
3 3620 2576 3621
3 2010 2382 2012
3 3620 3622 2576
3 3621 3575 3623
3 3575 3616 3623
3 2792 434 44
3 3624 3122 3625
3 1557 1742 1560
3 1557 1558 1750
3 2874 1025 1451
3 3624 3144 3122
3 376 1930 382
3 942 1815 3493
3 3625 3356 3626
3 3356 3627 3626
3 3628 3629 3630
3 3628 3631 3629
3 1820 3179 3493
3 3493 1815 1820
3 809 2219 3632
3 3057 2776 2773
3 1944 1945 3633
3 3630 3634 3635
3 1944 3636 1652
3 3634 3637 3635
3 1943 1942 3638
3 3633 3636 1944
3 2242 3639 2244
3 3640 3641 3479
3 3030 3220 3125
3 3641 3642 3479
3 3125 3220 631
3 3640 3604 3643
3 3604 3644 3643
3 3125 3124 3030
3 2915 3645 1817
3 3645 3646 1817
3 2242 2241 3050
3 3517 3647 3648
3 3050 3639 2242
3 3517 3649 3647
3 2084 3650 2086
3 3415 3376 3648
3 3201 3159 3084
3 3415 3378 3376
3 3651 3652 3653
3 3652 3637 3653
3 3084 3159 1917
3 3084 3080 3201
3 2090 3650 2084
3 2025 1692 1695
3 1696 2021 1695
3 3654 3655 3656
3 2870 3271 3071
3 2789 603 3209
3 3209 3208 2789
3 2992 1877 1643
3 3655 3600 3656
3 3071 1702 2870
3 1641 1640 2892
3 3657 3487 3654
3 1641 3167 1645
3 3657 495 3487
3 3205 419 3658
3 3659 3660 3661
3 3659 3662 3660
3 3661 3663 3664
3 3663 3665 3664
3 3666 3667 3668
3 3667 3669 3668
3 1466 3670 3671
3 2255 3536 2251
3 1466 3672 3670
3 3673 3674 3675
3 3674 3676 3675
3 3677 3674 3673
3 3358 2088 3059
3 3358 3301 2928
3 3059 3301 3358
3 3031 589 3029
3 3230 3030 3029
3 3677 3678 3674
3 3679 3680 3681
3 3680 3497 3681
3 3029 589 3230
3 2251 3536 2253
3 3682 3683 3684
3 667 3197 650
3 3682 3685 3683
3 3488 3686 3470
3 3074 3076 3470
3 3470 3686 3074
3 1693 3235 2945
3 2945 3235 3133
3 3687 3540 3607
3 2210 651 650
3 3540 3688 3607
3 1964 3529 3687
3 1964 3532 3529
3 3689 3677 816
3 3677 3690 816
3 1760 2030 1771
3 3389 2729 1558
3 1760 1762 2035
3 242 2786 1739
3 3691 3692 3693
3 3691 3694 3692
3 3407 3695 3693
3 3407 3408 3695
3 624 3696 1639
3 1805 1807 3412
3 1811 3077 3412
3 3412 1807 1811
3 3516 2059 3036
3 3697 3698 3699
3 1947 2059 3516
3 3697 3700 3698
3 3036 1993 3516
3 3201 2588 3137
3 3137 1962 3201
3 3137 2588 2583
3 3699 3701 3697
3 3701 3702 3697
3 3703 3704 3705
3 1656 3706 1654
3 3703 3707 3704
3 3708 3709 3705
3 1834 1655 1654
3 3708 3710 3709
3 1654 3706 1834
3 3711 3712 3713
3 1699 1698 3115
3 3711 3714 3712
3 1699 2155 1712
3 3713 3715 3708
3 2925 2924 2996
3 3715 3710 3708
3 3258 3716 3717
3 1618 3696 624
3 3717 3716 2329
3 3718 3606 3719
3 3606 3720 3719
3 3541 3535 3534
3 3721 1965 3718
3 3721 1967 1965
3 3722 3723 3724
3 3723 3725 3724
3 2258 2256 3448
3 3054 1551 3193
3 2149 2150 3448
3 1714 1713 3114
3 1714 2161 1716
3 3726 3727 3722
3 3065 1908 1907
3 3726 3482 3727
3 3728 3214 2054
3 3728 1723 2186
3 2186 3214 3728
3 2054 1723 3728
3 503 502 1186
3 3729 3730 3731
3 3730 2467 3731
3 3732 3733 3666
3 3733 3734 3666
3 503 3735 505
3 1186 3735 503
3 3325 1771 3232
3 3325 3004 3329
3 3736 3737 3732
3 3736 3385 3737
3 3738 3584 3739
3 3738 2734 3584
3 3448 2256 2149
3 554 546 784
3 3740 3659 3741
3 3740 3662 3659
3 3742 3743 3596
3 333 335 2175
3 3744 3745 3746
3 634 1908 640
3 3743 3747 3596
3 634 636 1913
3 3742 3748 3617
3 1913 1908 634
3 3748 3749 3617
3 2883 3750 1754
3 3751 3752 3753
3 600 599 3211
3 3751 3754 3752
3 3753 3484 2735
3 3484 2371 2735
3 600 3209 603
3 3211 3209 600
3 3317 3755 3559
3 1954 2149 3559
3 3559 3755 1954
3 3753 3752 3484
3 2244 408 2802
3 3752 3756 3484
3 2802 408 3117
3 3757 3655 3585
3 3655 3758 3585
3 3759 3599 3757
3 3759 3760 3599
3 3761 3762 1816
3 3744 3746 3763
3 3764 3591 3765
3 3317 1955 3755
3 1953 1954 3755
3 3755 1955 1953
3 2836 3142 2834
3 3764 3766 3591
3 3765 3767 3759
3 590 2835 2834
3 3767 3760 3759
3 2834 3142 590
3 1914 1915 3768
3 1914 2359 1919
3 3769 3770 3771
3 1754 3750 603
3 3770 3772 3771
3 3769 3421 3770
3 3421 3773 3770
3 3692 3774 3775
3 3692 3694 3774
3 3768 2359 1914
3 3776 3777 3775
3 559 558 2152
3 3776 3627 3777
3 3778 2267 2266
3 3778 3631 2267
3 559 1563 562
3 2266 2268 3779
3 2786 440 442
3 2268 3780 3779
3 446 1734 442
3 3781 3782 3783
3 3096 3784 3097
3 3096 3098 3202
3 3202 3784 3096
3 3488 1781 1780
3 3781 3785 3782
3 3779 690 3786
3 1782 473 1780
3 1780 473 3488
3 3334 2096 3061
3 3779 3780 690
3 3334 2659 3329
3 3786 3787 3788
3 3787 3789 3788
3 3790 3791 3792
3 3061 2659 3334
3 3790 3793 3791
3 3794 3795 3796
3 3794 3797 3795
3 3798 3724 3796
3 3798 3799 3724
3 1754 1756 2883
3 1608 1742 1741
3 3800 3203 1598
3 3801 3802 3803
3 610 2388 2389
3 3801 3804 3802
3 1905 1906 2383
3 3803 3805 3801
3 3805 3806 3801
3 3628 3807 3808
3 3628 3809 3807
3 3810 2267 3808
3 1905 2378 342
3 3810 2269 2267
3 1669 1874 3259
3 3811 3748 3812
3 3748 3597 3812
3 3259 332 1669
3 1897 1896 2393
3 3811 3774 3813
3 2393 2351 1897
3 1923 1909 1922
3 511 512 2213
3 3774 3694 3813
3 511 1224 393
3 3814 3815 3816
3 1858 1920 1922
3 3815 3817 3816
3 1922 1909 1858
3 2262 2264 430
3 1910 3818 1912
3 3814 3819 3683
3 1446 2863 1024
3 3819 3820 3683
3 2862 1025 1024
3 3821 3682 2284
3 1024 2863 2862
3 3682 2286 2284
3 1910 1909 3822
3 3823 3824 3825
3 3822 3818 1910
3 430 2263 2262
3 3038 2181 3126
3 3824 3367 3825
3 2881 3202 3134
3 3134 1956 2881
3 3134 3202 3098
3 3826 3763 3746
3 3827 3828 2913
3 2020 1992 3561
3 3036 2240 3561
3 3823 3810 3816
3 3561 1992 3036
3 3810 3829 3816
3 2064 1736 2774
3 3816 3824 3823
3 2774 2776 2064
3 3816 3817 3824
3 1612 3830 1618
3 3831 3145 3832
3 3126 2086 3038
3 3831 3833 3145
3 1630 3830 1612
3 3834 2732 3738
3 1753 1607 1613
3 2732 2734 3738
3 1941 1983 2690
3 3835 3836 3837
3 3198 31 2690
3 3835 3838 3836
3 2690 1983 3198
3 3839 3645 3840
3 1618 3276 1613
3 3839 3646 3645
3 1186 1183 3320
3 3841 3842 3840
3 1613 3276 1753
3 3841 3843 3842
3 1937 1976 2795
3 3675 3844 3845
3 3194 207 2795
3 3675 3676 3844
3 2795 1976 3194
3 3845 3846 3847
3 3223 1884 3221
3 3846 3848 3847
3 637 631 3221
3 3849 3782 3850
3 3321 3735 3320
3 3782 3785 3850
3 3320 3735 1186
3 3762 3782 3849
3 1772 1774 2962
3 3762 3851 3782
3 1772 2956 1775
3 3852 3853 3854
3 2039 3142 2836
3 2836 2037 2039
3 2352 2351 2922
3 2352 3855 1899
3 2922 3855 2352
3 3853 3856 3854
3 3857 3858 3859
3 3852 3854 3842
3 3076 3077 3368
3 3854 3860 3842
3 2420 3861 3368
3 3862 3863 3864
3 369 2336 1638
3 317 2851 3284
3 3321 3865 3735
3 3284 302 317
3 3735 3865 505
3 3863 3866 3864
3 3284 2851 140
3 3862 3703 3867
3 2107 2109 2139
3 1880 3868 3869
3 1881 1883 637
3 3703 3870 3867
3 359 502 504
3 3871 3680 3733
3 505 2069 504
3 3680 3734 3733
3 1729 1718 2293
3 1881 3221 1884
3 637 3221 1881
3 3872 3873 3874
3 3872 3875 3873
3 3819 3807 3874
3 3819 3829 3807
3 3864 2711 3876
3 3864 3866 2711
3 3876 3146 3877
3 3146 3833 3877
3 3878 3598 3879
3 617 2265 2238
3 3598 3747 3879
3 2238 2237 617
3 3878 3798 3656
3 3798 3880 3656
3 3881 2500 3882
3 2500 3883 3882
3 2238 2265 1989
3 1844 2005 2011
3 3884 3454 3881
3 3884 3885 3454
3 3886 3887 3888
3 245 244 3018
3 3886 3649 3887
3 245 354 247
3 3889 3890 3888
3 3199 1917 3159
3 3889 3428 3890
3 3891 3892 3893
3 3892 3894 3893
3 1924 1917 3199
3 3159 3158 3199
3 2068 2200 2987
3 2987 1668 2068
3 3305 2864 3423
3 3895 3896 3891
3 3822 1923 3423
3 3895 3897 3896
3 3423 2864 3822
3 3872 3635 3898
3 311 2853 3290
3 3872 3809 3635
3 3290 298 311
3 2011 2205 1844
3 3244 3899 3900
3 3898 3652 3901
3 3652 3902 3901
3 1778 3278 2082
3 3877 3903 3904
3 2082 3278 2090
3 3333 1792 1791
3 3877 3833 3903
3 1791 2239 3333
3 3290 2853 81
3 3900 3899 2468
3 3905 3704 3904
3 3264 3038 2086
3 3905 3906 3704
3 3907 3908 3909
3 3907 3910 3908
3 3911 3912 3913
3 3911 3914 3912
3 3040 3038 3264
3 3913 3901 3915
3 2117 3916 516
3 293 292 2999
3 293 344 295
3 2081 3044 3917
3 1846 403 3917
3 3901 3902 3915
3 3918 2367 3483
3 2367 2371 3483
3 3917 403 2081
3 3919 3590 3920
3 3919 3593 3590
3 3920 3626 3776
3 1453 1585 3001
3 3626 3627 3776
3 1306 1676 3001
3 3921 2694 2311
3 305 304 3006
3 3922 3438 3923
3 305 349 307
3 3331 3706 1737
3 3331 1738 1834
3 3922 3924 3438
3 1834 3706 3331
3 3386 3922 3923
3 516 2113 2117
3 3386 3925 3922
3 3926 3451 3927
3 3926 3928 3451
3 3927 3929 3930
3 3929 3914 3930
3 1656 2186 3706
3 1834 812 1655
3 2193 3931 2198
3 2203 3931 2193
3 1794 3501 1776
3 3706 2186 1737
3 1797 3501 1794
3 3932 3933 3934
3 1455 1582 3012
3 3933 3910 3934
3 1302 2842 3012
3 3935 3558 3932
3 1186 502 2803
3 2324 2804 2803
3 3935 3520 3558
3 3936 3937 3721
3 2803 502 2324
3 2086 3650 3257
3 2783 2036 2034
3 2034 2033 2783
3 2944 1611 1733
3 1733 1796 2944
3 2027 327 326
3 3937 1967 3721
3 331 2270 326
3 3938 3939 3940
3 3257 3650 3258
3 3939 3669 3940
3 326 2270 2027
3 3941 3942 3938
3 2071 3131 2139
3 3941 3943 3942
3 1659 2466 3944
3 325 327 1696
3 3271 297 3351
3 1836 3073 3351
3 3351 297 1836
3 3945 3929 3946
3 2073 3131 2071
3 3929 3452 3946
3 2220 2219 2175
3 2220 3312 1903
3 2139 2070 2071
3 2777 2040 2778
3 2777 759 2041
3 3945 3684 3947
3 3684 3820 3947
3 3948 2765 3949
3 2041 2040 2777
3 3948 3490 2765
3 3950 3828 3827
3 3951 3586 3948
3 1851 2967 2936
3 3586 3490 3948
3 3952 3764 3951
3 3952 3766 3764
3 1851 2936 3167
3 3953 3954 3955
3 3338 3956 3177
3 3177 3179 3338
3 3245 299 297
3 3953 3957 3954
3 297 3271 3245
3 2530 3956 3338
3 3958 3959 3960
3 3955 3930 3911
3 3961 1961 3157
3 3930 3914 3911
3 3800 3959 3958
3 3671 3539 3962
3 3671 3588 3539
3 3941 3963 3964
3 3158 1961 3961
3 1921 3057 1923
3 1921 1920 3292
3 3292 3057 1921
3 3157 3205 3961
3 2213 1950 1949
3 1904 1902 3236
3 2407 3696 3965
3 3966 2032 3039
3 3966 2137 2033
3 2033 2032 3966
3 3039 2137 3966
3 1894 2869 1892
3 3941 3967 3963
3 1639 3696 2407
3 3968 428 3969
3 428 3804 3969
3 3293 2789 3208
3 3293 2933 3100
3 3208 2933 3293
3 3197 301 3324
3 1818 3970 3968
3 1839 2210 3324
3 1818 3646 3970
3 3324 301 1839
3 1446 1890 1892
3 3196 303 301
3 301 3197 3196
3 3949 3971 3972
3 2373 1930 1929
3 243 574 1662
3 1835 1824 3148
3 1835 2729 1670
3 3949 2767 3971
3 2563 378 377
3 3972 3973 3974
3 1808 1809 3285
3 1808 861 1782
3 382 3975 377
3 377 3975 2563
3 1691 3976 1671
3 1671 3976 501
3 533 3046 2040
3 3973 3977 3974
3 2040 522 533
3 544 3046 533
3 240 242 1739
3 3978 3979 3781
3 240 1740 243
3 2038 3980 2042
3 3235 1883 3236
3 3979 3785 3781
3 3978 3981 3982
3 2044 3980 2038
3 3981 3983 3982
3 1693 1883 3235
3 2659 3061 3425
3 3425 3061 2228
3 3425 1907 2659
3 3238 3239 2815
3 1753 3007 1752
3 3560 2858 2020
3 3560 2240 2239
3 2239 2858 3560
3 3984 3620 3985
3 3984 3622 3620
3 3985 3695 3986
3 244 1853 3018
3 3987 515 516
3 3987 3180 2036
3 2036 515 3987
3 516 3180 3987
3 1560 1742 1752
3 2389 90 2333
3 2333 2331 2389
3 2333 90 91
3 749 3988 3989
3 3321 3192 3989
3 3989 3988 3321
3 3695 3408 3986
3 3990 3664 3991
3 3664 3665 3991
3 2932 3043 3313
3 3992 3993 3740
3 3993 3662 3740
3 3739 3846 3992
3 3313 3043 2074
3 3739 3848 3846
3 2285 3946 3994
3 2285 2286 3946
3 3313 2160 2932
3 3450 3995 3994
3 3989 3192 749
3 3450 3885 3995
3 1752 3007 1560
3 3996 3997 2283
3 3997 3998 2283
3 3996 3999 3435
3 3999 4000 3435
3 3552 2365 4001
3 3552 3553 2365
3 3459 2239 494
3 4001 3554 4002
3 1759 4003 3254
3 3333 2239 3459
3 3554 3547 4002
3 2383 1979 2379
3 3908 4004 4005
3 3908 3910 4004
3 1850 4006 4007
3 4007 983 1850
3 4008 3538 4009
3 2170 3330 2168
3 3312 2169 2168
3 2168 3330 3312
3 2876 2875 2942
3 2876 198 199
3 3538 4010 4009
3 1784 3571 1786
3 3719 4011 4008
3 3719 3720 4011
3 3260 2545 2164
3 4012 3937 4013
3 4012 1967 3937
3 1785 3571 1784
3 586 4003 1759
3 3973 3550 4013
3 2379 1979 2381
3 3973 4014 3550
3 3882 4015 4016
3 3882 3883 4015
3 3254 1757 1759
3 4017 2246 1698
3 4018 3711 3905
3 1980 2261 2424
3 3711 3906 3905
3 1698 2246 3115
3 4019 4020 4021
3 2424 1981 1980
3 656 3641 4018
3 2174 2220 2175
3 656 3642 3641
3 2174 2169 3312
3 3768 310 309
3 3312 2220 2174
3 608 610 2389
3 309 2359 3768
3 3818 4022 1912
3 3818 3822 2869
3 2869 4022 3818
3 2045 474 2046
3 472 474 2045
3 3343 4023 1888
3 3343 3187 3212
3 3212 4023 3343
3 4018 3905 656
3 292 1862 2999
3 2389 2331 608
3 2883 2178 2184
3 3905 669 656
3 1968 2260 4024
3 369 1638 1637
3 1639 2102 1637
3 4025 2736 3551
3 525 527 2258
3 2736 3553 3551
3 525 2150 528
3 4025 3551 3971
3 3551 4014 3971
3 3638 1957 3237
3 4026 2638 4027
3 3237 1957 3239
3 4026 3567 2638
3 4027 4028 4029
3 3237 1943 3638
3 3034 474 2893
3 2893 1996 3034
3 2893 474 479
3 304 1870 3006
3 4028 3983 4029
3 3309 3729 3835
3 1927 1640 1642
3 3729 3838 3835
3 3859 4030 4031
3 1645 3176 1642
3 4032 3806 3307
3 500 499 3337
3 4033 727 3736
3 727 3385 3736
3 4024 1969 1968
3 4034 3388 4033
3 4034 3925 3388
3 4035 3889 4036
3 4035 3428 3889
3 2184 2224 2883
3 4036 3934 3907
3 4037 2247 1713
3 3944 1942 1657
3 1713 2247 3114
3 1657 1659 3944
3 3934 3910 3907
3 3480 4038 4039
3 3480 3642 4038
3 3613 4040 4041
3 2056 2007 730
3 4039 4042 3727
3 2393 149 2353
3 4042 4043 3727
3 2353 2351 2393
3 2353 149 150
3 341 340 2550
3 341 4044 343
3 3115 451 453
3 2202 2776 3291
3 3291 3014 2202
3 1646 1529 2970
3 1556 1311 2970
3 4045 3363 2233
3 2970 1529 1556
3 4038 4042 4039
3 3242 4046 457
3 1776 3501 3277
3 3277 1778 1776
3 4038 4047 4042
3 3242 1919 4048
3 3850 3979 4049
3 4048 4046 3242
3 3850 3785 3979
3 2550 4044 341
3 4049 4050 4051
3 4050 4052 4051
3 4053 4042 4054
3 2769 4055 4048
3 4048 2364 2769
3 3226 4056 468
3 3226 342 343
3 4053 4043 4042
3 343 4056 3226
3 3726 3879 4057
3 3114 461 463
3 4058 599 601
3 603 3750 601
3 601 3750 4058
3 3726 3799 3879
3 352 499 353
3 4057 3743 4059
3 1928 1583 3467
3 3743 3618 4059
3 1308 1672 3467
3 4060 4061 3828
3 3254 1973 1972
3 1726 1725 1972
3 1650 1531 2976
3 1559 1335 2976
3 2976 1531 1559
3 2816 2797 2821
3 2816 2815 3239
3 4061 4062 3828
3 3239 2797 2816
3 4063 3921 3251
3 1932 1934 1978
3 1786 3571 3119
3 3119 1813 1786
3 4051 4064 4060
3 1932 1976 1937
3 4051 4052 4064
3 730 2007 1503
3 2357 3437 2355
3 2065 3015 2984
3 3437 4000 2355
3 2984 1664 2065
3 2012 2316 2204
3 2204 2316 2208
3 3314 4065 2372
3 1938 1940 1985
3 1938 1983 1941
3 2372 2370 3314
3 2372 4065 2373
3 2055 2018 2052
3 4066 3434 4067
3 3323 373 375
3 3434 3924 4067
3 375 3306 3323
3 4068 4047 4069
3 3139 373 3323
3 4070 4031 4030
3 2933 4071 3101
3 3939 4072 4073
3 3939 4074 4072
3 3101 4071 517
3 3859 3858 4030
3 3710 2281 4075
3 3101 3100 2933
3 1304 1680 3027
3 2052 2018 542
3 1694 1692 1693
3 1618 624 626
3 1863 4076 925
3 2053 2003 214
3 4077 3783 4078
3 2053 2049 2330
3 3783 3851 4078
3 2330 2003 2053
3 3837 4079 4077
3 3045 3129 1889
3 1889 1878 3045
3 2081 3129 3045
3 3837 3897 4079
3 2749 1756 1755
3 626 3276 1618
3 603 2789 1755
3 3531 26 2188
3 2188 390 3531
3 4080 4081 3942
3 4081 4074 3942
3 4080 4082 4083
3 25 26 3531
3 4082 4084 4083
3 4085 3400 3953
3 2294 410 411
3 3400 3957 3953
3 1860 2937 2939
3 1879 1849 3042
3 4086 4087 4088
3 3533 202 2196
3 2196 400 3533
3 201 202 3533
3 3232 2030 3456
3 3301 3059 3439
3 4087 3772 4088
3 4086 3909 4050
3 3909 4052 4050
3 3456 2030 2136
3 4089 4009 3826
3 3456 3231 3232
3 4055 4090 3509
3 2778 320 322
3 4009 4010 3826
3 625 624 1639
3 4044 4091 404
3 625 1638 630
3 1603 3132 1604
3 4092 3319 4021
3 4093 3936 4089
3 4076 3990 925
3 1604 3132 3133
3 4092 4094 3037
3 4095 4096 3952
3 3037 3319 4092
3 4096 3766 3952
3 4097 2457 4098
3 4098 2532 4099
3 479 473 857
3 4100 3832 3834
3 1782 861 857
3 3832 3442 3834
3 4100 3741 4070
3 857 473 1782
3 3741 4101 4070
3 4102 3667 3679
3 3667 3734 3679
3 423 4103 2947
3 423 4104 4103
3 4105 2250 2252
3 3439 3059 2218
3 4106 4107 4108
3 2778 2143 320
3 4106 3789 4107
3 4108 3723 4053
3 320 2143 2073
3 3439 1916 3301
3 3723 4043 4053
3 2252 2398 4105
3 4109 3763 3624
3 3297 4110 3184
3 3763 3144 3624
3 1608 2207 1606
3 1850 983 2391
3 1606 2207 1630
3 4109 3592 4096
3 589 3031 2981
3 3592 3766 4096
3 2981 557 589
3 4078 3761 4111
3 4078 3851 3761
3 2177 2248 2190
3 2301 2473 2384
3 2355 4112 4113
3 4112 4114 4113
3 3991 4115 4116
3 3991 3665 4115
3 731 2240 2059
3 494 2240 731
3 4116 3788 4106
3 2884 3033 2985
3 2985 1666 2884
3 1842 4117 1843
3 1843 4117 1850
3 3788 3789 4106
3 430 429 2551
3 757 3018 1853
3 4058 4118 4119
3 3184 4110 3191
3 4098 2457 2532
3 4120 4121 4122
3 3806 4123 3801
3 4070 4101 3990
3 2601 4124 2108
3 3184 3189 3297
3 2601 4125 4124
3 1854 2015 37
3 1854 1847 2341
3 3205 4126 3961
3 4127 4128 2022
3 4126 3158 3961
3 1860 2939 3170
3 2022 4128 2025
3 4129 2421 2261
3 2022 2021 4127
3 2341 2015 1854
3 2396 2395 484
3 4130 4131 2233
3 2233 3363 4130
3 4124 4132 2111
3 3507 4133 3509
3 4134 2415 2260
3 1224 1949 4135
3 4124 4125 4132
3 4136 4137 2338
3 2350 418 4138
3 1951 2363 4135
3 4135 1949 1951
3 4136 2312 4137
3 4135 2363 1224
3 4139 4140 2031
3 1717 3636 2293
3 4139 4141 4140
3 2293 1718 1717
3 1652 3636 1717
3 609 2237 1601
3 2317 2619 2580
3 1601 610 609
3 2619 4142 2580
3 2280 2281 3710
3 617 2237 609
3 3397 387 389
3 484 483 2396
3 4143 4127 2026
3 3397 1886 3103
3 4144 4127 4143
3 389 1886 3397
3 2067 1727 4071
3 4145 4146 4147
3 2688 2452 4148
3 2688 4149 2452
3 1988 4150 1986
3 4150 4138 1986
3 2253 3536 3535
3 3535 3528 2253
3 3453 4151 4152
3 3453 3928 4151
3 2044 4153 3980
3 4071 1727 517
3 2044 4154 4153
3 4071 2933 2067
3 2079 2140 1978
3 1978 2076 2079
3 3263 4155 3020
3 3263 2708 2388
3 2388 4155 3263
3 3020 4155 1599
3 3916 2281 3182
3 1599 4155 1601
3 1599 1598 3020
3 2101 2144 1985
3 1985 2098 2101
3 3507 1810 3289
3 3289 4133 3507
3 3494 4156 404
3 2256 2257 2373
3 3494 1819 3253
3 4157 4158 2255
3 3224 1790 3302
3 4159 4160 4161
3 3302 2775 3224
3 2872 1994 2874
3 2872 2032 2034
3 4105 2398 2248
3 4160 2518 4161
3 4162 4163 4164
3 4162 2696 4163
3 2034 1994 2872
3 3253 4156 3494
3 431 2264 2152
3 2152 4020 431
3 430 2264 431
3 4164 2288 4165
3 213 2003 2002
3 2253 3528 2399
3 2002 212 213
3 2288 2348 4165
3 3082 4166 3094
3 3082 3049 3326
3 4165 4162 4164
3 3326 4166 3082
3 1630 4167 3830
3 2198 4045 2230
3 3830 4167 3965
3 2230 4045 2233
3 2749 2882 1756
3 3212 3103 4023
3 1886 1888 4023
3 4023 3103 1886
3 766 768 3148
3 766 1725 805
3 3443 3006 1870
3 3295 3139 315
3 2043 2434 2044
3 36 2015 2014
3 2014 35 36
3 91 92 2334
3 2604 2331 2334
3 409 3639 411
3 409 408 2244
3 4165 4168 4162
3 2110 4169 4170
3 4170 2603 2110
3 4171 4172 2484
3 2241 154 155
3 2244 3639 409
3 1777 2083 2962
3 1649 1718 2892
3 2892 1640 1649
3 2233 4131 4173
3 632 1692 2025
3 2484 4172 4174
3 2419 2418 4175
3 2025 633 632
3 1469 3302 3222
3 1999 2961 2104
3 2000 2961 1999
3 1790 3039 3222
3 3222 3302 1790
3 2332 4176 2265
3 2332 2604 4176
3 4177 4178 4179
3 2962 1774 1777
3 4177 3838 4178
3 1820 1819 397
3 397 399 1820
3 2864 3305 2862
3 4179 4180 4177
3 2864 2869 3822
3 3944 2466 578
3 1757 1725 1825
3 4180 4181 4177
3 3220 3030 3230
3 347 346 2330
3 347 2323 359
3 2330 2323 347
3 548 4182 1762
3 2582 2870 2583
3 3271 2870 2582
3 1758 1757 1825
3 1825 1788 1758
3 3230 3223 3220
3 1762 4182 2035
3 2799 2848 2222
3 4183 4184 4185
3 4186 2369 4187
3 4184 4188 4185
3 2024 2023 3035
3 2179 1826 3035
3 4186 4063 4189
3 1844 2207 2209
3 2102 4190 365
3 4190 4191 365
3 2555 4192 2556
3 2209 2207 1608
3 2615 2472 4193
3 2209 1838 1844
3 2615 4194 2472
3 2025 4128 638
3 3751 3791 4195
3 3751 4196 3791
3 638 633 2025
3 638 4128 749
3 4094 4092 4197
3 4094 95 96
3 4189 2369 4186
3 4092 4021 4197
3 2799 2127 3040
3 150 151 2354
3 2922 2351 2354
3 2077 210 2302
3 1994 1991 2874
3 2274 4198 4199
3 1994 2034 1998
3 246 247 3195
3 2274 4200 4198
3 3015 2935 3195
3 2297 2296 3509
3 2518 3279 2519
3 3509 4090 2297
3 2921 151 152
3 3806 4201 4123
3 2029 865 3233
3 2146 1829 3233
3 161 162 3207
3 604 599 4058
3 2518 4202 3279
3 4203 4198 4204
3 604 4119 607
3 4058 4119 604
3 3095 667 3098
3 3197 667 3095
3 4198 4200 4204
3 334 3262 2487
3 1867 3869 2435
3 2419 4205 2276
3 2291 2290 3094
3 339 3262 334
3 2487 335 334
3 2302 210 211
3 2291 1729 2293
3 3094 1729 2291
3 3303 3302 1469
3 3303 2862 3305
3 4206 3143 2042
3 2099 4 2305
3 4206 3240 2815
3 4207 2993 2006
3 4207 1874 1879
3 1879 2993 4207
3 2006 1874 4207
3 3317 3315 635
3 635 3315 636
3 2191 2231 3610
3 635 1955 3317
3 1912 2231 2191
3 4205 2279 2276
3 220 221 3200
3 2211 496 2213
3 2211 2212 4104
3 3258 3717 3256
3 3256 3717 339
3 579 578 4208
3 579 4003 586
3 4208 4003 579
3 2305 4 34
3 416 3658 419
3 102 103 3322
3 294 295 3213
3 3031 2940 3213
3 3466 2799 3040
3 3466 3255 2848
3 2848 2799 3466
3 1775 2956 2858
3 43 44 434
3 440 2729 3389
3 605 3102 3211
3 3592 4209 3590
3 3117 408 2374
3 2563 3975 2374
3 607 3102 605
3 3211 599 605
3 3081 2295 411
3 1563 2245 93
3 3081 3639 3049
3 411 3639 3081
3 3214 1884 3223
3 2383 2247 2144
3 3225 3183 4210
3 2042 3240 4206
3 4210 3183 1880
3 4210 1875 3225
3 3223 2054 3214
3 2468 1659 1658
3 1660 3900 1658
3 3768 2246 2140
3 4170 4211 4212
3 4211 4213 4212
3 3377 4214 2399
3 3377 3378 4214
3 1658 3900 2468
3 3750 2224 4058
3 1963 3239 1957
3 2883 2224 3750
3 3509 2296 3508
3 398 4091 2301
3 404 4091 398
3 1811 1810 3508
3 3508 2296 1811
3 2125 4157 1691
3 3638 1952 1957
3 2878 4157 2125
3 3028 1643 1877
3 1601 2237 3959
3 1877 1876 3028
3 3959 2237 3960
3 4215 4216 2505
3 4215 3754 4216
3 1990 1991 4217
3 4218 2549 2380
3 2167 2486 2170
3 4218 2462 2549
3 4217 2158 1990
3 2310 4192 2555
3 3143 4206 2817
3 1691 2250 3976
3 2817 4206 2815
3 3976 2250 4105
3 306 307 3181
3 2340 4202 2339
3 3033 2953 3181
3 2339 4202 2518
3 3359 4219 4130
3 4193 2473 2301
3 1788 1952 3638
3 3359 4220 4219
3 3115 1915 451
3 2358 4221 4222
3 2167 2169 2487
3 3258 2503 3716
3 570 1952 4223
3 3321 4144 3865
3 3336 522 2041
3 3865 4144 4175
3 4221 2409 4222
3 2041 1685 3336
3 3468 4224 4225
3 3114 1906 461
3 1023 1025 2874
3 2874 1991 1023
3 4155 610 1601
3 2388 610 4155
3 1971 1973 3619
3 3619 2005 1971
3 2173 2172 3286
3 2141 1801 3286
3 3094 2290 2295
3 4226 3002 2017
3 4226 1876 1889
3 3468 3288 4224
3 1889 3002 4226
3 3229 2113 516
3 2017 1876 4226
3 3285 2113 3229
3 1903 3133 1901
3 2164 2094 2093
3 2095 4227 2093
3 3163 2337 3161
3 4225 4228 4229
3 2381 2446 2445
3 4228 3633 4229
3 3306 375 3093
3 2538 3266 4230
3 323 4231 4230
3 3178 3459 491
3 491 493 3178
3 491 3459 494
3 2584 1310 2596
3 2584 2588 2217
3 2217 1310 2584
3 2149 4065 3316
3 2094 2158 4217
3 3316 4065 3314
3 1603 4117 3132
3 3132 4117 1842
3 2748 2882 2749
3 2748 2784 352
3 3236 1902 1901
3 3161 2337 3298
3 1685 759 2126
3 2878 2125 2126
3 1865 3869 1867
3 1880 3869 1865
3 807 1655 812
3 807 809 3632
3 3632 1655 807
3 4183 429 4232
3 3892 4180 4154
3 2059 976 733
3 733 976 2056
3 3182 2281 2236
3 3784 1334 3097
3 3784 3202 2226
3 2236 2234 3182
3 4197 562 95
3 3892 4181 4180
3 2226 1334 3784
3 95 4094 4197
3 506 508 1560
3 506 3008 510
3 2863 1892 2869
3 1844 2205 2207
3 1446 1892 2863
3 1715 535 4037
3 1716 535 1715
3 2139 2109 2070
3 4037 1713 1715
3 3000 1826 1453
3 3000 1676 2024
3 4233 385 2449
3 1872 1864 2836
3 3319 4019 4021
3 1872 2835 1875
3 1951 4019 3319
3 2215 4119 4104
3 1700 530 4017
3 607 4119 2215
3 4104 2212 2215
3 1712 530 1700
3 4017 1698 1700
3 2892 1718 1730
3 1209 1206 1730
3 4233 4208 385
3 2468 3899 4179
3 4234 4235 2449
3 4234 4236 4235
3 2046 986 2047
3 2047 986 2055
3 3409 2241 155
3 3050 2241 3409
3 155 156 3409
3 1696 1694 1841
3 1841 1694 1842
3 308 310 1970
3 1605 1607 1753
3 2358 2413 2298
3 1605 1742 1608
3 3855 3975 382
3 2006 1814 1300
3 4237 2546 2203
3 1300 1814 942
3 2358 2526 2413
3 1300 1503 2006
3 2413 4238 2298
3 3505 3206 3157
3 4003 2448 3254
3 3505 3203 3800
3 3800 3206 3505
3 1209 1729 4166
3 4166 1729 3094
3 4166 3326 1209
3 2017 1806 3318
3 3050 3049 3639
3 3318 1806 1805
3 2413 2420 4238
3 4239 4240 4241
3 4240 4040 4241
3 4242 4243 2714
3 3318 542 2017
3 3314 2370 2369
3 2369 4189 3314
3 144 1710 3353
3 3353 1710 2210
3 1691 4157 2254
3 2254 2250 1691
3 2254 4157 2255
3 3353 143 144
3 4117 4006 1850
3 2797 2121 2821
3 1603 4006 4117
3 152 2463 3118
3 4209 4244 3590
3 2797 3239 1963
3 3118 2921 152
3 4243 2716 2714
3 4121 2678 4122
3 4021 558 560
3 4122 2678 2506
3 562 4197 560
3 560 4197 4021
3 2030 3232 1771
3 2166 592 3215
3 3112 1798 3215
3 2100 2098 4129
3 4129 2261 2100
3 3074 539 541
3 1939 2691 2099
3 2078 2076 4134
3 4134 2260 2078
3 1941 2691 1939
3 2099 1940 1939
3 1933 2796 2077
3 1937 2796 1933
3 2077 1934 1933
3 36 37 2015
3 1873 4210 1880
3 1875 4210 1873
3 3304 2775 3302
3 3304 3305 2773
3 2773 2775 3304
3 1859 1857 3610
3 3610 1945 1859
3 308 1969 323
3 1894 4237 2201
3 4128 3988 749
3 2201 2192 1894
3 213 214 2003
3 3262 3717 2329
3 339 3717 3262
3 2747 3100 2784
3 1648 1640 1927
3 2092 2094 4217
3 4217 2234 2092
3 1927 1857 1648
3 3099 2023 2955
3 3298 2337 4159
3 2955 2956 3099
3 2183 3396 2185
3 2190 3396 2183
3 1813 3120 2112
3 2112 3120 2120
3 4127 3988 4128
3 4242 2714 4245
3 4058 2224 2227
3 2227 4118 4058
3 2201 4237 2203
3 558 4020 2152
3 4138 418 1986
3 3686 473 472
3 1986 418 3960
3 499 594 3337
3 352 594 499
3 3944 578 580
3 580 1942 3944
3 4021 4020 558
3 1981 2446 2381
3 3488 473 3686
3 2424 2446 1981
3 2309 2308 3251
3 501 3976 4246
3 2309 3921 2311
3 4246 3976 4105
3 85 1705 3340
3 3861 4247 1785
3 4248 4249 3668
3 2714 2739 4245
3 3340 1705 3073
3 4250 4251 4190
3 3340 84 85
3 4251 4191 4190
3 3251 3921 2309
3 2417 3865 4175
3 505 3865 2417
3 4175 2418 2417
3 2836 1864 1866
3 3658 4252 4253
3 2480 4254 2278
3 4253 4252 3163
3 1866 2037 2836
3 2480 4255 4254
3 359 2324 502
3 3254 2448 1973
3 529 521 3328
3 1969 4231 323
3 1796 544 3328
3 4024 4231 1969
3 2243 2463 154
3 3328 521 1796
3 3389 1558 508
3 154 2241 2243
3 3346 4229 4131
3 2329 3716 4152
3 3346 3347 4229
3 4256 2289 4252
3 3148 1824 1823
3 1825 1725 1823
3 2086 3126 2085
3 2962 2083 2085
3 3327 2212 512
3 4256 4257 2289
3 399 4258 3339
3 1855 1857 1927
3 4258 2530 3339
3 2600 4259 4041
3 2311 2694 4148
3 2600 4260 4259
3 1855 1920 1858
3 1786 1809 1779
3 3183 3225 3189
3 1600 3959 3800
3 3800 1598 1600
3 1601 3959 1600
3 3768 2140 310
3 1793 3177 1797
3 1793 1792 3333
3 2213 496 1950
3 3206 3958 419
3 3602 4261 4262
3 2233 4173 2232
3 3610 2231 2232
3 2232 4173 3610
3 3352 4263 2784
3 4232 4019 1948
3 3352 521 529
3 1948 4019 1951
3 1948 1950 4232
3 529 4263 3352
3 550 2308 4264
3 4046 904 457
3 4046 4048 3289
3 4248 4265 4249
3 3610 4173 1945
3 3350 4094 96
3 3602 3603 4261
3 3037 4094 3350
3 4261 4266 4262
3 1797 3177 3956
3 4261 2164 4266
3 96 97 3350
3 4129 2306 2422
3 2422 2421 4129
3 2422 2306 2016
3 4262 4267 3602
3 4056 2162 468
3 2145 1979 2383
3 4267 3644 3602
3 4056 343 3253
3 3158 4253 3162
3 3253 2162 4056
3 3162 4253 3163
3 513 2148 3105
3 535 537 4037
3 535 1716 538
3 3337 3336 1684
3 1684 3336 1685
3 4134 2303 2416
3 2416 2415 4134
3 2416 2303 2004
3 3800 3958 3206
3 342 2378 340
3 1982 1979 2145
3 2383 2144 2145
3 568 1662 574
3 3298 4159 4110
3 4110 3297 3298
3 4110 4159 3191
3 1821 2005 1844
3 1618 3830 3696
3 4189 636 3315
3 3696 3830 3965
3 3315 3314 4189
3 1940 2098 1985
3 530 532 4017
3 530 1712 534
3 2185 4268 2223
3 1919 2359 2364
3 2364 4048 1919
3 3926 4269 2328
3 568 570 4223
3 2487 2169 335
3 1979 1981 2381
3 4223 1662 568
3 3299 1918 3297
3 550 4264 4182
3 4182 548 550
3 4182 4264 2035
3 3299 3301 1916
3 1934 2076 1978
3 1916 1918 3299
3 1891 1890 4270
3 3926 4271 4269
3 1891 4237 1894
3 1812 2113 3285
3 348 2069 4255
3 4270 4237 1891
3 2170 3401 3330
3 3285 1809 1812
3 4241 4272 4273
3 519 2784 3100
3 209 2077 2796
3 2222 2848 2221
3 2175 2219 2221
3 2277 4231 4024
3 2796 208 209
3 1776 1774 1773
3 4024 2278 2277
3 527 1896 2258
3 2392 1896 527
3 33 2099 2691
3 2373 2257 1930
3 2691 32 33
3 3043 407 2074
3 4241 4040 4272
3 327 2021 1696
3 4274 2279 4275
3 4158 4273 4272
3 2679 2498 4276
3 3260 4261 3576
3 4261 3603 3576
3 2185 3396 3393
3 3393 4268 2185
3 4007 4277 818
3 4278 2446 2424
3 3252 2081 2080
3 3252 2946 3129
3 2424 2423 4278
3 3129 2081 3252
3 2012 2382 2317
3 2317 2316 2012
3 4277 4279 818
3 4280 3657 3795
3 2136 2030 2031
3 3657 3880 3795
3 2657 551 548
3 2657 2659 1907
3 343 4044 4156
3 4156 3253 343
3 4156 4044 404
3 1907 551 2657
3 3267 2189 27
3 3267 1767 1769
3 1769 2189 3267
3 3294 1829 1928
3 324 4239 758
3 3294 1672 2029
3 758 4239 2878
3 3300 2928 3301
3 4189 4063 4281
3 4281 636 4189
3 4281 4063 3251
3 3300 3297 3189
3 4048 4055 4133
3 4133 3289 4048
3 4133 4055 3509
3 3268 2197 203
3 516 3916 3180
3 3268 1763 1765
3 3180 3916 3182
3 2208 4167 2206
3 1765 2197 3268
3 2206 4167 1630
3 3011 1798 1455
3 4282 3890 4283
3 3658 416 4256
3 4256 4252 3658
3 4282 4284 3890
3 3311 2187 2074
3 636 4281 3250
3 3250 1913 636
3 3250 4281 3251
3 2027 2394 2026
3 4127 2021 2026
3 2258 1896 1898
3 3311 390 2188
3 2188 2187 3311
3 3115 2246 1915
3 532 1976 4017
3 1915 2246 3768
3 3194 1976 532
3 4276 2498 4174
3 2271 2270 331
3 3416 3394 4285
3 3310 2195 2080
3 1909 1923 3822
3 3310 400 2196
3 2196 2195 3310
3 1899 2257 1898
3 3114 2247 1906
3 1899 3855 2259
3 1906 2247 2383
3 2259 2257 1899
3 4017 1976 1977
3 1977 2246 4017
3 2004 2303 2304
3 3296 4246 2182
3 4037 1983 1984
3 1984 2247 4037
3 501 4246 3296
3 2182 2882 3296
3 1820 399 3339
3 3339 3179 1820
3 3394 2190 4285
3 2458 4286 4083
3 2035 4264 4287
3 537 1983 4037
3 2458 4288 4286
3 3198 1983 537
3 2149 2256 4065
3 4223 1824 1661
3 4065 2256 2373
3 1661 1662 4223
3 2877 402 401
3 401 2875 2877
3 630 1638 2800
3 2336 2801 2800
3 1811 2296 3369
3 3369 3077 1811
3 4289 2495 2598
3 2518 2517 4161
3 3191 4159 4161
3 2800 1638 2336
3 4289 2497 2495
3 3138 2583 2870
3 3988 4144 3321
3 3138 1958 1962
3 4127 4144 3988
3 1787 1788 3638
3 3292 1920 1925
3 3638 1942 1787
3 539 3686 472
3 3883 2502 3278
3 3074 3686 539
3 2502 2090 3278
3 2338 2337 3163
3 1912 2191 1911
3 1858 1909 1911
3 3150 391 337
3 337 336 3150
3 211 212 2304
3 549 3249 550
3 2176 2882 2182
3 2176 2178 2883
3 3632 2219 1900
3 549 551 1913
3 3241 3900 1660
3 1900 1902 3632
3 1660 3238 3241
3 2090 2503 3650
3 3244 3900 3241
3 3650 2503 3258
3 3510 3499 3956
3 2001 2003 2330
3 2111 4239 324
3 3499 1797 3956
3 1896 2392 2393
3 2001 2386 2004
3 865 2028 858
3 2259 3855 382
3 2013 2015 2341
3 2013 2387 2016
3 3632 1902 1653
3 1890 2158 4270
3 1653 1655 3632
3 3103 3212 3102
3 1883 1693 637
3 3102 3212 3211
3 417 3958 3960
3 2042 3980 3240
3 4290 4291 4292
3 3240 3980 3244
3 3191 3868 3185
3 1880 3183 3185
3 3185 3868 1880
3 419 3958 417
3 3960 418 417
3 3636 2292 2293
3 2016 2306 2307
3 3894 4293 2434
3 34 35 2307
3 4217 1991 1995
3 1995 2234 4217
3 1783 1781 3488
3 1998 2036 2235
3 3182 2234 2235
3 2658 3329 2659
3 3010 1801 1926
3 2194 2231 1912
3 631 633 639
3 749 3124 639
3 1912 2192 2194
3 3298 1918 3160
3 4129 2098 2097
3 2097 2306 4129
3 3160 3161 3298
3 3160 1918 1924
3 4134 2076 2075
3 2075 2303 4134
3 1450 3303 1469
3 1450 1025 2862
3 2862 3303 1450
3 4293 2044 2434
3 2110 2603 2108
3 2157 2545 4270
3 3957 3399 2486
3 2164 2545 2157
3 4270 2158 2157
3 529 594 4263
3 352 2784 4263
3 4263 594 352
3 2132 4169 2110
3 2136 4169 2132
3 1894 2192 4022
3 4022 2869 1894
3 4022 2192 1912
3 3960 2237 1987
3 3399 2170 2486
3 2332 2265 617
3 1987 1986 3960
3 2332 2331 2604
3 3249 2308 550
3 3135 3098 667
3 3251 2308 3249
3 2341 2335 364
3 2139 3273 2138
3 364 2335 369
3 364 363 2341
3 4105 2248 2249
3 2182 4246 2249
3 3135 1953 1956
3 2249 4246 4105
3 4223 1952 1822
3 2138 3273 3231
3 3231 2131 2138
3 1822 1824 4223
3 4068 3857 3859
3 4294 2990 3234
3 2927 4295 2088
3 2927 2105 4295
3 3044 3054 3917
3 3054 1846 3917
3 1671 500 1684
3 500 3337 1684
3 1537 4295 3174
3 1537 2088 4295
3 2494 4296 2493
3 4296 2720 2493
3 3465 4139 4287
3 3465 4141 4139
3 4161 4297 3191
3 4297 3868 3191
3 4242 4245 3168
3 4245 4298 3168
3 2410 4299 2654
3 4299 4090 2654
3 3916 4300 2281
3 4300 4075 2281
3 2301 2343 4193
3 2301 4091 2343
3 4257 4256 416
3 416 2349 4257
3 4280 3795 4301
3 4301 3795 3797
3 4302 2308 2310
3 4290 3943 4291
3 4264 2308 4302
3 2310 2555 4302
3 363 365 4191
3 3732 4249 3736
3 2387 363 4191
3 4249 4265 3736
3 4191 4303 2387
3 923 925 3991
3 2404 4304 2755
3 3857 4068 4069
3 4125 4240 4132
3 3949 4305 3948
3 4239 2111 4132
3 4305 4306 3948
3 4132 4240 4239
3 2340 4164 4163
3 2696 4202 4163
3 4163 4202 2340
3 2755 4304 4307
3 2130 1802 2141
3 2141 2143 2130
3 3247 3737 4308
3 4309 3737 3247
3 4145 4147 3931
3 4147 4045 2198
3 2198 3931 4147
3 4184 4183 424
3 4183 4310 424
3 424 4310 496
3 4055 2769 2771
3 2599 2592 2594
3 2597 2599 2594
3 2592 2599 2723
3 4266 4227 4262
3 4266 2164 2093
3 2093 4227 4266
3 1766 3088 4311
3 2195 1765 4311
3 4311 3088 2195
3 4311 1765 1766
3 2358 4222 2634
3 2634 4222 2635
3 2522 3431 2384
3 4312 3431 2522
3 4313 4314 4227
3 4315 4314 4313
3 2360 309 4316
3 4316 309 323
3 2368 4317 4318
3 4318 1931 2489
3 4318 4317 1931
3 4319 4320 2485
3 2672 2671 4121
3 2672 2476 2478
3 4121 2476 2672
3 3622 3984 4321
3 3931 2203 4321
3 4321 3984 3931
3 2120 4075 4300
3 3916 2117 4300
3 4300 2117 2120
3 4322 3777 3403
3 3403 3777 3405
3 3403 3402 4322
3 1770 3090 4323
3 2187 1769 4323
3 4323 3090 2187
3 4323 1769 1770
3 4324 4320 4319
3 2435 4325 4326
3 2434 2435 4326
3 4326 4325 4327
3 3716 2501 4152
3 4093 4328 3936
3 4152 2501 3455
3 4328 3977 3936
3 2504 4276 4172
3 3307 4329 4032
3 3307 3309 4329
3 4172 4276 4174
3 4330 3217 2697
3 4331 4332 902
3 2697 3217 3219
3 906 1806 3002
3 917 1806 906
3 2563 2374 4333
3 4333 2374 410
3 4333 2562 2563
3 1603 3330 4334
3 3401 4006 4334
3 4334 3330 3401
3 4334 4006 1603
3 4294 1509 2990
3 4335 4068 3859
3 3227 1509 4294
3 2449 385 4234
3 4234 385 386
3 4336 4274 4275
3 4051 4060 3950
3 1468 4294 3234
3 3275 2645 2653
3 4332 4066 902
3 2653 3047 3275
3 3244 3980 4153
3 4154 3899 4153
3 4153 3899 3244
3 4337 3855 2922
3 1863 924 4054
3 3975 3855 4337
3 4294 1468 3227
3 2136 2031 4140
3 4141 4169 4140
3 4140 4169 2136
3 3365 3364 4338
3 4339 4086 4050
3 4338 3371 3365
3 4290 4082 3943
3 4050 4049 4339
3 4290 4292 3856
3 3856 4082 4290
3 4248 671 670
3 4258 2528 2530
3 4258 399 2300
3 2300 2528 4258
3 2411 2652 4340
3 2410 2652 2411
3 4275 4341 4336
3 4184 424 3149
3 2469 4342 384
3 384 383 2469
3 384 4342 386
3 4343 4289 4344
3 4344 4289 2598
3 768 2729 3148
3 427 3804 428
3 484 2430 485
3 2321 2320 2494
3 2321 2492 2325
3 4124 2111 2109
3 2109 2108 4124
3 2729 1835 3148
3 4283 3426 4345
3 4345 3426 4346
3 2318 2579 4347
3 4340 2645 2644
3 2644 2655 4340
3 2499 2498 2444
3 2444 2751 2499
3 4347 2579 2510
3 4248 4073 671
3 4085 4348 3689
3 655 3419 4349
3 4349 2535 2433
3 4348 3678 3689
3 4349 3419 2535
3 2280 3715 4313
3 4313 3715 4315
3 3272 1814 2993
3 2994 1814 3272
3 4350 3564 3563
3 2517 2519 3563
3 3563 2519 4350
3 4287 4351 1690
3 4228 3636 3633
3 4228 4225 2292
3 4351 2555 1690
3 2292 3636 4228
3 4160 2337 2339
3 3861 4352 3368
3 3436 4066 4097
3 4159 2337 4160
3 2339 2518 4160
3 4353 4184 3149
3 4352 3076 3368
3 4188 4184 4353
3 2441 2275 2406
3 2406 2507 2441
3 2544 4237 4270
3 3700 4354 4355
3 2546 4237 2544
3 4270 2545 2544
3 3118 4356 2921
3 4296 4357 2552
3 2494 4357 4296
3 2552 2720 4296
3 3118 3117 4356
3 4355 4354 4358
3 658 4069 4047
3 2539 2523 4359
3 4360 3913 4361
3 4360 3955 3911
3 4312 2523 2539
3 2420 3369 4238
3 3911 3913 4360
3 2296 2298 4238
3 4238 3369 2296
3 2961 3174 4295
3 4295 2105 2961
3 4164 4137 2288
3 2288 4137 2312
3 2490 376 378
3 4240 4041 4040
3 4125 4041 4240
3 4361 3955 4360
3 4216 4195 4362
3 218 3227 1468
3 3754 4195 4216
3 4362 2505 4216
3 1931 376 2490
3 4308 3384 2743
3 2743 3384 4363
3 4301 3797 4364
3 2471 2470 2632
3 2632 2523 2471
3 3797 4365 4364
3 4364 4366 2717
3 4364 4365 4366
3 2721 2488 2719
3 3461 3344 4220
3 3463 3344 3461
3 4220 3462 3461
3 2488 2721 2491
3 4265 670 4034
3 4367 2721 2719
3 4034 670 3925
3 4034 4033 4265
3 429 431 4368
3 4368 431 4020
3 2738 2594 2739
3 2738 2737 2597
3 2597 2594 2738
3 4137 4164 2340
3 2340 2338 4137
3 3091 2315 2314
3 2319 4369 2314
3 2314 4369 3091
3 346 348 4370
3 3168 4371 4242
3 4370 348 4255
3 2481 4120 4372
3 4255 4373 4254
3 2276 2278 4254
3 4254 4373 2276
3 2744 2743 4363
3 2744 3411 2746
3 4363 3411 2744
3 3416 3395 3394
3 3396 2190 3394
3 2035 4287 4139
3 3308 4374 3309
3 4242 2229 4243
3 4139 2031 2035
3 3378 3414 4214
3 4351 4302 2555
3 2397 2399 4214
3 4214 3414 2397
3 4126 3205 3658
3 4126 4253 3158
3 3658 4253 4126
3 3843 2484 2483
3 2485 4320 2483
3 3552 4375 3550
3 2483 4320 3843
3 4351 4287 4264
3 2405 4376 2409
3 4264 4302 4351
3 4372 4120 4362
3 2404 4376 2405
3 4242 4371 2229
3 1868 1870 3173
3 1870 304 3173
3 3173 2952 2954
3 4241 4273 2878
3 2878 4239 4241
3 2460 4218 2445
3 2462 4218 2460
3 4377 4369 2475
3 2475 4369 4378
3 2476 4120 2481
3 4024 2260 2479
3 4121 4120 2476
3 2479 2260 2415
3 2479 2278 4024
3 306 3173 304
3 2403 2405 2411
3 2409 2411 2405
3 2403 2411 4340
3 2598 2741 4344
3 4344 2741 4379
3 3820 3873 4380
3 2526 2414 2413
3 2491 4318 2489
3 1931 2490 2489
3 421 420 4381
3 421 3419 655
3 2952 3173 306
3 4381 3419 421
3 4382 4383 2720
3 4188 4383 4382
3 3393 3392 4268
3 3429 3392 3393
3 3678 4384 3674
3 3674 4384 3676
3 4299 2410 2299
3 4299 2297 4090
3 2299 2297 4299
3 3894 3892 4293
3 4154 2044 4293
3 4293 3892 4154
3 2419 2396 4205
3 483 2279 4205
3 4205 2396 483
3 2746 2578 2586
3 2589 2743 2586
3 4285 3414 3416
3 4285 2190 2397
3 2397 3414 4285
3 2521 2547 2515
3 2521 2520 2478
3 2376 2375 3381
3 3381 2620 2376
3 3619 2375 2377
3 2382 2010 2377
3 2377 2010 3619
3 2670 2655 699
3 2670 4304 2404
3 699 4304 2670
3 656 658 3642
3 4385 1945 4173
3 4341 4275 2537
3 3633 1945 4385
3 4231 4274 4336
3 2454 4192 4386
3 4387 3402 3404
3 3404 3548 4387
3 3685 4388 4389
3 4091 2344 2343
3 4389 4388 4358
3 2345 4193 2343
3 487 486 2477
3 487 3152 495
3 3672 1466 1465
3 1690 2556 1465
3 3935 3932 4390
3 4386 4148 2454
3 1465 2556 3672
3 4251 4303 4191
3 4391 3962 4260
3 4251 4250 2423
3 3912 3947 4380
3 3902 4392 3915
3 4361 3913 3915
3 3915 4392 4361
3 2423 4303 4251
3 2311 4148 4386
3 4393 3387 4359
3 4394 3387 4393
3 4167 4395 4396
3 4236 3492 4235
3 2450 2449 4235
3 4235 3492 2450
3 4397 3996 2283
3 422 2558 3342
3 4275 2431 2537
3 3342 420 422
3 4396 4395 4398
3 4380 3873 3912
3 4321 2577 3622
3 2203 2577 4321
3 4380 3947 3820
3 3119 3568 4399
3 4399 3568 4400
3 3277 3498 4401
3 4401 3498 4402
3 2285 3994 4397
3 4403 4215 2505
3 4404 4215 4403
3 4397 2283 2285
3 1308 3467 4405
3 1583 1505 4405
3 4405 3467 1583
3 4406 4407 4002
3 4201 3806 4408
3 4405 1505 1308
3 4203 4398 4198
3 2407 4203 2408
3 4198 4398 4199
3 2229 4409 4243
3 4243 4409 2716
3 4408 3806 4032
3 3974 4095 4306
3 2288 2287 2348
3 2350 2320 2322
3 905 4046 3289
3 2325 2347 2322
3 4176 2264 2265
3 4176 2604 2151
3 3965 4203 2407
3 2151 2264 4176
3 4149 2453 2452
3 2454 4148 2452
3 904 4046 905
3 4410 3709 4075
3 3870 3709 4410
3 4411 4412 4413
3 4414 4415 4416
3 4417 3309 3835
3 4413 4412 4418
3 4419 4143 2394
3 3289 917 905
3 4175 4143 4419
3 2450 2375 4420
3 4420 2375 3619
3 4421 2274 2282
3 4200 2274 4421
3 3998 4388 3821
3 2556 4422 4423
3 3821 4388 3685
3 4337 2374 3975
3 4423 4422 4378
3 2722 2569 2568
3 3117 2374 4337
3 2570 2491 2568
3 2568 2491 2722
3 4385 4229 3633
3 4385 4173 4131
3 4131 4229 4385
3 2497 2346 2496
3 2325 2492 2496
3 2496 2346 2325
3 2511 2440 2439
3 3817 4389 4424
3 2441 2509 2439
3 696 420 4411
3 4381 420 696
3 3941 3938 3967
3 4425 2423 4250
3 4425 4200 4278
3 4278 2423 4425
3 4136 2338 3163
3 4136 4252 2312
3 3163 4252 4136
3 2714 2713 2739
3 4250 4204 4425
3 4425 4204 4200
3 4186 4426 4063
3 4187 4426 4186
3 4427 2442 2677
3 2677 2442 2679
3 2677 2671 4427
3 3973 4013 3977
3 3973 3972 4014
3 4333 3281 2562
3 4192 2310 4386
3 410 3281 4333
3 3792 4025 2767
3 4386 2310 2311
3 4196 4025 3792
3 4208 383 385
3 4428 2751 4429
3 4429 2751 2447
3 2401 4395 2402
3 4398 4395 2401
3 2601 2600 4125
3 2601 2108 2603
3 3783 4077 4430
3 3770 4431 3772
3 3773 4431 3770
3 4084 3856 4432
3 4432 3700 4084
3 3885 3449 3454
3 3455 3881 3454
3 2703 2764 4433
3 3385 727 729
3 4194 2612 2611
3 2611 2621 4194
3 3793 2764 2703
3 737 3382 729
3 3758 3486 3489
3 4434 3587 2700
3 3489 3585 3758
3 4312 3430 3431
3 4435 1817 4436
3 2385 2384 3431
3 4383 4298 2593
3 3907 3909 4437
3 3216 3217 3424
3 3875 3913 3912
3 3216 4438 2641
3 3424 4438 3216
3 2943 4439 2758
3 2758 4439 2760
3 2758 2757 2943
3 1816 3762 4436
3 2593 2720 4383
3 3373 3525 3375
3 3373 3372 3528
3 3924 3433 3438
3 3355 3923 3438
3 4366 4365 3787
3 4381 696 698
3 4275 2279 483
3 4406 3532 4407
3 3947 3912 3914
3 3914 3945 3947
3 4436 1817 1816
3 2516 2514 693
3 2516 4440 2447
3 693 4440 2516
3 4339 3978 3982
3 3787 4365 3789
3 3787 3786 4366
3 4062 2913 3828
3 3950 4060 3828
3 2704 3418 4381
3 698 2704 4381
3 3504 4016 4402
3 4279 816 818
3 983 4007 818
3 4199 2275 2274
3 4267 4314 3644
3 4441 3811 3812
3 4267 4262 4227
3 4227 4314 4267
3 4250 2408 4204
3 4436 3762 4435
3 4204 2408 4203
3 2273 2275 2441
3 2273 2440 2282
3 4249 3732 3666
3 3506 4016 3504
3 3468 3469 3288
3 3468 4225 3347
3 3739 3992 4442
3 4390 4036 3889
3 4402 3502 3504
3 3416 4443 3395
3 3889 3888 4390
3 4340 2655 2403
3 4444 3803 4445
3 2329 4152 4151
3 4445 3803 4446
3 3930 3955 4271
3 3928 2328 4151
3 4151 2328 2329
3 4271 3927 3930
3 4306 4095 3952
3 3613 3611 4272
3 4272 3611 4158
3 3952 3951 4306
3 4272 4040 3613
3 2577 2576 3622
3 2577 2203 2546
3 4447 4448 2754
3 2754 4448 2756
3 2754 2753 4447
3 2282 2446 4421
3 4414 4102 4415
3 4278 4200 4421
3 4421 2446 4278
3 2517 4449 4297
3 3729 3309 4374
3 3877 3904 3707
3 4297 4449 3868
3 4297 4161 2517
3 3707 3876 3877
3 4265 4033 3736
3 2426 2425 2465
3 2465 3410 2426
3 3666 3668 4249
3 3813 4450 3749
3 3395 4443 3429
3 3694 4450 3813
3 4396 4203 3965
3 4398 4203 4396
3 3965 4167 4396
3 3899 4154 4180
3 4180 4179 3899
3 4247 3570 3569
3 1785 1783 4352
3 3571 1785 3569
3 4451 4443 4452
3 3569 1785 4247
3 2540 2539 3390
3 2540 3348 2542
3 3390 3348 2540
3 3510 3500 3499
3 4453 4005 4454
3 3501 1797 3499
3 4454 4005 4455
3 4150 4357 4138
3 4150 1988 2263
3 2263 4357 4150
3 2916 3477 4456
3 4171 3841 4456
3 4456 3477 4171
3 4352 1783 3076
3 3997 3996 3436
3 4456 3841 2916
3 4208 578 383
3 383 578 2469
3 4400 3862 3867
3 3749 3811 3813
3 4213 4391 4212
3 2603 4170 4212
3 4143 2026 2394
3 4143 4175 4144
3 3773 4035 4431
3 2560 486 488
3 4431 4035 4437
3 495 4280 488
3 3875 3898 3901
3 3901 3913 3875
3 488 4280 2560
3 3432 4457 4458
3 4292 3964 3860
3 2542 4457 3432
3 4352 3861 1785
3 3882 4016 2361
3 4458 3430 3432
3 2508 3410 2465
3 2361 3881 3882
3 2465 2509 2508
3 3851 3783 3782
3 2528 2300 2385
3 2385 2529 2528
3 3943 4080 3942
3 4074 3938 3942
3 4212 4391 2603
3 3611 3608 3688
3 2735 2736 4196
3 4459 3835 3837
3 2701 2477 2481
3 4279 4085 3689
3 2299 2410 4221
3 4221 2410 2409
3 4221 2358 2299
3 4194 2470 2472
3 2473 4193 2472
3 3684 3945 2286
3 699 2655 2656
3 2574 2704 2656
3 2701 2703 4433
3 3998 3821 2284
3 2284 2283 3998
3 4222 4376 2635
3 2409 4376 4222
3 4168 2698 4162
3 4162 2698 2696
3 426 4414 4416
3 4196 3753 2735
3 3578 3577 4460
3 3578 4461 3579
3 3528 3372 3377
3 4460 4461 3578
3 3377 2399 3528
3 2756 2404 2755
3 4417 3835 4459
3 3719 4008 4462
3 4307 2753 2755
3 752 751 3579
3 4462 3718 3719
3 3584 3580 3848
3 752 4463 760
3 3048 2771 2770
3 2395 2270 2432
3 4305 3974 4306
3 2654 2771 3048
3 2770 3047 3048
3 4305 3949 3972
3 3848 3739 3584
3 4464 4445 3497
3 2724 2726 3447
3 4444 4445 4464
3 3972 3974 4305
3 3579 4463 752
3 4084 2458 4083
3 3685 3815 4465
3 3447 3357 2724
3 4466 4451 4452
3 4379 751 753
3 4284 4451 4466
3 760 4343 753
3 4355 2458 4084
3 4084 3700 4355
3 3814 3683 4465
3 3858 4467 3831
3 728 727 4394
3 3831 4467 3833
3 3831 3832 3858
3 2277 2279 4274
3 4274 4231 2277
3 2652 2645 4340
3 1964 3687 3609
3 3669 4073 3668
3 4465 3815 3814
3 2652 2410 2654
3 486 2478 2477
3 2572 2571 4468
3 4468 3418 2572
3 3347 4225 4229
3 2390 3269 4469
3 699 3581 4304
3 4470 3918 4471
3 2391 3269 2390
3 4471 3918 4455
3 4469 2271 2390
3 4304 3581 4307
3 2742 2737 2713
3 3695 3985 4472
3 3651 3676 3902
3 4472 3693 3695
3 2451 2453 2610
3 2610 2475 2451
3 4403 4473 4404
3 4403 2505 2504
3 2504 4473 4403
3 2702 4372 3793
3 2481 4372 2702
3 4435 2913 2915
3 3793 2703 2702
3 3247 4308 2589
3 3603 3572 3576
3 4474 3812 3597
3 3265 3260 3576
3 3593 3812 4474
3 4366 690 692
3 2432 2270 2272
3 4118 4371 2947
3 2947 4371 3168
3 4465 3683 3685
3 2595 2772 3460
3 3460 2772 3463
3 3953 3955 4361
3 3460 3462 2595
3 4475 4454 3756
3 2421 2387 4303
3 4453 4454 4475
3 4303 2423 2421
3 2566 2680 4476
3 4476 2564 2566
3 4418 3845 3847
3 3265 2576 2543
3 3714 3640 3643
3 3247 3246 4309
3 4419 2419 4175
3 4419 2394 2396
3 2396 2419 4419
3 4000 3999 4112
3 1818 3968 4477
3 4441 3920 3776
3 4103 4119 4118
3 4118 2947 4103
3 3776 3775 4441
3 4104 4119 4103
3 4444 4464 4478
3 3465 3464 4141
3 4478 4464 4236
3 3465 4287 1690
3 2488 2490 2561
3 3793 4195 3791
3 1466 3671 4213
3 2349 2347 4257
3 3925 670 672
3 2349 416 2350
3 3744 4096 3745
3 2229 2223 4409
3 4268 2716 4409
3 4409 2223 4268
3 3701 3364 3702
3 3701 3699 4428
3 4428 3364 3701
3 4317 1929 1931
3 4317 2368 2370
3 2370 1929 4317
3 3514 4439 4479
3 2760 4439 3514
3 3778 2266 4480
3 4112 3999 4114
3 3726 3722 3799
3 4479 3511 3514
3 4350 2639 3565
3 3565 2639 3567
3 4453 4475 4481
3 3565 3564 4350
3 4481 4475 4404
3 4112 2355 4000
3 3772 4431 4088
3 2709 2525 2524
3 4088 4431 4437
3 2524 2633 2709
3 2501 2500 3455
3 2501 3716 2503
3 2599 2495 2723
3 2598 2495 2599
3 4168 4343 2455
3 4273 4157 2878
3 4158 4157 4273
3 4196 3792 3791
3 2455 4343 760
3 2767 3949 2765
3 4255 2069 4373
3 2418 2276 4373
3 4373 2069 2418
3 2606 2605 4149
3 4472 3621 3623
3 4149 2680 2606
3 424 423 3149
3 3490 2766 2765
3 3745 4093 3746
3 426 3967 4414
3 4408 4482 4201
3 4111 4482 4408
3 3721 3718 4462
3 4408 4032 4111
3 4310 4183 4232
3 4310 1950 496
3 4483 3651 3653
3 3482 4039 3727
3 4043 3722 3727
3 4232 1950 4310
3 2551 429 4185
3 4185 429 4183
3 3860 3964 4484
3 4185 4188 2551
3 4484 3964 4485
3 2619 2620 4142
3 4460 4451 4461
3 2619 2317 2382
3 4461 4451 4284
3 2616 2425 2427
3 4435 3849 3827
3 3827 2913 4435
3 3827 3849 3950
3 3691 3693 4472
3 3691 3623 3694
3 2427 2612 2616
3 4472 3623 3691
3 3634 3630 4486
3 3634 4487 3637
3 4047 4054 4042
3 4279 3689 816
3 4061 4060 4453
3 4061 4481 4062
3 4078 4488 4459
3 4453 4481 4061
3 4459 4488 4417
3 4489 3726 4057
3 3600 3878 3656
3 3880 3654 3656
3 3482 3726 4489
3 4081 4331 4074
3 4199 2406 2275
3 4288 4331 4081
3 4483 3992 3846
3 3645 2915 2916
3 4486 4487 3634
3 3846 3845 4483
3 4490 4099 2532
3 2916 3840 3645
3 3355 2357 3349
3 3624 3625 4244
3 3998 4099 4490
3 4255 2480 4370
3 3894 4491 3893
3 4492 3891 3893
3 902 4066 4067
3 3924 672 4067
3 2386 346 4370
3 4067 672 902
3 4370 2480 2386
3 4417 4488 4329
3 4209 3624 4244
3 4329 4488 4032
3 3919 3920 4441
3 3919 3812 3593
3 4257 2287 2289
3 4441 3812 3919
3 3626 3920 4244
3 2312 4252 2289
3 4371 2227 2229
3 4244 3625 3626
3 4329 3309 4417
3 4118 2227 4371
3 3798 3878 3799
3 3798 3796 3880
3 2948 4353 3149
3 2948 3168 4298
3 4298 4353 2948
3 4442 3741 4493
3 2739 4494 4245
3 4245 4494 4298
3 2511 2461 2460
3 2460 2445 2511
3 4009 4089 4462
3 2560 4364 2547
3 2547 4364 2515
3 4462 4008 4009
3 3619 1973 4420
3 2448 2450 4420
3 3841 4171 3843
3 3841 3840 2916
3 3934 4036 4390
3 4420 1973 2448
3 2688 2680 4149
3 4390 3932 3934
3 2688 4148 2694
3 2437 3422 4330
3 4479 3361 3360
3 4406 4002 3547
3 3682 3821 3685
3 3682 3684 2286
3 3360 3511 4479
3 4187 3475 4426
3 3921 4063 4426
3 4495 3757 3585
3 4426 3475 3921
3 3349 2357 3506
3 1187 4496 3276
3 4322 3402 3407
3 4485 426 428
3 1816 1818 4477
3 3407 3693 4322
3 428 3968 4485
3 2406 4199 2401
3 2401 4199 4398
3 3452 3994 3946
3 2286 3945 3946
3 4346 3422 2437
3 3883 2500 2502
3 2503 2090 2502
3 1187 3172 4496
3 3453 4152 3455
3 2269 3370 2268
3 2313 2315 4434
3 4413 3847 3583
3 3583 4411 4413
3 4418 3847 4413
3 4434 2700 2313
3 3702 4424 4354
3 2742 2713 2715
3 4100 3834 4493
3 2716 3392 2715
3 4233 4003 4208
3 4493 3741 4100
3 3820 3684 3683
3 4233 2449 2448
3 4320 3852 3843
3 2448 4003 4233
3 4324 3852 4320
3 4493 3834 4442
3 2538 4341 2537
3 4335 4031 4076
3 2431 2534 2537
3 3681 4445 4446
3 3453 3449 3928
3 3497 4445 3681
3 4446 3679 3681
3 2268 3370 3780
3 3690 3673 4497
3 3863 3862 4400
3 4497 3673 4418
3 3863 4498 3866
3 3091 4377 2726
3 3618 3742 3617
3 3749 3614 3617
3 4400 4498 3863
3 3376 3372 3544
3 2723 2492 2493
3 3544 3648 3376
3 2730 3441 4447
3 2620 3380 4142
3 2590 4499 2943
3 3866 4498 2707
3 2707 2706 3866
3 2707 4498 2709
3 2533 3418 4468
3 4468 2534 2533
3 4257 2347 2287
3 2208 2402 4395
3 4395 4167 2208
3 4181 3891 3896
3 2595 4499 2590
3 3897 3836 3896
3 3896 3836 4181
3 4500 4013 3550
3 4209 3592 4109
3 4064 4005 4453
3 4453 4060 4064
3 4052 4005 4064
3 3144 3826 3589
3 4010 3587 3589
3 3589 3826 4010
3 4076 4031 3990
3 4076 1863 4335
3 3763 3826 3144
3 4356 4337 2922
3 4109 3624 4209
3 3117 4337 4356
3 3188 4028 4027
3 2631 2621 737
3 4027 2638 3188
3 2631 728 2632
3 737 728 2631
3 2346 2347 2325
3 2346 2497 2348
3 2342 2344 2550
3 2342 2548 2345
3 4121 2671 2678
3 2679 2506 2678
3 4501 3473 4187
3 4470 4471 3933
3 3933 3932 4470
3 3933 4471 3910
3 4501 2369 2368
3 4498 3570 2709
3 2368 3473 4501
3 4400 3570 4498
3 4187 2369 4501
3 3860 4484 3839
3 3839 3840 3860
3 3839 4484 3646
3 4423 2319 3672
3 3672 2556 4423
3 4378 2319 4423
3 3537 3587 4010
3 3669 4102 3940
3 3967 3938 3940
3 2736 4025 4196
3 4220 3346 4219
3 4131 4130 4219
3 4219 3346 4131
3 2443 2442 4427
3 4427 2514 2443
3 3819 3874 3820
3 3819 3814 3829
3 2771 2654 4090
3 4090 4055 2771
3 2609 2605 2763
3 2609 3446 2610
3 2763 3446 2609
3 3897 3837 3836
3 4145 3984 4146
3 3521 4059 3618
3 4433 3152 3153
3 4502 4026 4492
3 3931 3984 4145
3 2408 4250 4190
3 4190 2102 2408
3 3517 3648 3544
3 2120 4503 4410
3 4502 3893 4491
3 4410 4503 3870
3 3190 4028 3188
3 4410 4075 2120
3 2315 3089 4434
3 2595 2564 2772
3 2722 3463 2772
3 3606 3718 3609
3 3606 3608 3720
3 2477 2701 3153
3 3153 2701 4433
3 4491 4026 4502
3 3743 3742 3618
3 3895 4504 3897
3 3895 3891 4492
3 3743 4057 3747
3 4062 4481 4505
3 2095 2280 4313
3 4505 4481 4404
3 4375 4500 3550
3 4313 4227 2095
3 3844 3651 4483
3 4407 4375 4002
3 3725 3796 3724
3 3799 3722 3724
3 3676 3651 3844
3 4483 3845 3844
3 3780 3371 691
3 4384 4392 3902
3 3926 2328 3928
3 3926 3927 4271
3 691 3371 693
3 3764 3765 4495
3 4495 3951 3764
3 3678 4392 4384
3 2366 2365 3553
3 3553 2736 2366
3 3957 2486 3954
3 4271 3955 3954
3 737 2621 2622
3 2622 3382 737
3 2320 4138 2494
3 2350 4138 2320
3 3473 3472 4187
3 3473 2368 2570
3 2607 2762 2763
3 3500 3502 4402
3 2763 2605 2607
3 2344 4044 2550
3 4091 4044 2344
3 4447 2753 2731
3 2731 2730 4447
3 3957 3400 3399
3 3401 2170 3399
3 3557 2365 2367
3 2367 3918 3557
3 693 2514 2513
3 3762 3849 4435
3 3762 3761 3851
3 4244 3920 3590
3 2513 692 693
3 3866 2706 2711
3 4492 3893 4502
3 2712 3876 2711
3 4506 4475 3756
3 3902 3676 4384
3 4404 4475 4506
3 691 690 3780
3 3756 4454 3485
3 4430 3978 3781
3 3485 4454 4455
3 2400 4347 2406
3 4507 4424 3702
3 2400 2402 2318
3 3817 4424 4507
3 2318 4347 2400
3 3605 3640 3479
3 2737 2741 2597
3 3781 3783 4430
3 4418 3673 3675
3 4342 4508 386
3 4486 3630 3629
3 4374 4508 4342
3 4455 3918 3483
3 3631 4509 3629
3 2415 2386 2480
3 3483 3485 4455
3 3802 4416 4446
3 3675 3845 4418
3 4093 4095 4328
3 4446 3803 3802
3 2464 2461 2511
3 2464 2509 2465
3 2914 2913 4062
3 3549 3357 3447
3 3405 3357 3549
3 3447 3548 3549
3 4261 3260 2164
3 3771 4510 3190
3 3908 4005 4052
3 3629 4509 4486
3 3772 4510 3771
3 4052 3909 3908
3 3190 3769 3771
3 3974 3977 4328
3 3805 3803 4444
3 3805 3307 3806
3 4394 3388 3387
3 1966 4511 3532
3 3532 1964 1966
3 1967 4511 1966
3 4012 4013 4500
3 4012 4511 1967
3 2459 2461 2616
3 4500 4511 4012
3 4328 4095 3974
3 2459 2548 2462
3 3884 4114 3885
3 3884 3881 2361
3 2616 2548 2459
3 2639 2638 3567
3 2639 4350 2641
3 4232 429 4368
3 4020 4019 4368
3 4368 4019 4232
3 3385 4308 3737
3 4309 3732 3737
3 2535 2430 2433
3 3464 4169 4141
3 2272 4349 2433
3 2432 2430 484
3 484 2395 2432
3 4468 2571 2536
3 4082 3856 4084
3 4082 4080 3943
3 4069 4467 3857
3 3605 3479 3481
3 2922 2921 4356
3 2536 2534 4468
3 3857 4467 3858
3 3275 2571 2573
3 2573 2645 3275
3 4480 3786 3788
3 2739 2594 4494
3 3694 3623 4450
3 2593 4298 4494
3 4450 3623 3616
3 4494 2594 2593
3 483 485 4275
3 4275 485 2431
3 3171 1753 4496
3 3747 4057 3879
3 3799 3878 3879
3 4496 3172 3171
3 4318 2570 2368
3 2491 2570 4318
3 3950 3850 4512
3 3447 2726 3445
3 3429 4443 3458
3 4377 3446 3445
3 3708 3705 3906
3 3906 3713 3708
3 3445 2726 4377
3 4316 3266 2360
3 4260 3962 4513
3 4316 323 4230
3 4513 3962 3542
3 3480 4039 3482
3 3480 3479 3642
3 4230 3266 4316
3 4085 4514 4348
3 3609 3687 3607
3 3688 3608 3607
3 4392 3678 4348
3 4348 4514 4392
3 4079 4504 4430
3 4286 4081 4080
3 3897 4504 4079
3 4430 4077 4079
3 4458 2554 2553
3 2553 3430 4458
3 2709 2633 2636
3 4379 3577 751
3 2637 2706 2636
3 4449 3869 3868
3 2567 2569 4476
3 4476 3472 2567
3 4422 2474 4378
3 4422 2556 4192
3 4192 2474 4422
3 2429 2430 2535
3 4442 3834 3738
3 2429 2534 2431
3 3279 2695 3219
3 3738 3739 4442
3 4202 2695 3279
3 4315 3643 4314
3 4347 2507 2406
3 4314 3643 3644
3 2510 2507 4347
3 4260 4513 4515
3 4477 4482 4516
3 4515 4513 3720
3 2641 4438 2640
3 2640 4438 3190
3 2767 4025 3971
3 4014 3972 3971
3 4104 423 425
3 496 2211 425
3 3597 3742 3596
3 3747 3594 3596
3 3390 4359 3387
3 3446 4377 2610
3 425 2211 4104
3 4187 3472 3475
3 2694 3921 3475
3 3557 4001 2365
3 4338 3364 4429
3 4429 3364 4428
3 4429 2447 4338
3 2695 2697 3219
3 2695 4202 2696
3 3905 3904 669
3 2375 2450 3381
3 4049 4051 4512
3 4247 3861 2412
3 3761 1816 4516
3 2412 2414 4247
3 2412 3861 2420
3 3408 2760 3986
3 4146 3985 3986
3 2292 4225 4224
3 4512 3850 4049
3 2360 3266 2768
3 4512 4051 3950
3 4442 3992 3740
3 2768 2364 2360
3 4357 2494 4138
3 3740 3741 4442
3 4357 2263 2552
3 3698 4432 4324
3 3604 3640 3605
3 3604 3601 3644
3 3700 4432 3698
3 4324 3699 3698
3 3628 3808 3631
3 3628 3630 3809
3 3969 4201 4477
3 4224 2290 2292
3 3605 3481 4517
3 4477 3968 3969
3 3925 672 3922
3 2437 4330 2438
3 2600 4041 4125
3 3922 672 3924
3 4059 3521 4517
3 3421 3769 3424
3 4230 4231 4336
3 3950 3849 3850
3 3703 3862 3707
3 3703 3705 3870
3 4336 4341 4230
3 2438 4330 2697
3 3647 4466 4452
3 2507 2509 2441
3 3649 4466 3647
3 4452 3648 3647
3 2495 2492 2723
3 4458 4457 3503
3 3503 4457 3506
3 3503 3502 4458
3 3542 4008 4011
3 3720 4513 4011
3 3510 3956 2527
3 4011 4513 3542
3 3497 3871 3496
3 4518 3491 3496
3 3496 3871 4518
3 2527 2529 3510
3 2527 3956 2530
3 2522 2523 4312
3 2522 2384 2473
3 3702 4354 3697
3 3779 3786 4480
3 3697 4354 3700
3 4301 4364 2560
3 4480 2266 3779
3 2560 4280 4301
3 4463 2437 760
3 4503 3867 3870
3 4346 2437 4463
3 3444 3548 3447
3 3444 3446 2763
3 4503 2120 3120
3 3120 3867 4503
3 4306 3951 3948
3 4312 2539 2541
3 2541 3430 4312
3 4517 3481 4059
3 3562 3564 4327
3 3562 4449 2517
3 2414 2525 4247
3 4327 4449 3562
3 2616 2461 2425
3 4178 3731 2468
3 3838 3731 4178
3 3540 3687 3541
3 2468 4179 4178
3 3280 3471 2562
3 2562 3281 3280
3 3288 3471 3280
3 3146 3145 3833
3 3146 3876 2712
3 3660 4487 4486
3 3662 4487 3660
3 1464 1466 4213
3 4486 3661 3660
3 4346 4463 4345
3 4213 3464 1464
3 3440 4448 4447
3 4326 4491 3894
3 3894 2434 4326
3 4327 4491 4326
3 4309 3871 3733
3 2637 4448 3440
3 4447 3441 3440
3 3733 3732 4309
3 4402 4015 4401
3 3342 4497 4412
3 4412 4411 3342
3 4412 4497 4418
3 4517 3521 3605
3 3278 3277 4401
3 3983 4504 4029
3 4492 4027 4029
3 4087 4086 4339
3 4087 3982 3772
3 4401 4015 3278
3 4339 3982 4087
3 2750 2751 4428
3 2750 4319 2485
3 3872 3898 3875
3 3872 3874 3809
3 4428 4319 2750
3 3415 3648 4452
3 4271 4519 4269
3 2326 2328 4269
3 4269 4519 2326
3 3579 4283 4345
3 4345 4463 3579
3 3421 3420 3773
3 3903 4467 669
3 2632 728 4393
3 3833 4467 3903
3 669 3904 3903
3 3711 4018 3714
3 3711 3713 3906
3 4289 4520 2497
3 4343 4520 4289
3 3715 3713 4315
3 3963 426 4485
3 4485 3964 3963
3 3967 426 3963
3 3715 2280 3710
3 2474 2475 4378
3 2561 2562 3471
3 3288 3469 3471
3 3452 3927 3451
3 3928 3449 3451
3 2474 4192 2454
3 4358 2531 2456
3 2538 4230 4341
3 4393 4359 2632
3 2741 2598 2597
3 3794 3796 3725
3 4393 728 4394
3 3424 3769 4438
3 4376 2404 2756
3 4438 3769 3190
3 2756 2635 4376
3 2462 2548 2549
3 3426 4283 3428
3 3426 3420 4346
3 2511 2445 2440
3 3390 3923 3348
3 2440 2445 2282
3 3348 3923 3355
3 4260 2600 2602
3 2603 4391 2602
3 3652 3898 3637
3 3652 3651 3902
3 3436 3996 3435
3 4000 3433 3435
3 2602 4391 4260
3 2579 2578 2746
3 2746 2510 2579
3 3595 3594 3760
3 3595 4474 3597
3 3551 3550 4014
3 3760 4474 3595
3 2444 2679 2442
3 3265 3621 2576
3 2272 2271 4521
3 4095 4093 3745
3 3665 3778 4115
3 2589 4308 2743
3 4115 3778 4480
3 3524 3601 3523
3 3605 3521 3523
3 4324 4432 3853
3 3853 4432 3856
3 3853 3852 4324
3 3829 3814 3816
3 4149 2605 2453
3 4457 3349 3506
3 2542 3349 4457
3 3579 4461 4282
3 4282 4283 3579
3 4282 4461 4284
3 3752 4506 3756
3 3754 4506 3752
3 3690 3270 817
3 3400 4085 4279
3 4521 2271 4469
3 817 816 3690
3 3424 4330 3422
3 4346 3420 3422
3 3520 3935 3519
3 3649 3517 3519
3 3519 3935 3649
3 4325 4449 4327
3 4325 2435 3869
3 3869 4449 4325
3 3428 4283 3890
3 4284 3888 3890
3 4372 4195 3793
3 4362 4195 4372
3 2510 2746 3411
3 4363 3410 3411
3 2482 2484 4174
3 2716 4268 3392
3 4174 2498 2482
3 2710 2706 2637
3 3450 3994 3452
3 3450 3449 3885
3 2710 3441 2712
3 2719 3469 4367
3 3341 3270 3690
3 3745 4096 4095
3 3751 4195 3754
3 3751 3753 4196
3 3541 3687 3529
3 4441 3775 3774
3 3774 3811 4441
3 3529 3525 3541
3 3282 4224 3288
3 3282 2294 2290
3 3655 3757 3600
3 3655 3654 3758
3 2290 4224 3282
3 3672 2699 3670
3 3588 3671 3670
3 4381 3418 3419
3 3670 2699 3588
3 4146 3512 4147
3 3341 4497 3342
3 727 4033 4394
3 4147 3512 4045
3 3600 3757 3599
3 3547 3556 3546
3 3520 3543 3546
3 3524 3614 3574
3 3616 3572 3574
3 2592 2720 2593
3 2637 2635 4448
3 4448 2635 2756
3 3712 3643 4315
3 4315 3713 3712
3 3714 3643 3712
3 3542 3962 3539
3 3588 3537 3539
3 4194 2621 2470
3 2610 4377 2475
3 3810 3823 2269
3 3810 3808 3829
3 3690 4497 3341
3 4234 4478 4236
3 2458 4355 2456
3 3760 3594 3599
3 4026 4491 3567
3 4026 4027 4492
3 3582 3847 3848
3 4277 3398 4279
3 3583 3847 3582
3 3848 3580 3582
3 4277 4007 4006
3 4006 3398 4277
3 3970 4484 4485
3 4394 4033 3388
3 4236 4464 3495
3 3646 4484 3970
3 3495 4464 3497
3 3495 3491 4236
3 4485 3968 3970
3 4349 4521 655
3 2272 4521 4349
3 3854 4292 3860
3 3428 4035 3427
3 3773 3420 3427
3 3427 4035 3773
3 3856 4292 3854
3 386 4478 4234
3 3772 3982 4510
3 2569 2564 4476
3 4510 3982 3983
3 4407 4500 4375
3 3766 3592 3591
3 3532 4406 3530
3 3375 3525 3530
3 3593 3765 3591
3 3843 4171 2484
3 3883 3278 4015
3 4402 4016 4015
3 4259 4515 3613
3 4260 4515 4259
3 3613 4041 4259
3 2381 2445 4218
3 4218 2380 2381
3 4271 3954 4519
3 3929 3945 3914
3 3929 3927 3452
3 2486 2326 4519
3 4519 3954 2486
3 2552 2551 4382
3 4382 2720 2552
3 3581 3580 4307
3 4382 2551 4188
3 2490 378 2561
3 4366 692 2717
3 3586 3951 4495
3 2515 4364 2717
3 3406 2759 3408
3 4495 3585 3586
3 3526 3535 3541
3 3406 3402 4387
3 3528 3535 3526
3 3541 3525 3526
3 3434 4066 3436
3 2356 4016 3506
3 3506 2357 2356
3 2361 4016 2356
3 4460 3577 3457
3 4387 2759 3406
3 3641 3640 3714
3 3457 3458 4460
3 3714 4018 3641
3 3434 3433 3924
3 3384 4308 3385
3 3384 3382 4363
3 3981 3978 4430
3 3631 3778 4509
3 3981 4504 3983
3 4509 3778 3665
3 3383 3410 4363
3 2498 2679 2444
3 4400 3867 4399
3 3120 3119 4399
3 3864 3876 3707
3 4399 3867 3120
3 2500 3881 3455
3 3707 3862 3864
3 3575 3621 3265
3 3575 3572 3616
3 2635 2633 2634
3 2526 2358 2634
3 4120 4122 4362
3 4350 2519 3218
3 3218 2641 4350
3 3498 3500 4402
3 3498 3277 3501
3 4479 3462 3361
3 4522 4508 4444
3 3361 3462 4220
3 3820 3874 3873
3 3875 3912 3873
3 4522 4478 386
3 4437 4035 4523
3 386 4508 4522
3 3642 658 4038
3 4444 4478 4522
3 4038 658 4047
3 3554 4001 3557
3 3554 3556 3547
3 4430 4504 3981
3 3370 3371 3780
3 4363 3382 3383
3 2318 2317 2580
3 3534 4524 3688
3 3984 3985 4146
3 3536 4524 3534
3 3688 3540 3534
3 3378 3415 3414
3 3644 3601 3602
3 3269 3270 4469
3 3357 3405 3627
3 3269 2391 983
3 3345 3344 4367
3 4367 3469 3345
3 2512 2514 4427
3 3363 4045 3512
3 4146 3511 3512
3 3815 4389 3817
3 4036 3907 4523
3 3685 4389 3815
3 4427 2520 2512
3 3977 4013 3937
3 2255 4525 4524
3 4524 4525 3688
3 3937 3936 3977
3 3993 3992 4483
3 3993 3653 3662
3 4524 3536 2255
3 4483 3653 3993
3 4455 4005 4004
3 3910 4471 4004
3 3892 3891 4181
3 4004 4471 4455
3 3817 4507 3824
3 410 2294 3281
3 3824 4507 3367
3 3756 3485 3484
3 4142 2578 2580
3 4344 753 4343
3 3627 3405 3777
3 4322 3775 3777
3 4379 753 4344
3 4525 3611 3688
3 696 4411 3583
3 4525 2255 4158
3 4158 3611 4525
3 3344 3463 4367
3 4427 2671 2520
3 4220 3344 3346
3 1965 1964 3609
3 3558 3556 4470
3 4470 3932 3558
3 2916 2914 3477
3 3609 3718 1965
3 3797 3794 4365
3 2632 4359 2523
3 4365 3794 3789
3 3557 3918 3555
3 4470 3556 3555
3 3555 3918 4470
3 4440 3371 4338
3 693 3371 4440
3 4338 2447 4440
3 3979 3978 4339
3 3880 3796 3795
3 4101 3741 3659
3 4339 4049 3979
3 2699 2700 3588
3 3659 3661 4101
3 2699 3672 2319
3 2506 2679 4276
3 4276 2504 2506
3 4369 2319 4378
3 3437 2357 3355
3 3437 3433 4000
3 4369 4377 3091
3 4367 3463 2721
3 3478 4171 3477
3 4177 3836 3838
3 2721 3463 2722
3 4181 3836 4177
3 4211 3464 4213
3 4211 4170 4169
3 4169 3464 4211
3 4366 3786 690
3 4397 4114 3999
3 2943 4499 4439
3 4523 4035 4036
3 3999 3996 4397
3 4439 4499 4479
3 3478 4505 4473
3 4473 2504 3478
3 4473 4505 4404
3 3429 3458 3391
3 3583 3581 697
3 3886 3888 4284
3 3391 3392 3429
3 4452 4443 3413
3 697 3581 699
3 3413 4443 3416
3 3413 3415 4452
3 3707 3904 3704
3 3906 3705 3704
3 697 696 3583
3 4434 3089 3123
3 3677 3689 3678
3 3677 3673 3690
3 3123 3587 4434
3 2615 2612 4194
3 3366 4507 3702
3 2615 4193 2345
3 3367 4507 3366
3 3702 3364 3366
3 2709 3570 2525
3 2525 3570 4247
3 3568 3570 4400
3 3568 3119 3571
3 4374 4526 3730
3 4518 3871 3246
3 3730 4526 2467
3 3246 3871 4309
3 3939 4073 3669
3 3939 3938 4074
3 3730 3729 4374
3 2529 2554 3510
3 4353 4383 4188
3 4298 4383 4353
3 4122 2505 4362
3 4433 3486 3152
3 4516 4482 3761
3 4028 4510 3983
3 2506 2505 4122
3 3190 4510 4028
3 3995 4114 4397
3 3887 3935 4390
3 3885 4114 3995
3 4397 3994 3995
3 3573 3601 3524
3 3573 3572 3603
3 3649 3935 3887
3 4390 3888 3887
3 2585 2578 4142
3 4215 4506 3754
3 4142 3380 2585
3 4404 4506 4215
3 3723 4108 3725
3 3723 3722 4043
3 3870 3705 3709
3 3710 4075 3709
3 4080 4083 4286
3 2456 4355 4358
3 4514 3953 4361
3 3442 3832 3145
3 3522 3614 3524
3 3522 3521 3618
3 4288 4081 4286
3 2539 4359 3390
3 3359 3361 4220
3 3359 4130 3363
3 3598 3878 3600
3 3598 3594 3747
3 4518 3380 3379
3 3379 3491 4518
3 4387 2757 2759
3 2760 3408 2759
3 3838 3729 3731
3 2467 2468 3731
3 3886 4466 3649
3 4284 4466 3886
3 3667 4102 3669
3 3631 3808 2267
3 3478 2504 4172
3 4172 4171 3478
3 3217 4330 3424
3 3759 3757 4495
3 4495 3765 3759
3 4374 4342 4526
3 2469 2467 4526
3 4526 4342 2469
3 4486 4509 3663
3 2766 3486 4433
3 4472 3985 3620
3 3663 4509 3665
3 3663 3661 4486
3 3620 3621 4472
3 3566 4491 4327
3 3476 2914 4062
3 3567 4491 3566
3 4327 3564 3566
3 3476 4505 3478
3 3442 3145 3147
3 4062 4505 3476
3 2712 3441 3147
3 4107 3794 3725
3 3789 3794 4107
3 3725 4108 4107
3 2764 2766 4433
3 3538 4008 3542
3 3538 3537 4010
3 4168 4165 4520
3 4520 4165 2497
3 3809 3874 3807
3 3829 3808 3807
3 4520 4343 4168
3 3122 3089 2728
3 2728 3625 3122
3 4168 2455 2698
3 2698 2455 2438
3 2548 2616 2345
3 4379 2741 2740
3 4499 3462 4479
3 2740 3577 4379
3 2595 3462 4499
3 4469 2558 2559
3 4428 3699 4319
3 655 4521 2559
3 4319 3699 4324
3 4387 3548 2761
3 2559 4521 4469
3 2444 2447 2751
3 2761 2757 4387
3 4001 4002 4375
3 3767 4474 3760
3 3545 4406 3547
3 3545 3543 3375
3 3767 3765 3593
3 3593 4474 3767
3 3637 3898 3635
3 3809 3630 3635
3 3680 3871 3497
3 3680 3679 3734
3 3442 2730 2732
3 2732 3834 3442
3 3091 2726 2725
3 2728 3089 2725
3 3657 4280 495
3 3657 3654 3880
3 3613 4515 3612
3 3720 3608 3612
3 3381 2450 3492
3 4236 3491 3492
3 3612 4515 3720
3 4458 3502 2554
3 3487 3486 3758
3 3758 3654 3487
3 3790 3792 2767
3 3790 2764 3793
3 2348 2497 4165
3 2767 2764 3790
3 2575 2571 3275
3 3342 4411 420
3 2575 3266 2538
3 4469 3270 2558
3 3375 3543 3374
3 3544 3372 3374
3 4476 2680 2689
3 2689 3472 4476
3 4435 2915 1817
3 3646 1818 1817
3 3667 3666 3734
3 4307 3580 2752
3 4523 3907 4437
3 4074 4331 4072
3 2752 2753 4307
3 4072 4331 902
3 3749 4450 3615
3 3748 3811 3749
3 3843 3852 3842
3 3860 3840 3842
3 2943 2757 2762
3 3398 3400 4279
3 3356 3625 2728
3 3356 3357 3627
3 3398 4006 3401
3 3662 3653 4487
3 3825 3370 2269
3 4487 3653 3637
3 3248 3380 4518
3 3367 3370 3825
3 2269 3823 3825
3 4518 3246 3248
3 3664 3990 4101
3 4322 3693 3692
3 3692 3775 4322
3 4101 3661 3664
3 3513 3511 4146
3 3513 3986 2760
3 3518 3517 3544
3 4146 3986 3513
3 3518 3543 3520
3 3748 3742 3597
3 3386 3923 3390
3 3386 3388 3925
3 3615 3614 3749
3 3615 4450 3616
3 4288 2458 2457
3 4085 3953 4514
3 4361 4392 4514
3 2457 4097 4288
3 657 4467 4069
3 4069 658 657
3 669 4467 657
3 4358 4388 2531
3 924 2436 4053
3 4108 4053 2436
3 2436 4106 4108
3 4335 4054 4068
3 4068 4054 4047
3 4106 2436 1871
3 1871 4116 4106
3 3858 3832 4030
3 4527 4088 4437
3 4527 3909 4086
3 1863 4054 4335
3 4086 4088 4527
3 4437 3909 4527
3 4116 1871 923
3 923 3991 4116
3 4100 4070 4030
3 4358 4354 4528
3 4490 2531 4388
3 4388 3998 4490
3 2532 2531 4490
3 4424 4389 4528
3 4070 3990 4031
3 4528 4354 4424
3 4528 4389 4358
3 4489 3481 3482
3 3746 4093 4089
3 4089 3826 3746
3 4030 3832 4100
3 4489 4057 4059
3 4059 3481 4489
3 671 4072 902
3 4073 4072 671
3 4098 3436 4097
3 4053 4054 924
3 3997 3436 4098
3 4492 4029 4529
3 4504 3895 4529
3 4111 4032 4488
3 4488 4078 4111
3 4529 4029 4504
3 4516 1816 4477
3 3940 4102 4414
3 4414 3967 3940
3 4375 3552 4001
3 4529 3895 4492
3 4459 3837 4077
3 4077 4078 4459
3 4291 3941 3964
3 3964 4292 4291
3 4213 3671 4530
3 3859 4031 4335
3 3943 3941 4291
3 4531 4115 4480
3 3997 4098 4099
3 4099 3998 3997
3 4531 3788 4116
3 670 4265 4248
3 3668 4073 4248
3 4116 4115 4531
3 4480 3788 4531
3 4532 4451 4460
3 4532 3458 4443
3 4443 4451 4532
3 4460 3458 4532
3 4444 4508 4533
3 3307 3805 4533
3 4407 3532 4511
3 4533 3805 4444
3 4331 4288 4332
3 4097 4066 4332
3 4332 4288 4097
3 2361 2355 4113
3 3962 4391 4530
3 4530 3671 3962
3 4530 4391 4213
3 4114 3884 4113
3 427 3802 3804
3 427 426 4416
3 4416 3802 427
3 4415 3679 4446
3 4113 3884 2361
3 4109 4096 3744
3 3990 3991 925
3 4123 3969 3804
3 4201 3969 4123
3 3804 3801 4123
3 4511 4500 4407
3 4111 3761 4482
3 4477 4201 4482
3 3744 3763 4109
3 4462 4089 4534
3 3936 3721 4534
3 4534 4089 3936
3 4534 3721 4462
3 4496 1753 3276
3 3308 4533 4508
3 4508 4374 3308
3 3307 4533 3308
3 4446 4416 4415
3 4102 3679 4415
3 3545 3530 4406
3 3375 3530 3545
POINT_DATA 4535
SCALARS UX float 1
LOOKUP_TABLE default
0.000000
-0.000000
0.000000
-0.000000
0.000000
0.000000
-0.000000
0.000000
0.000000
-0.000000
-0.000000
-0.000000
0.000000
0.000000
-0.000000
-0.000000
-0.000000
0.000000
0.000000
-0.000000
-0.000000
0.000000
0.000000
-0.000000
0.000000
-0.000000
-0.000000
0.000000
0.000000
0.000000
-0.000000
0.000000
0.000000
-0.000000
-0.000000
0.000000
-0.000000
-0.000000
-0.000000
-0.000000
-0.000000
0.000000
-0.000000
-0.000000
0.000000
0.000000
-0.000000
0.000000
-0.000000
0.000000
-0.000000
-0.000000
0.000000
-0.000000
-0.000000
-0.000000
-0.000000
0.000000
0.000000
0.000000
0.000000
0.000000
-0.000000
0.000000
0.000000
0.000000
0.000000
0.000000
-0.000000
0.000000
-0.000000
-0.000000
0.000000
0.000000
0.000000
0.000000
-0.000000
0.000000
0.000000
0.000000
0.000000
-0.000000
0.000000
0.000000
-0.000000
-0.000000
0.000000
-0.000000
-0.000000
-0.000000
0.000000
0.000000
0.000000
-0.000000
0.000000
0.000000
0.000000
0.000000
-0.000000
-0.000000
0.000000
0.000000
0.000000
-0.000000
0.000000
0.000000
-0.000000
0.000000
0.000000
-0.000000
-0.000000
0.000000
-0.000000
-0.000000
0.000000
-0.000000
0.000000
0.000000
-0.000000
-0.000000
0.000000
0.000000
0.000000
0.000000
0.000000
0.000000
0.000000
0.000000
0.000000
-0.000000
-0.000000
-0.000000
-0.000000
-0.000000
-0.000000
0.000000
0.000000
0.000000
-0.000000
0.000000
-0.000000
0.000000
-0.000000
-0.000000
0.000000
0.000000
0.000000
0.000000
0.000000
-0.000000
0.000000
0.000000
-0.000000
-0.000000
-0.000000
0.000000
0.000000
-0.000000
-0.000000
-0.000000
0.000000
-0.000000
-0.000000
-0.000000
0.000000
0.000000
0.000000
0.000000
0.000000
-0.000000
-0.000000
0.000000
0.000000
0.000000
-0.000000
-0.000000
0.000000
-0.000000
-0.000000
-0.000000
-0.000000
0.000000
0.000000
-0.000000
0.000000
0.000000
-0.000000
-0.000000
-0.000000
0.000000
0.000000
0.000000
0.000000
-0.000000
0.000000
-0.000000
0.000000
-0.000000
0.000000
-0.000000
0.000000
0.000000
-0.000000
-0.000000
0.000000
0.000000
-0.000000
0.000000
0.000000
0.000000
-0.000000
-0.000000
0.000000
-0.000000
0.000000
0.000000
0.000000
-0.000000
-0.000000
0.000000
0.000000
0.000000
-0.000000
0.000000
0.000000
-0.000000
-0.000000
-0.000000
-0.000000
-0.000000
0.000000
0.000000
-0.000000
-0.000000
-0.000000
0.000000
0.000000
-0.000000
-0.000000
-0.000000
0.000000
-0.000000
-0.000000
0.000000
-0.000000
-0.000000
-0.000000
-0.000000
-0.000000
-0.000000
0.000000
0.000000
0.000000
-0.000000
-0.000000
0.000000
-0.000000
-0.000000
0.000000
-0.000000
-0.000000
0.000000
0.000000
-0.000000
-0.000000
0.000000
0.000000
0.000000
-0.000000
0.000000
0.000000
-0.000000
0.000000
0.000000
-0.000000
-0.000000
-0.000000
-0.000000
0.000000
-0.000000
-0.000000
0.000000
0.000000
0.000000
0.000000
-0.000000
-0.000000
0.000000
0.000000
0.000000
0.000000
0.000000
0.000000
0.000000
0.000000
-0.000000
-0.000000
-0.000000
-0.000000
0.000000
0.000000
-0.000000
0.000000
-0.000000
-0.000000
-0.000000
0.000000
0.000000
-0.000000
0.000000
-0.000000
0.000000
0.000000
0.000000
0.000000
0.000000
0.000000
-0.000000
0.000000
-0.000000
-0.000000
-0.000000
0.000000
0.000000
-0.000000
-0.000000
-0.000000
-0.000000
-0.000000
-0.000000
-0.000000
-0.000000
0.000000
-0.000000
-0.000000
0.000000
-0.000000
-0.000000
0.000000
0.000000
-0.000000
-0.000000
-0.000000
-0.000000
0.000000
-0.000000
0.000000
-0.000000
0.000000
-0.000000
-0.000000
-0.000000
0.000000
-0.000000
-0.000000
-0.000000
-0.000000
-0.000000
0.000000
0.000000
0.000000
-0.000000
0.000000
0.000000
-0.000000
-0.000000
0.000000
-0.000000
0.000000
-0.000000
0.000000
0.000000
-0.000000
-0.000000
-0.000000
-0.000000
0.000000
0.000000
-0.000000
-0.000000
-0.000000
-0.000000
0.000000
0.000000
-0.000000
0.000000
-0.000000
0.000000
-0.000000
-0.000000
0.000000
0.000000
-0.000000
-0.000000
0.000000
-0.000000
-0.000000
0.000000
-0.000000
-0.000000
-0.000000
0.000000
0.000000
-0.000000
0.000000
0.000000
-0.000000
0.000000
-0.000000
0.000000
0.000000
0.000000
0.000000
0.000000
0.000000
-0.000000
0.000000
-0.000000
-0.000000
-0.000000
0.000000
-0.000000
-0.000000
-0.000000
0.000000
-0.000000
0.000000
0.000000
-0.000000
-0.000000
0.000000
0.000000
-0.000000
0.000000
0.000000
0.000000
-0.000000
0.000000
-0.000000
-0.000000
0.000000
0.000000
-0.000000
-0.000000
0.000000
0.000000
-0.000000
-0.000000
0.000000
0.000000
0.000000
0.000000
0.000000
0.000000
-0.000000
0.000000
-0.000000
0.000000
-0.000000
0.000000
-0.000000
-0.000000
-0.000000
0.000000
0.000000
0.000000
0.000000
0.000000
0.000000
0.000000
0.000000
0.000000
0.000000
-0.000000
0.000000
0.000000
-0.000000
0.000000
-0.000000
0.000000
0.000000
0.000000
0.000000
-0.000000
0.000000
0.000000
-0.000000
-0.000000
-0.000000
-0.000000
-0.000000
-0.000000
0.000000
0.000000
-0.000000
-0.000000
0.000000
-0.000000
-0.000000
0.000000
-0.000000
-0.000000
-0.000000
-0.000000
0.000000
-0.000000
-0.000000
-0.000000
-0.000000
-0.000000
-0.000000
0.000000
-0.000000
-0.000000
-0.000000
-0.000000
-0.000000
-0.000000
-0.000000
-0.000000
0.000000
-0.000000
-0.000000
-0.000000
-0.000000
0.000000
-0.000000
0.000000
-0.000000
-0.000000
-0.000000
-0.000000
-0.000000
-0.000000
-0.000000
0.000000
-0.000000
0.000000
0.000000
-0.000000
-0.000000
-0.000000
0.000000
0.000000
-0.000000
0.000000
0.000000
-0.000000
0.000000
0.000000
-0.000000
0.000000
0.000000
0.000000
0.000000
0.000000
-0.000000
-0.000000
0.000000
-0.000000
-0.000000
0.000000
-0.000000
-0.000000
-0.000000
0.000000
0.000000
0.000000
0.000000
0.000000
-0.000000
-0.000000
-0.000000
-0.000000
-0.000000
0.000000
-0.000000
0.000000
-0.000000
-0.000000
0.000000
-0.000000
-0.000000
0.000000
-0.000000
-0.000000
-0.000000
0.000000
-0.000000
0.000000
-0.000000
-0.000000
0.000000
-0.000000
0.000000
0.000000
-0.000000
0.000000
-0.000000
-0.000000
0.000000
-0.000000
0.000000
0.000000
-0.000000
-0.000000
-0.000000
0.000000
0.000000
0.000000
0.000000
-0.000000
0.000000
-0.000000
0.000000
-0.000000
0.000000
0.000000
0.000000
-0.000000
0.000000
-0.000000
-0.000000
0.000000
-0.000000
-0.000000
-0.000000
-0.000000
-0.000000
0.000000
0.000000
-0.000000
0.000000
-0.000000
-0.000000
-0.000000
-0.000000
0.000000
-0.000000
-0.000000
0.000000
-0.000000
0.000000
-0.000000
0.000000
0.000000
0.000000
0.000000
-0.000000
-0.000000
-0.000000
-0.000000
-0.000000
0.000000
-0.000000
-0.000000
-0.000000
-0.000000
-0.000000
-0.000000
-0.000000
0.000000
0.000000
-0.000000
0.000000
0.000000
-0.000000
0.000000
0.000000
0.000000
-0.000000
0.000000
0.000000
-0.000000
-0.000000
-0.000000
-0.000000
0.000000
0.000000
-0.000000
-0.000000
-0.000000
-0.000000
0.000000
-0.000000
-0.000000
-0.000000
-0.000000
0.000000
-0.000000
0.000000
-0.000000
0.000000
-0.000000
0.000000
0.000000
-0.000000
-0.000000
0.000000
0.000000
0.000000
0.000000
0.000000
-0.000000
-0.000000
0.000000
0.000000
-0.000000
-0.000000
0.000000
-0.000000
-0.000000
0.000000
0.000000
-0.000000
0.000000
-0.000000
-0.000000
0.000000
0.000000
-0.000000
0.000000
0.000000
-0.000000
0.000000
-0.000000
0.000000
0.000000
0.000000
0.000000
-0.000000
-0.000000
-0.000000
0.000000
-0.000000
-0.000000
-0.000000
0.000000
0.000000
0.000000
-0.000000
-0.000000
-0.000000
0.000000
0.000000
0.000000
0.000000
-0.000000
0.000000
-0.000000
-0.000000
-0.000000
0.000000
-0.000000
-0.000000
0.000000
0.000000
0.000000
0.000000
0.000000
-0.000000
0.000000
-0.000000
0.000000
0.000000
-0.000000
0.000000
0.000000
0.000000
-0.000000
0.000000
0.000000
0.000000
0.000000
-0.000000
-0.000000
0.000000
-0.000000
-0.000000
-0.000000
0.000000
-0.000000
-0.000000
-0.000000
0.000000
0.000000
-0.000000
-0.000000
-0.000000
-0.000000
0.000000
-0.000000
-0.000000
-0.000000
0.000000
-0.000000
0.000000
0.000000
-0.000000
-0.000000
-0.000000
0.000000
0.000000
-0.000000
0.000000
-0.000000
-0.000000
0.000000
0.000000
0.000000
-0.000000
0.000000
-0.000000
0.000000
0.000000
-0.000000
-0.000000
-0.000000
0.000000
0.000000
0.000000
0.000000
-0.000000
0.000000
0.000000
-0.000000
0.000000
-0.000000
-0.000000
-0.000000
-0.000000
0.000000
0.000000
0.000000
0.000000
0.000000
-0.000000
0.000000
-0.000000
-0.000000
0.000000
-0.000000
0.000000
-0.000000
-0.000000
-0.000000
0.000000
-0.000000
0.000000
0.000000
0.000000
-0.000000
-0.000000
0.000000
0.000000
-0.000000
-0.000000
0.000000
0.000000
-0.000000
-0.000000
0.000000
0.000000
-0.000000
0.000000
0.000000
-0.000000
-0.000000
-0.000000
-0.000000
-0.000000
-0.000000
0.000000
0.000000
0.000000
0.000000
0.000000
0.000000
0.000000
0.000000
0.000000
0.000000
-0.000000
-0.000000
-0.000000
-0.000000
-0.000000
0.000000
-0.000000
-0.000000
0.000000
-0.000000
-0.000000
0.000000
-0.000000
0.000000
-0.000000
-0.000000
0.000000
-0.000000
-0.000000
-0.000000
-0.000000
0.000000
0.000000
0.000000
-0.000000
0.000000
-0.000000
-0.000000
0.000000
-0.000000
0.000000
0.000000
-0.000000
0.000000
0.000000
0.000000
0.000000
0.000000
0.000000
0.000000
-0.000000
-0.000000
-0.000000
0.000000
-0.000000
0.000000
-0.000000
0.000000
0.000000
-0.000000
0.000000
-0.000000
0.000000
0.000000
0.000000
-0.000000
-0.000000
-0.000000
-0.000000
-0.000000
-0.000000
-0.000000
0.000000
0.000000
0.000000
-0.000000
0.000000
-0.000000
-0.000000
0.000000
-0.000000
-0.000000
-0.000000
0.000000
-0.000000
0.000000
-0.000000
0.000000
0.000000
-0.000000
-0.000000
-0.000000
0.000000
0.000000
0.000000
-0.000000
-0.000000
0.000000
0.000000
-0.000000
-0.000000
-0.000000
0.000000
-0.000000
0.000000
-0.000000
-0.000000
-0.000000
-0.000000
-0.000000
-0.000000
0.000000
0.000000
-0.000000
-0.000000
0.000000
-0.000000
0.000000
-0.000000
0.000000
0.000000
0.000000
0.000000
-0.000000
-0.000000
0.000000
0.000000
0.000000
-0.000000
-0.000000
0.000000
-0.000000
0.000000
-0.000000
-0.000000
0.000000
-0.000000
0.000000
0.000000
0.000000
-0.000000
-0.000000
0.000000
0.000000
-0.000000
-0.000000
-0.000000
-0.000000
0.000000
0.000000
0.000000
-0.000000
-0.000000
-0.000000
0.000000
-0.000000
-0.000000
0.000000
0.000000
-0.000000
0.000000
-0.000000
0.000000
0.000000
-0.000000
0.000000
0.000000
0.000000
0.000000
-0.000000
0.000000
-0.000000
-0.000000
-0.000000
-0.000000
-0.000000
0.000000
0.000000
0.000000
0.000000
0.000000
-0.000000
-0.000000
-0.000000
-0.000000
0.000000
-0.000000
-0.000000
0.000000
0.000000
0.000000
-0.000000
0.000000
0.000000
-0.000000
-0.000000
0.000000
-0.000000
0.000000
-0.000000
0.000000
0.000000
0.000000
-0.000000
0.000000
-0.000000
-0.000000
-0.000000
0.000000
0.000000
0.000000
0.000000
0.000000
0.000000
0.000000
0.000000
-0.000000
0.000000
-0.000000
0.000000
0.000000
0.000000
-0.000000
-0.000000
-0.000000
-0.000000
-0.000000
0.000000
-0.000000
0.000000
-0.000000
0.000000
-0.000000
-0.000000
0.000000
0.000000
0.000000
0.000000
0.000000
-0.000000
0.000000
0.000000
0.000000
0.000000
-0.000000
0.000000
-0.000000
-0.000000
0.000000
-0.000000
0.000000
-0.000000
0.000000
-0.000000
-0.000000
-0.000000
-0.000000
-0.000000
-0.000000
-0.000000
-0.000000
0.000000
-0.000000
-0.000000
-0.000000
-0.000000
0.000000
0.000000
-0.000000
0.000000
0.000000
0.000000
0.000000
-0.000000
-0.000000
0.000000
0.000000
-0.000000
0.000000
0.000000
-0.000000
0.000000
0.000000
0.000000
0.000000
0.000000
-0.000000
0.000000
0.000000
-0.000000
0.000000
0.000000
-0.000000
-0.000000
-0.000000
-0.000000
0.000000
0.000000
-0.000000
-0.000000
-0.000000
-0.000000
-0.000000
0.000000
-0.000000
-0.000000
-0.000000
-0.000000
0.000000
-0.000000
0.000000
0.000000
0.000000
0.000000
0.000000
-0.000000
0.000000
0.000000
-0.000000
-0.000000
-0.000000
0.000000
-0.000000
-0.000000
-0.000000
0.000000
0.000000
0.000000
0.000000
0.000000
0.000000
0.000000
0.000000
-0.000000
0.000000
0.000000
0.000000
0.000000
0.000000
0.000000
0.000000
0.000000
-0.000000
-0.000000
0.000000
0.000000
0.000000
-0.000000
0.000000
-0.000000
-0.000000
-0.000000
0.000000
0.000000
-0.000000
0.000000
0.000000
0.000000
0.000000
0.000000
0.000000
-0.000000
-0.000000
-0.000000
0.000000
0.000000
-0.000000
-0.000000
-0.000000
-0.000000
-0.000000
-0.000000
-0.000000
0.000000
-0.000000
-0.000000
-0.000000
-0.000000
-0.000000
0.000000
0.000000
-0.000000
-0.000000
-0.000000
-0.000000
-0.000000
0.000000
0.000000
0.000000
-0.000000
0.000000
0.000000
0.000000
-0.000000
-0.000000
-0.000000
0.000000
0.000000
0.000000
-0.000000
0.000000
0.000000
-0.000000
0.000000
-0.000000
-0.000000
-0.000000
-0.000000
-0.000000
0.000000
0.000000
-0.000000
0.000000
-0.000000
-0.000000
-0.000000
0.000000
-0.000000
-0.000000
-0.000000
-0.000000
-0.000000
-0.000000
-0.000000
-0.000000
0.000000
-0.000000
-0.000000
0.000000
-0.000000
0.000000
0.000000
-0.000000
-0.000000
-0.000000
-0.000000
-0.000000
-0.000000
-0.000000
-0.000000
0.000000
0.000000
-0.000000
-0.000000
-0.000000
-0.000000
0.000000
-0.000000
-0.000000
0.000000
-0.000000
0.000000
0.000000
-0.000000
-0.000000
-0.000000
-0.000000
0.000000
0.000000
0.000000
0.000000
0.000000
-0.000000
0.000000
0.000000
-0.000000
0.000000
0.000000
-0.000000
-0.000000
0.000000
0.000000
0.000000
0.000000
0.000000
0.000000
0.000000
0.000000
0.000000
-0.000000
0.000000
-0.000000
-0.000000
0.000000
0.000000
0.000000
0.000000
0.000000
0.000000
0.000000
0.000000
0.000000
0.000000
0.000000
-0.000000
-0.000000
0.000000
-0.000000
-0.000000
0.000000
-0.000000
-0.000000
0.000000
0.000000
0.000000
0.000000
-0.000000
-0.000000
-0.000000
-0.000000
-0.000000
-0.000000
0.000000
-0.000000
0.000000
-0.000000
-0.000000
0.000000
0.000000
-0.000000
-0.000000
-0.000000
-0.000000
-0.000000
-0.000000
-0.000000
0.000000
0.000000
-0.000000
0.000000
-0.000000
-0.000000
-0.000000
-0.000000
-0.000000
0.000000
-0.000000
0.000000
-0.000000
-0.000000
0.000000
-0.000000
-0.000000
0.000000
-0.000000
-0.000000
0.000000
0.000000
0.000000
-0.000000
-0.000000
0.000000
0.000000
0.000000
0.000000
0.000000
0.000000
-0.000000
0.000000
-0.000000
-0.000000
0.000000
0.000000
-0.000000
0.000000
-0.000000
0.000000
0.000000
-0.000000
0.000000
0.000000
0.000000
-0.000000
-0.000000
-0.000000
-0.000000
0.000000
-0.000000
-0.000000
-0.000000
0.000000
-0.000000
0.000000
-0.000000
0.000000
0.000000
0.000000
0.000000
-0.000000
0.000000
0.000000
-0.000000
-0.000000
-0.000000
-0.000000
-0.000000
-0.000000
-0.000000
-0.000000
-0.000000
0.000000
0.000000
0.000000
0.000000
-0.000000
0.000000
-0.000000
0.000000
0.000000
0.000000
-0.000000
-0.000000
-0.000000
0.000000
0.000000
-0.000000
-0.000000
-0.000000
-0.000000
0.000000
0.000000
0.000000
-0.000000
0.000000
-0.000000
-0.000000
0.000000
-0.000000
-0.000000
0.000000
-0.000000
0.000000
-0.000000
-0.000000
0.000000
0.000000
-0.000000
0.000000
0.000000
0.000000
0.000000
0.000000
-0.000000
-0.000000
0.000000
0.000000
-0.000000
-0.000000
-0.000000
-0.000000
0.000000
0.000000
-0.000000
0.000000
-0.000000
-0.000000
0.000000
-0.000000
-0.000000
0.000000
-0.000000
0.000000
-0.000000
-0.000000
0.000000
-0.000000
-0.000000
-0.000000
0.000000
-0.000000
0.000000
-0.000000
-0.000000
0.000000
0.000000
0.000000
-0.000000
0.000000
0.000000
0.000000
0.000000
-0.000000
-0.000000
-0.000000
0.000000
-0.000000
-0.000000
0.000000
0.000000
0.000000
-0.000000
-0.000000
-0.000000
0.000000
-0.000000
0.000000
-0.000000
-0.000000
0.000000
0.000000
0.000000
0.000000
-0.000000
-0.000000
-0.000000
0.000000
-0.000000
0.000000
0.000000
0.000000
0.000000
-0.000000
-0.000000
0.000000
-0.000000
-0.000000
-0.000000
0.000000
-0.000000
0.000000
0.000000
-0.000000
-0.000000
0.000000
0.000000
0.000000
-0.000000
-0.000000
-0.000000
0.000000
-0.000000
0.000000
-0.000000
-0.000000
-0.000000
-0.000000
-0.000000
-0.000000
-0.000000
-0.000000
-0.000000
-0.000000
0.000000
0.000000
-0.000000
-0.000000
0.000000
-0.000000
-0.000000
0.000000
0.000000
-0.000000
-0.000000
-0.000000
-0.000000
0.000000
-0.000000
0.000000
0.000000
0.000000
-0.000000
-0.000000
-0.000000
-0.000000
-0.000000
0.000000
0.000000
-0.000000
0.000000
-0.000000
-0.000000
-0.000000
0.000000
0.000000
-0.000000
-0.000000
-0.000000
0.000000
-0.000000
-0.000000
0.000000
-0.000000
0.000000
0.000000
-0.000000
0.000000
0.000000
-0.000000
-0.000000
0.000000
0.000000
-0.000000
-0.000000
-0.000000
0.000000
0.000000
-0.000000
-0.000000
0.000000
-0.000000
0.000000
0.000000
0.000000
0.000000
0.000000
0.000000
0.000000
-0.000000
-0.000000
0.000000
0.000000
-0.000000
-0.000000
0.000000
0.000000
0.000000
-0.000000
-0.000000
0.000000
-0.000000
0.000000
-0.000000
0.000000
0.000000
-0.000000
0.000000
0.000000
0.000000
0.000000
-0.000000
-0.000000
-0.000000
-0.000000
-0.000000
-0.000000
-0.000000
0.000000
0.000000
0.000000
0.000000
-0.000000
0.000000
0.000000
-0.000000
-0.000000
0.000000
0.000000
-0.000000
0.000000
-0.000000
0.000000
-0.000000
-0.000000
-0.000000
0.000000
0.000000
-0.000000
-0.000000
-0.000000
0.000000
-0.000000
-0.000000
0.000000
0.000000
0.000000
-0.000000
0.000000
-0.000000
0.000000
0.000000
0.000000
-0.000000
0.000000
0.000000
-0.000000
0.000000
0.000000
0.000000
0.000000
0.000000
0.000000
-0.000000
-0.000000
0.000000
-0.000000
-0.000000
0.000000
0.000000
-0.000000
-0.000000
-0.000000
0.000000
0.000000
0.000000
-0.000000
-0.000000
0.000000
-0.000000
-0.000000
-0.000000
-0.000000
0.000000
0.000000
0.000000
0.000000
-0.000000
-0.000000
-0.000000
-0.000000
0.000000
-0.000000
0.000000
0.000000
0.000000
0.000000
-0.000000
-0.000000
0.000000
0.000000
-0.000000
-0.000000
0.000000
0.000000
0.000000
0.000000
0.000000
-0.000000
0.000000
-0.000000
-0.000000
0.000000
-0.000000
0.000000
-0.000000
-0.000000
-0.000000
-0.000000
0.000000
0.000000
0.000000
0.000000
0.000000
-0.000000
-0.000000
-0.000000
-0.000000
-0.000000
0.000000
0.000000
0.000000
-0.000000
0.000000
-0.000000
-0.000000
0.000000
-0.000000
0.000000
-0.000000
-0.000000
0.000000
0.000000
-0.000000
0.000000
-0.000000
-0.000000
-0.000000
0.000000
0.000000
-0.000000
0.000000
-0.000000
0.000000
-0.000000
-0.000000
0.000000
0.000000
-0.000000
-0.000000
0.000000
0.000000
0.000000
0.000000
0.000000
-0.000000
-0.000000
-0.000000
0.000000
0.000000
0.000000
-0.000000
0.000000
0.000000
-0.000000
0.000000
-0.000000
-0.000000
-0.000000
0.000000
0.000000
-0.000000
-0.000000
0.000000
0.000000
-0.000000
0.000000
-0.000000
0.000000
-0.000000
-0.000000
-0.000000
-0.000000
0.000000
-0.000000
0.000000
-0.000000
-0.000000
-0.000000
0.000000
0.000000
0.000000
0.000000
-0.000000
0.000000
0.000000
-0.000000
0.000000
0.000000
-0.000000
0.000000
-0.000000
0.000000
0.000000
0.000000
-0.000000
0.000000
-0.000000
-0.000000
-0.000000
-0.000000
0.000000
0.000000
-0.000000
0.000000
0.000000
0.000000
0.000000
-0.000000
-0.000000
0.000000
-0.000000
-0.000000
-0.000000
-0.000000
0.000000
0.000000
-0.000000
0.000000
0.000000
0.000000
-0.000000
0.000000
0.000000
0.000000
0.000000
-0.000000
0.000000
-0.000000
0.000000
0.000000
-0.000000
0.000000
-0.000000
-0.000000
-0.000000
-0.000000
0.000000
-0.000000
0.000000
-0.000000
0.000000
-0.000000
0.000000
-0.000000
0.000000
-0.000000
-0.000000
-0.000000
-0.000000
0.000000
0.000000
0.000000
0.000000
0.000000
-0.000000
-0.000000
-0.000000
-0.000000
-0.000000
-0.000000
0.000000
-0.000000
0.000000
0.000000
-0.000000
-0.000000
-0.000000
0.000000
0.000000
-0.000000
0.000000
-0.000000
0.000000
-0.000000
-0.000000
-0.000000
-0.000000
0.000000
0.000000
0.000000
0.000000
-0.000000
-0.000000
0.000000
-0.000000
-0.000000
-0.000000
0.000000
-0.000000
-0.000000
-0.000000
0.000000
-0.000000
-0.000000
-0.000000
0.000000
-0.000000
0.000000
-0.000000
-0.000000
0.000000
0.000000
-0.000000
0.000000
-0.000000
0.000000
0.000000
-0.000000
0.000000
0.000000
0.000000
0.000000
0.000000
-0.000000
0.000000
0.000000
-0.000000
0.000000
-0.000000
-0.000000
0.000000
0.000000
-0.000000
0.000000
-0.000000
-0.000000
0.000000
0.000000
-0.000000
-0.000000
-0.000000
-0.000000
-0.000000
-0.000000
0.000000
0.000000
0.000000
-0.000000
0.000000
0.000000
-0.000000
-0.000000
0.000000
0.000000
-0.000000
0.000000
-0.000000
-0.000000
0.000000
-0.000000
-0.000000
0.000000
0.000000
-0.000000
-0.000000
0.000000
0.000000
0.000000
-0.000000
-0.000000
-0.000000
0.000000
-0.000000
0.000000
0.000000
0.000000
0.000000
-0.000000
-0.000000
0.000000
-0.000000
-0.000000
0.000000
0.000000
-0.000000
-0.000000
0.000000
-0.000000
-0.000000
-0.000000
-0.000000
0.000000
-0.000000
-0.000000
0.000000
-0.000000
-0.000000
0.000000
0.000000
0.000000
-0.000000
0.000000
-0.000000
-0.000000
-0.000000
0.000000
0.000000
-0.000000
-0.000000
-0.000000
-0.000000
0.000000
-0.000000
-0.000000
-0.000000
-0.000000
-0.000000
0.000000
-0.000000
0.000000
0.000000
-0.000000
-0.000000
-0.000000
0.000000
0.000000
-0.000000
-0.000000
0.000000
0.000000
0.000000
0.000000
0.000000
-0.000000
-0.000000
0.000000
-0.000000
0.000000
-0.000000
-0.000000
0.000000
-0.000000
0.000000
0.000000
0.000000
-0.000000
0.000000
0.000000
-0.000000
0.000000
-0.000000
-0.000000
-0.000000
-0.000000
-0.000000
-0.000000
-0.000000
0.000000
0.000000
0.000000
0.000000
-0.000000
-0.000000
-0.000000
-0.000000
0.000000
-0.000000
0.000000
0.000000
-0.000000
0.000000
-0.000000
-0.000000
-0.000000
0.000000
-0.000000
0.000000
0.000000
0.000000
-0.000000
0.000000
-0.000000
0.000000
0.000000
0.000000
-0.000000
-0.000000
0.000000
0.000000
0.000000
0.000000
-0.000000
-0.000000
0.000000
-0.000000
-0.000000
0.000000
-0.000000
0.000000
0.000000
0.000000
0.000000
-0.000000
0.000000
-0.000000
-0.000000
-0.000000
0.000000
0.000000
-0.000000
-0.000000
0.000000
0.000000
0.000000
0.000000
0.000000
-0.000000
0.000000
-0.000000
0.000000
-0.000000
-0.000000
-0.000000
0.000000
-0.000000
-0.000000
-0.000000
0.000000
-0.000000
-0.000000
0.000000
-0.000000
0.000000
0.000000
0.000000
-0.000000
-0.000000
0.000000
0.000000
-0.000000
-0.000000
-0.000000
-0.000000
-0.000000
-0.000000
0.000000
0.000000
0.000000
-0.000000
-0.000000
-0.000000
0.000000
0.000000
-0.000000
-0.000000
-0.000000
-0.000000
0.000000
-0.000000
0.000000
0.000000
0.000000
0.000000
-0.000000
-0.000000
0.000000
-0.000000
0.000000
0.000000
0.000000
0.000000
0.000000
0.000000
-0.000000
-0.000000
0.000000
-0.000000
0.000000
0.000000
-0.000000
0.000000
-0.000000
-0.000000
0.000000
0.000000
-0.000000
-0.000000
-0.000000
0.000000
0.000000
0.000000
-0.000000
-0.000000
0.000000
-0.000000
-0.000000
0.000000
-0.000000
-0.000000
0.000000
0.000000
-0.000000
-0.000000
-0.000000
0.000000
0.000000
-0.000000
0.000000
-0.000000
-0.000000
-0.000000
0.000000
0.000000
-0.000000
0.000000
0.000000
-0.000000
-0.000000
-0.000000
-0.000000
-0.000000
-0.000000
0.000000
0.000000
-0.000000
0.000000
-0.000000
0.000000
-0.000000
-0.000000
0.000000
0.000000
0.000000
0.000000
0.000000
-0.000000
-0.000000
0.000000
0.000000
0.000000
0.000000
0.000000
-0.000000
0.000000
0.000000
-0.000000
-0.000000
-0.000000
-0.000000
-0.000000
0.000000
0.000000
-0.000000
-0.000000
-0.000000
0.000000
-0.000000
-0.000000
-0.000000
-0.000000
-0.000000
0.000000
-0.000000
-0.000000
0.000000
0.000000
-0.000000
0.000000
0.000000
-0.000000
0.000000
-0.000000
0.000000
-0.000000
-0.000000
-0.000000
-0.000000
0.000000
0.000000
0.000000
-0.000000
0.000000
0.000000
-0.000000
-0.000000
-0.000000
-0.000000
0.000000
0.000000
0.000000
-0.000000
-0.000000
0.000000
0.000000
-0.000000
-0.000000
0.000000
0.000000
-0.000000
-0.000000
0.000000
-0.000000
0.000000
-0.000000
0.000000
0.000000
0.000000
0.000000
0.000000
0.000000
0.000000
0.000000
-0.000000
0.000000
-0.000000
-0.000000
-0.000000
0.000000
0.000000
-0.000000
0.000000
-0.000000
-0.000000
-0.000000
0.000000
-0.000000
0.000000
0.000000
0.000000
0.000000
0.000000
0.000000
0.000000
0.000000
0.000000
-0.000000
0.000000
0.000000
-0.000000
0.000000
-0.000000
-0.000000
0.000000
0.000000
-0.000000
0.000000
0.000000
0.000000
-0.000000
0.000000
0.000000
0.000000
0.000000
-0.000000
0.000000
-0.000000
0.000000
-0.000000
-0.000000
0.000000
0.000000
0.000000
-0.000000
0.000000
-0.000000
-0.000000
0.000000
0.000000
-0.000000
-0.000000
0.000000
0.000000
-0.000000
0.000000
-0.000000
-0.000000
0.000000
0.000000
0.000000
0.000000
0.000000
0.000000
0.000000
0.000000
0.000000
-0.000000
0.000000
0.000000
-0.000000
-0.000000
-0.000000
-0.000000
-0.000000
-0.000000
0.000000
-0.000000
0.000000
-0.000000
-0.000000
0.000000
-0.000000
0.000000
-0.000000
0.000000
0.000000
-0.000000
0.000000
-0.000000
-0.000000
0.000000
0.000000
-0.000000
-0.000000
0.000000
-0.000000
0.000000
-0.000000
-0.000000
0.000000
0.000000
0.000000
0.000000
0.000000
-0.000000
-0.000000
-0.000000
-0.000000
0.000000
-0.000000
-0.000000
0.000000
0.000000
-0.000000
-0.000000
0.000000
-0.000000
0.000000
0.000000
0.000000
0.000000
-0.000000
0.000000
0.000000
0.000000
-0.000000
-0.000000
0.000000
-0.000000
0.000000
-0.000000
-0.000000
-0.000000
0.000000
0.000000
0.000000
-0.000000
0.000000
-0.000000
-0.000000
-0.000000
0.000000
0.000000
-0.000000
-0.000000
0.000000
-0.000000
-0.000000
-0.000000
0.000000
0.000000
0.000000
0.000000
0.000000
0.000000
-0.000000
0.000000
-0.000000
-0.000000
-0.000000
0.000000
0.000000
-0.000000
0.000000
-0.000000
0.000000
-0.000000
-0.000000
0.000000
-0.000000
0.000000
0.000000
-0.000000
0.000000
-0.000000
-0.000000
-0.000000
-0.000000
0.000000
-0.000000
0.000000
-0.000000
0.000000
0.000000
0.000000
0.000000
0.000000
0.000000
-0.000000
-0.000000
-0.000000
-0.000000
0.000000
0.000000
-0.000000
0.000000
-0.000000
0.000000
-0.000000
0.000000
-0.000000
0.000000
0.000000
0.000000
-0.000000
-0.000000
0.000000
-0.000000
0.000000
0.000000
0.000000
-0.000000
-0.000000
-0.000000
-0.000000
0.000000
-0.000000
0.000000
0.000000
-0.000000
-0.000000
-0.000000
-0.000000
0.000000
-0.000000
0.000000
-0.000000
-0.000000
-0.000000
-0.000000
-0.000000
-0.000000
0.000000
0.000000
-0.000000
-0.000000
0.000000
0.000000
0.000000
0.000000
-0.000000
-0.000000
-0.000000
-0.000000
-0.000000
-0.000000
-0.000000
0.000000
0.000000
-0.000000
-0.000000
0.000000
-0.000000
-0.000000
0.000000
-0.000000
0.000000
-0.000000
0.000000
-0.000000
-0.000000
-0.000000
-0.000000
-0.000000
-0.000000
-0.000000
-0.000000
0.000000
-0.000000
-0.000000
0.000000
0.000000
0.000000
-0.000000
-0.000000
0.000000
0.000000
0.000000
0.000000
0.000000
0.000000
0.000000
-0.000000
-0.000000
0.000000
0.000000
-0.000000
-0.000000
-0.000000
-0.000000
0.000000
-0.000000
0.000000
0.000000
0.000000
-0.000000
0.000000
-0.000000
-0.000000
-0.000000
-0.000000
0.000000
-0.000000
-0.000000
0.000000
0.000000
-0.000000
0.000000
-0.000000
0.000000
0.000000
0.000000
-0.000000
-0.000000
0.000000
0.000000
-0.000000
-0.000000
-0.000000
0.000000
0.000000
-0.000000
-0.000000
-0.000000
-0.000000
-0.000000
-0.000000
0.000000
0.000000
0.000000
0.000000
-0.000000
0.000000
0.000000
0.000000
-0.000000
-0.000000
0.000000
0.000000
-0.000000
0.000000
0.000000
-0.000000
0.000000
0.000000
0.000000
0.000000
-0.000000
-0.000000
-0.000000
0.000000
-0.000000
0.000000
-0.000000
-0.000000
-0.000000
0.000000
-0.000000
0.000000
-0.000000
0.000000
-0.000000
0.000000
0.000000
-0.000000
0.000000
-0.000000
0.000000
-0.000000
0.000000
0.000000
0.000000
-0.000000
-0.000000
-0.000000
0.000000
0.000000
0.000000
0.000000
-0.000000
-0.000000
-0.000000
0.000000
0.000000
0.000000
-0.000000
0.000000
0.000000
0.000000
0.000000
-0.000000
0.000000
0.000000
-0.000000
0.000000
0.000000
0.000000
-0.000000
-0.000000
-0.000000
-0.000000
-0.000000
-0.000000
-0.000000
-0.000000
0.000000
0.000000
-0.000000
0.000000
0.000000
-0.000000
-0.000000
-0.000000
-0.000000
0.000000
0.000000
0.000000
-0.000000
0.000000
-0.000000
0.000000
-0.000000
-0.000000
-0.000000
-0.000000
0.000000
0.000000
0.000000
-0.000000
0.000000
-0.000000
0.000000
0.000000
0.000000
0.000000
-0.000000
0.000000
0.000000
-0.000000
-0.000000
-0.000000
0.000000
0.000000
0.000000
0.000000
-0.000000
-0.000000
0.000000
0.000000
-0.000000
-0.000000
-0.000000
0.000000
0.000000
0.000000
-0.000000
-0.000000
-0.000000
0.000000
0.000000
-0.000000
0.000000
0.000000
-0.000000
0.000000
-0.000000
0.000000
-0.000000
-0.000000
-0.000000
-0.000000
0.000000
-0.000000
0.000000
0.000000
-0.000000
0.000000
-0.000000
0.000000
0.000000
0.000000
0.000000
-0.000000
0.000000
-0.000000
0.000000
-0.000000
0.000000
0.000000
0.000000
-0.000000
0.000000
-0.000000
-0.000000
-0.000000
0.000000
-0.000000
0.000000
0.000000
-0.000000
0.000000
-0.000000
-0.000000
-0.000000
-0.000000
0.000000
0.000000
0.000000
-0.000000
-0.000000
0.000000
-0.000000
-0.000000
-0.000000
0.000000
-0.000000
-0.000000
0.000000
0.000000
0.000000
-0.000000
-0.000000
-0.000000
-0.000000
0.000000
-0.000000
0.000000
0.000000
0.000000
-0.000000
-0.000000
0.000000
0.000000
-0.000000
0.000000
0.000000
-0.000000
0.000000
-0.000000
-0.000000
0.000000
0.000000
0.000000
0.000000
0.000000
-0.000000
-0.000000
0.000000
0.000000
-0.000000
-0.000000
-0.000000
-0.000000
0.000000
-0.000000
0.000000
0.000000
0.000000
-0.000000
-0.000000
0.000000
0.000000
0.000000
-0.000000
0.000000
-0.000000
-0.000000
-0.000000
-0.000000
-0.000000
0.000000
-0.000000
-0.000000
0.000000
-0.000000
0.000000
-0.000000
0.000000
0.000000
-0.000000
-0.000000
-0.000000
-0.000000
-0.000000
0.000000
0.000000
0.000000
-0.000000
0.000000
0.000000
-0.000000
0.000000
-0.000000
-0.000000
-0.000000
0.000000
-0.000000
0.000000
0.000000
-0.000000
-0.000000
-0.000000
0.000000
0.000000
0.000000
0.000000
0.000000
-0.000000
-0.000000
0.000000
0.000000
0.000000
0.000000
-0.000000
-0.000000
0.000000
0.000000
0.000000
0.000000
-0.000000
-0.000000
-0.000000
-0.000000
-0.000000
-0.000000
-0.000000
0.000000
0.000000
-0.000000
0.000000
-0.000000
-0.000000
-0.000000
-0.000000
0.000000
-0.000000
-0.000000
-0.000000
0.000000
0.000000
0.000000
-0.000000
-0.000000
0.000000
0.000000
-0.000000
0.000000
-0.000000
-0.000000
-0.000000
-0.000000
-0.000000
-0.000000
-0.000000
-0.000000
-0.000000
-0.000000
-0.000000
-0.000000
-0.000000
0.000000
-0.000000
-0.000000
0.000000
0.000000
0.000000
-0.000000
-0.000000
0.000000
0.000000
0.000000
-0.000000
0.000000
0.000000
-0.000000
-0.000000
0.000000
0.000000
0.000000
0.000000
-0.000000
-0.000000
0.000000
0.000000
0.000000
-0.000000
0.000000
-0.000000
0.000000
-0.000000
0.000000
-0.000000
0.000000
0.000000
-0.000000
0.000000
-0.000000
0.000000
0.000000
0.000000
0.000000
-0.000000
0.000000
0.000000
0.000000
0.000000
-0.000000
0.000000
0.000000
0.000000
0.000000
-0.000000
-0.000000
-0.000000
-0.000000
0.000000
-0.000000
-0.000000
-0.000000
0.000000
-0.000000
-0.000000
0.000000
0.000000
-0.000000
0.000000
0.000000
0.000000
-0.000000
0.000000
0.000000
-0.000000
0.000000
0.000000
-0.000000
-0.000000
-0.000000
0.000000
0.000000
0.000000
-0.000000
0.000000
-0.000000
0.000000
0.000000
-0.000000
-0.000000
-0.000000
0.000000
0.000000
-0.000000
0.000000
-0.000000
0.000000
0.000000
-0.000000
0.000000
-0.000000
-0.000000
0.000000
-0.000000
-0.000000
-0.000000
-0.000000
0.000000
0.000000
-0.000000
-0.000000
0.000000
0.000000
-0.000000
-0.000000
0.000000
0.000000
-0.000000
0.000000
-0.000000
-0.000000
-0.000000
-0.000000
0.000000
-0.000000
-0.000000
0.000000
-0.000000
-0.000000
-0.000000
-0.000000
-0.000000
0.000000
0.000000
-0.000000
0.000000
-0.000000
0.000000
0.000000
0.000000
-0.000000
0.000000
-0.000000
0.000000
-0.000000
-0.000000
-0.000000
-0.000000
0.000000
0.000000
0.000000
0.000000
-0.000000
-0.000000
-0.000000
-0.000000
-0.000000
0.000000
0.000000
-0.000000
0.000000
-0.000000
0.000000
-0.000000
0.000000
0.000000
0.000000
-0.000000
0.000000
0.000000
-0.000000
-0.000000
0.000000
0.000000
0.000000
0.000000
0.000000
-0.000000
0.000000
-0.000000
0.000000
-0.000000
0.000000
0.000000
0.000000
-0.000000
-0.000000
0.000000
-0.000000
-0.000000
0.000000
0.000000
0.000000
-0.000000
-0.000000
0.000000
0.000000
0.000000
0.000000
0.000000
-0.000000
-0.000000
-0.000000
-0.000000
0.000000
-0.000000
0.000000
0.000000
-0.000000
-0.000000
0.000000
-0.000000
-0.000000
0.000000
0.000000
0.000000
0.000000
-0.000000
-0.000000
-0.000000
-0.000000
0.000000
0.000000
-0.000000
0.000000
0.000000
0.000000
0.000000
0.000000
0.000000
-0.000000
-0.000000
0.000000
-0.000000
-0.000000
-0.000000
-0.000000
-0.000000
0.000000
0.000000
0.000000
0.000000
0.000000
-0.000000
-0.000000
-0.000000
0.000000
0.000000
0.000000
0.000000
0.000000
-0.000000
0.000000
0.000000
0.000000
-0.000000
-0.000000
-0.000000
-0.000000
-0.000000
0.000000
-0.000000
0.000000
-0.000000
-0.000000
0.000000
-0.000000
0.000000
-0.000000
-0.000000
-0.000000
0.000000
-0.000000
0.000000
-0.000000
-0.000000
0.000000
-0.000000
0.000000
0.000000
0.000000
-0.000000
0.000000
-0.000000
-0.000000
-0.000000
-0.000000
0.000000
-0.000000
-0.000000
-0.000000
-0.000000
0.000000
0.000000
0.000000
-0.000000
-0.000000
-0.000000
-0.000000
-0.000000
-0.000000
-0.000000
-0.000000
0.000000
-0.000000
-0.000000
0.000000
-0.000000
0.000000
-0.000000
0.000000
0.000000
0.000000
-0.000000
-0.000000
0.000000
0.000000
-0.000000
-0.000000
0.000000
0.000000
-0.000000
-0.000000
0.000000
-0.000000
-0.000000
-0.000000
-0.000000
-0.000000
-0.000000
-0.000000
0.000000
-0.000000
-0.000000
-0.000000
-0.000000
-0.000000
0.000000
-0.000000
0.000000
0.000000
0.000000
-0.000000
0.000000
-0.000000
0.000000
0.000000
0.000000
-0.000000
-0.000000
0.000000
-0.000000
0.000000
0.000000
0.000000
-0.000000
0.000000
0.000000
0.000000
-0.000000
-0.000000
0.000000
0.000000
0.000000
-0.000000
0.000000
-0.000000
-0.000000
-0.000000
-0.000000
0.000000
-0.000000
-0.000000
-0.000000
-0.000000
-0.000000
0.000000
-0.000000
-0.000000
-0.000000
0.000000
-0.000000
-0.000000
0.000000
-0.000000
-0.000000
0.000000
-0.000000
0.000000
0.000000
-0.000000
0.000000
0.000000
-0.000000
-0.000000
0.000000
-0.000000
-0.000000
0.000000
-0.000000
0.000000
0.000000
0.000000
-0.000000
0.000000
-0.000000
0.000000
-0.000000
-0.000000
-0.000000
0.000000
-0.000000
-0.000000
-0.000000
0.000000
0.000000
-0.000000
-0.000000
0.000000
-0.000000
0.000000
-0.000000
-0.000000
-0.000000
-0.000000
-0.000000
0.000000
0.000000
0.000000
-0.000000
0.000000
0.000000
-0.000000
0.000000
-0.000000
-0.000000
0.000000
-0.000000
-0.000000
0.000000
-0.000000
-0.000000
-0.000000
-0.000000
-0.000000
0.000000
-0.000000
-0.000000
-0.000000
0.000000
-0.000000
0.000000
0.000000
-0.000000
-0.000000
0.000000
-0.000000
-0.000000
0.000000
0.000000
-0.000000
0.000000
-0.000000
0.000000
0.000000
0.000000
-0.000000
-0.000000
-0.000000
-0.000000
0.000000
0.000000
-0.000000
-0.000000
-0.000000
0.000000
0.000000
-0.000000
-0.000000
-0.000000
-0.000000
-0.000000
-0.000000
0.000000
-0.000000
-0.000000
0.000000
-0.000000
-0.000000
0.000000
-0.000000
0.000000
0.000000
0.000000
0.000000
0.000000
0.000000
0.000000
-0.000000
0.000000
-0.000000
-0.000000
0.000000
-0.000000
0.000000
0.000000
-0.000000
-0.000000
-0.000000
-0.000000
-0.000000
0.000000
-0.000000
0.000000
0.000000
0.000000
-0.000000
0.000000
-0.000000
0.000000
-0.000000
-0.000000
0.000000
0.000000
-0.000000
0.000000
-0.000000
-0.000000
0.000000
0.000000
0.000000
0.000000
0.000000
-0.000000
0.000000
-0.000000
-0.000000
0.000000
0.000000
0.000000
0.000000
-0.000000
0.000000
-0.000000
-0.000000
-0.000000
-0.000000
-0.000000
0.000000
-0.000000
0.000000
-0.000000
0.000000
-0.000000
0.000000
-0.000000
-0.000000
-0.000000
0.000000
-0.000000
-0.000000
-0.000000
0.000000
-0.000000
0.000000
-0.000000
-0.000000
-0.000000
-0.000000
-0.000000
-0.000000
0.000000
0.000000
-0.000000
0.000000
-0.000000
-0.000000
-0.000000
0.000000
-0.000000
-0.000000
-0.000000
0.000000
0.000000
0.000000
-0.000000
0.000000
-0.000000
0.000000
0.000000
0.000000
-0.000000
-0.000000
0.000000
0.000000
-0.000000
0.000000
-0.000000
-0.000000
-0.000000
-0.000000
0.000000
-0.000000
-0.000000
-0.000000
0.000000
0.000000
-0.000000
-0.000000
-0.000000
0.000000
0.000000
0.000000
-0.000000
0.000000
0.000000
-0.000000
0.000000
-0.000000
-0.000000
-0.000000
-0.000000
-0.000000
-0.000000
0.000000
-0.000000
-0.000000
0.000000
-0.000000
0.000000
0.000000
-0.000000
0.000000
0.000000
-0.000000
-0.000000
-0.000000
-0.000000
0.000000
0.000000
0.000000
0.000000
-0.000000
-0.000000
0.000000
0.000000
0.000000
-0.000000
0.000000
0.000000
0.000000
0.000000
-0.000000
0.000000
0.000000
-0.000000
0.000000
-0.000000
-0.000000
-0.000000
-0.000000
-0.000000
0.000000
-0.000000
0.000000
-0.000000
-0.000000
0.000000
0.000000
0.000000
0.000000
0.000000
-0.000000
-0.000000
-0.000000
0.000000
0.000000
0.000000
0.000000
0.000000
0.000000
-0.000000
0.000000
-0.000000
0.000000
0.000000
-0.000000
-0.000000
-0.000000
0.000000
-0.000000
0.000000
0.000000
-0.000000
-0.000000
-0.000000
0.000000
-0.000000
0.000000
-0.000000
0.000000
0.000000
-0.000000
-0.000000
0.000000
0.000000
-0.000000
-0.000000
0.000000
-0.000000
-0.000000
-0.000000
0.000000
-0.000000
-0.000000
-0.000000
-0.000000
-0.000000
0.000000
0.000000
0.000000
-0.000000
0.000000
-0.000000
-0.000000
-0.000000
-0.000000
0.000000
0.000000
0.000000
0.000000
0.000000
0.000000
0.000000
0.000000
0.000000
-0.000000
-0.000000
0.000000
-0.000000
0.000000
-0.000000
-0.000000
-0.000000
0.000000
0.000000
0.000000
0.000000
0.000000
0.000000
-0.000000
0.000000
0.000000
0.000000
0.000000
0.000000
0.000000
-0.000000
0.000000
0.000000
-0.000000
-0.000000
-0.000000
-0.000000
0.000000
0.000000
0.000000
-0.000000
0.000000
0.000000
-0.000000
-0.000000
-0.000000
-0.000000
-0.000000
0.000000
0.000000
-0.000000
0.000000
-0.000000
0.000000
0.000000
0.000000
0.000000
0.000000
0.000000
-0.000000
-0.000000
-0.000000
0.000000
0.000000
0.000000
0.000000
0.000000
-0.000000
-0.000000
0.000000
0.000000
-0.000000
0.000000
0.000000
0.000000
0.000000
0.000000
0.000000
-0.000000
0.000000
0.000000
0.000000
-0.000000
0.000000
0.000000
-0.000000
0.000000
0.000000
0.000000
-0.000000
-0.000000
-0.000000
0.000000
-0.000000
-0.000000
-0.000000
0.000000
-0.000000
0.000000
0.000000
0.000000
-0.000000
-0.000000
0.000000
-0.000000
0.000000
-0.000000
0.000000
-0.000000
-0.000000
-0.000000
0.000000
-0.000000
-0.000000
-0.000000
0.000000
-0.000000
0.000000
-0.000000
-0.000000
-0.000000
0.000000
-0.000000
0.000000
0.000000
-0.000000
-0.000000
0.000000
-0.000000
0.000000
0.000000
-0.000000
0.000000
-0.000000
0.000000
0.000000
0.000000
0.000000
-0.000000
0.000000
0.000000
0.000000
0.000000
-0.000000
-0.000000
0.000000
0.000000
-0.000000
-0.000000
0.000000
0.000000
0.000000
0.000000
-0.000000
-0.000000
0.000000
-0.000000
0.000000
0.000000
-0.000000
-0.000000
-0.000000
0.000000
-0.000000
0.000000
-0.000000
-0.000000
-0.000000
-0.000000
-0.000000
-0.000000
-0.000000
-0.000000
0.000000
-0.000000
0.000000
0.000000
-0.000000
0.000000
-0.000000
0.000000
-0.000000
0.000000
-0.000000
-0.000000
-0.000000
0.000000
0.000000
-0.000000
-0.000000
-0.000000
0.000000
-0.000000
0.000000
-0.000000
-0.000000
-0.000000
0.000000
0.000000
-0.000000
-0.000000
-0.000000
0.000000
0.000000
-0.000000
0.000000
-0.000000
-0.000000
-0.000000
-0.000000
-0.000000
-0.000000
0.000000
0.000000
-0.000000
-0.000000
0.000000
0.000000
-0.000000
-0.000000
-0.000000
-0.000000
-0.000000
0.000000
0.000000
-0.000000
0.000000
0.000000
0.000000
0.000000
0.000000
0.000000
0.000000
0.000000
0.000000
0.000000
-0.000000
0.000000
-0.000000
-0.000000
0.000000
-0.000000
0.000000
0.000000
0.000000
0.000000
-0.000000
-0.000000
0.000000
0.000000
-0.000000
-0.000000
0.000000
-0.000000
-0.000000
0.000000
-0.000000
-0.000000
-0.000000
-0.000000
-0.000000
0.000000
0.000000
-0.000000
0.000000
0.000000
0.000000
-0.000000
0.000000
-0.000000
-0.000000
-0.000000
0.000000
0.000000
0.000000
-0.000000
-0.000000
-0.000000
0.000000
-0.000000
-0.000000
-0.000000
0.000000
0.000000
0.000000
0.000000
-0.000000
-0.000000
0.000000
0.000000
0.000000
-0.000000
0.000000
-0.000000
0.000000
0.000000
0.000000
0.000000
-0.000000
-0.000000
-0.000000
-0.000000
-0.000000
0.000000
0.000000
0.000000
-0.000000
-0.000000
0.000000
0.000000
-0.000000
0.000000
0.000000
-0.000000
0.000000
0.000000
-0.000000
-0.000000
-0.000000
0.000000
-0.000000
0.000000
-0.000000
0.000000
-0.000000
-0.000000
0.000000
-0.000000
-0.000000
-0.000000
-0.000000
0.000000
0.000000
0.000000
0.000000
0.000000
0.000000
-0.000000
0.000000
0.000000
0.000000
0.000000
0.000000
-0.000000
-0.000000
0.000000
0.000000
0.000000
0.000000
0.000000
-0.000000
0.000000
-0.000000
-0.000000
-0.000000
0.000000
-0.000000
0.000000
0.000000
-0.000000
0.000000
-0.000000
0.000000
0.000000
0.000000
-0.000000
-0.000000
-0.000000
-0.000000
0.000000
0.000000
0.000000
-0.000000
-0.000000
0.000000
0.000000
-0.000000
0.000000
-0.000000
0.000000
0.000000
-0.000000
-0.000000
-0.000000
0.000000
0.000000
0.000000
-0.000000
0.000000
0.000000
0.000000
-0.000000
0.000000
0.000000
0.000000
-0.000000
-0.000000
0.000000
-0.000000
0.000000
0.000000
-0.000000
0.000000
-0.000000
0.000000
0.000000
-0.000000
-0.000000
-0.000000
-0.000000
-0.000000
0.000000
-0.000000
-0.000000
-0.000000
0.000000
-0.000000
-0.000000
0.000000
0.000000
-0.000000
0.000000
0.000000
0.000000
0.000000
-0.000000
0.000000
-0.000000
-0.000000
0.000000
0.000000
-0.000000
-0.000000
0.000000
-0.000000
0.000000
0.000000
0.000000
0.000000
0.000000
-0.000000
-0.000000
-0.000000
-0.000000
0.000000
-0.000000
0.000000
-0.000000
0.000000
-0.000000
0.000000
-0.000000
0.000000
0.000000
-0.000000
-0.000000
0.000000
-0.000000
0.000000
0.000000
-0.000000
0.000000
-0.000000
0.000000
0.000000
0.000000
0.000000
0.000000
-0.000000
-0.000000
-0.000000
0.000000
-0.000000
-0.000000
-0.000000
-0.000000
-0.000000
-0.000000
0.000000
0.000000
-0.000000
0.000000
-0.000000
0.000000
0.000000
-0.000000
0.000000
0.000000
0.000000
0.000000
0.000000
0.000000
-0.000000
-0.000000
-0.000000
-0.000000
-0.000000
0.000000
-0.000000
-0.000000
0.000000
-0.000000
0.000000
0.000000
-0.000000
-0.000000
-0.000000
0.000000
-0.000000
0.000000
0.000000
0.000000
0.000000
-0.000000
0.000000
-0.000000
0.000000
-0.000000
0.000000
-0.000000
-0.000000
-0.000000
-0.000000
0.000000
0.000000
-0.000000
-0.000000
0.000000
0.000000
0.000000
0.000000
0.000000
0.000000
-0.000000
-0.000000
-0.000000
0.000000
0.000000
0.000000
-0.000000
-0.000000
-0.000000
0.000000
-0.000000
0.000000
-0.000000
0.000000
0.000000
0.000000
0.000000
0.000000
0.000000
0.000000
-0.000000
0.000000
0.000000
0.000000
-0.000000
-0.000000
0.000000
0.000000
0.000000
0.000000
-0.000000
-0.000000
-0.000000
-0.000000
0.000000
0.000000
0.000000
-0.000000
0.000000
0.000000
-0.000000
-0.000000
-0.000000
-0.000000
0.000000
0.000000
0.000000
-0.000000
0.000000
-0.000000
-0.000000
0.000000
-0.000000
0.000000
0.000000
0.000000
-0.000000
-0.000000
-0.000000
0.000000
-0.000000
0.000000
0.000000
-0.000000
0.000000
-0.000000
0.000000
0.000000
-0.000000
-0.000000
-0.000000
-0.000000
0.000000
0.000000
-0.000000
0.000000
-0.000000
-0.000000
0.000000
0.000000
-0.000000
-0.000000
0.000000
0.000000
-0.000000
-0.000000
-0.000000
-0.000000
-0.000000
-0.000000
0.000000
0.000000
-0.000000
0.000000
0.000000
0.000000
0.000000
0.000000
0.000000
-0.000000
-0.000000
0.000000
0.000000
0.000000
-0.000000
0.000000
-0.000000
0.000000
-0.000000
0.000000
0.000000
0.000000
0.000000
0.000000
0.000000
-0.000000
0.000000
-0.000000
-0.000000
0.000000
0.000000
-0.000000
-0.000000
0.000000
-0.000000
0.000000
0.000000
-0.000000
0.000000
-0.000000
0.000000
-0.000000
-0.000000
-0.000000
0.000000
-0.000000
0.000000
-0.000000
-0.000000
-0.000000
0.000000
0.000000
-0.000000
-0.000000
-0.000000
-0.000000
-0.000000
0.000000
-0.000000
0.000000
-0.000000
-0.000000
-0.000000
0.000000
0.000000
0.000000
0.000000
-0.000000
0.000000
0.000000
-0.000000
-0.000000
0.000000
-0.000000
0.000000
0.000000
0.000000
0.000000
-0.000000
-0.000000
0.000000
0.000000
-0.000000
0.000000
0.000000
0.000000
-0.000000
-0.000000
-0.000000
-0.000000
0.000000
0.000000
0.000000
0.000000
-0.000000
0.000000
-0.000000
0.000000
0.000000
0.000000
0.000000
0.000000
0.000000
0.000000
-0.000000
-0.000000
-0.000000
0.000000
SCALARS UY float 1
LOOKUP_TABLE default
-0.000000
-0.000000
0.000000
0.000000
-0.000000
0.000000
-0.000000
0.000000
0.000000
-0.000000
-0.000000
-0.000000
-0.000000
0.000000
0.000000
0.000000
-0.000000
-0.000000
0.000000
0.000000
-0.000000
0.000000
0.000000
0.000000
-0.000000
0.000000
0.000000
-0.000000
0.000000
-0.000000
0.000000
0.000000
0.000000
-0.000000
-0.000000
0.000000
-0.000000
0.000000
-0.000000
0.000000
-0.000000
-0.000000
0.000000
-0.000000
-0.000000
0.000000
-0.000000
-0.000000
0.000000
0.000000
0.000000
-0.000000
0.000000
0.000000
0.000000
-0.000000
-0.000000
-0.000000
-0.000000
0.000000
0.000000
-0.000000
0.000000
-0.000000
0.000000
-0.000000
-0.000000
0.000000
0.000000
0.000000
0.000000
0.000000
-0.000000
-0.000000
-0.000000
0.000000
-0.000000
-0.000000
-0.000000
-0.000000
0.000000
0.000000
0.000000
0.000000
0.000000
0.000000
-0.000000
0.000000
-0.000000
-0.000000
-0.000000
0.000000
0.000000
0.000000
-0.000000
-0.000000
-0.000000
0.000000
0.000000
-0.000000
-0.000000
0.000000
0.000000
-0.000000
-0.000000
0.000000
-0.000000
-0.000000
0.000000
-0.000000
0.000000
0.000000
0.000000
0.000000
0.000000
0.000000
0.000000
-0.000000
-0.000000
0.000000
0.000000
0.000000
0.000000
0.000000
-0.000000
-0.000000
0.000000
-0.000000
-0.000000
-0.000000
-0.000000
0.000000
0.000000
0.000000
0.000000
0.000000
0.000000
0.000000
0.000000
0.000000
0.000000
-0.000000
0.000000
0.000000
0.000000
0.000000
-0.000000
-0.000000
0.000000
-0.000000
-0.000000
-0.000000
0.000000
-0.000000
0.000000
0.000000
-0.000000
-0.000000
-0.000000
-0.000000
-0.000000
-0.000000
0.000000
0.000000
0.000000
0.000000
0.000000
0.000000
0.000000
0.000000
0.000000
0.000000
-0.000000
-0.000000
-0.000000
0.000000
-0.000000
-0.000000
-0.000000
-0.000000
0.000000
0.000000
0.000000
-0.000000
-0.000000
-0.000000
0.000000
0.000000
0.000000
0.000000
0.000000
-0.000000
0.000000
-0.000000
-0.000000
-0.000000
0.000000
0.000000
-0.000000
-0.000000
0.000000
0.000000
-0.000000
-0.000000
0.000000
0.000000
-0.000000
-0.000000
-0.000000
0.000000
0.000000
0.000000
-0.000000
-0.000000
-0.000000
-0.000000
-0.000000
0.000000
0.000000
0.000000
0.000000
0.000000
-0.000000
-0.000000
-0.000000
0.000000
0.000000
0.000000
0.000000
0.000000
0.000000
0.000000
0.000000
0.000000
-0.000000
-0.000000
-0.000000
-0.000000
-0.000000
-0.000000
-0.000000
-0.000000
0.000000
-0.000000
0.000000
0.000000
-0.000000
-0.000000
0.000000
0.000000
0.000000
0.000000
0.000000
0.000000
0.000000
0.000000
0.000000
0.000000
0.000000
-0.000000
0.000000
-0.000000
-0.000000
0.000000
0.000000
0.000000
0.000000
-0.000000
0.000000
-0.000000
-0.000000
0.000000
-0.000000
-0.000000
-0.000000
-0.000000
0.000000
0.000000
0.000000
-0.000000
-0.000000
0.000000
0.000000
0.000000
0.000000
-0.000000
-0.000000
-0.000000
-0.000000
0.000000
0.000000
0.000000
-0.000000
-0.000000
-0.000000
0.000000
0.000000
0.000000
0.000000
0.000000
0.000000
0.000000
0.000000
0.000000
-0.000000
-0.000000
-0.000000
-0.000000
0.000000
-0.000000
0.000000
0.000000
0.000000
0.000000
-0.000000
0.000000
-0.000000
0.000000
0.000000
0.000000
-0.000000
-0.000000
-0.000000
-0.000000
-0.000000
0.000000
0.000000
0.000000
-0.000000
0.000000
0.000000
-0.000000
0.000000
-0.000000
-0.000000
-0.000000
-0.000000
-0.000000
-0.000000
0.000000
0.000000
-0.000000
-0.000000
-0.000000
0.000000
0.000000
0.000000
0.000000
0.000000
-0.000000
0.000000
0.000000
0.000000
0.000000
-0.000000
-0.000000
-0.000000
0.000000
0.000000
0.000000
0.000000
0.000000
0.000000
-0.000000
0.000000
0.000000
0.000000
0.000000
0.000000
-0.000000
0.000000
0.000000
0.000000
0.000000
0.000000
-0.000000
-0.000000
0.000000
-0.000000
-0.000000
-0.000000
-0.000000
0.000000
0.000000
-0.000000
-0.000000
0.000000
-0.000000
-0.000000
0.000000
0.000000
-0.000000
0.000000
-0.000000
-0.000000
0.000000
0.000000
-0.000000
0.000000
-0.000000
-0.000000
-0.000000
0.000000
-0.000000
0.000000
-0.000000
-0.000000
0.000000
0.000000
0.000000
0.000000
0.000000
0.000000
0.000000
0.000000
-0.000000
0.000000
-0.000000
0.000000
-0.000000
-0.000000
-0.000000
-0.000000
-0.000000
0.000000
0.000000
0.000000
-0.000000
0.000000
-0.000000
0.000000
0.000000
-0.000000
0.000000
-0.000000
-0.000000
-0.000000
0.000000
0.000000
0.000000
0.000000
-0.000000
-0.000000
-0.000000
0.000000
0.000000
-0.000000
-0.000000
0.000000
-0.000000
0.000000
0.000000
0.000000
0.000000
0.000000
-0.000000
-0.000000
0.000000
-0.000000
0.000000
-0.000000
0.000000
0.000000
-0.000000
0.000000
-0.000000
-0.000000
0.000000
-0.000000
0.000000
-0.000000
0.000000
0.000000
0.000000
0.000000
0.000000
0.000000
0.000000
0.000000
0.000000
-0.000000
0.000000
-0.000000
0.000000
0.000000
-0.000000
-0.000000
0.000000
-0.000000
-0.000000
-0.000000
-0.000000
-0.000000
-0.000000
-0.000000
-0.000000
0.000000
0.000000
-0.000000
0.000000
0.000000
0.000000
0.000000
0.000000
0.000000
0.000000
0.000000
0.000000
-0.000000
0.000000
0.000000
-0.000000
-0.000000
-0.000000
-0.000000
-0.000000
-0.000000
0.000000
0.000000
0.000000
-0.000000
0.000000
0.000000
0.000000
0.000000
0.000000
0.000000
0.000000
0.000000
0.000000
0.000000
-0.000000
0.000000
0.000000
-0.000000
0.000000
-0.000000
0.000000
-0.000000
-0.000000
-0.000000
-0.000000
0.000000
-0.000000
0.000000
-0.000000
-0.000000
-0.000000
-0.000000
-0.000000
0.000000
-0.000000
0.000000
0.000000
0.000000
-0.000000
-0.000000
-0.000000
0.000000
-0.000000
0.000000
-0.000000
-0.000000
-0.000000
-0.000000
-0.000000
-0.000000
0.000000
0.000000
0.000000
0.000000
0.000000
0.000000
0.000000
-0.000000
-0.000000
-0.000000
0.000000
0.000000
0.000000
0.000000
0.000000
-0.000000
0.000000
0.000000
0.000000
0.000000
0.000000
-0.000000
-0.000000
0.000000
0.000000
-0.000000
0.000000
-0.000000
0.000000
0.000000
0.000000
0.000000
-0.000000
0.000000
0.000000
0.000000
0.000000
-0.000000
-0.000000
-0.000000
0.000000
0.000000
0.000000
0.000000
-0.000000
0.000000
-0.000000
-0.000000
0.000000
-0.000000
-0.000000
0.000000
-0.000000
-0.000000
-0.000000
-0.000000
0.000000
-0.000000
0.000000
-0.000000
-0.000000
0.000000
0.000000
0.000000
0.000000
-0.000000
0.000000
0.000000
-0.000000
0.000000
-0.000000
0.000000
0.000000
0.000000
0.000000
0.000000
0.000000
-0.000000
-0.000000
-0.000000
-0.000000
-0.000000
0.000000
0.000000
0.000000
0.000000
-0.000000
-0.000000
0.000000
-0.000000
0.000000
0.000000
0.000000
-0.000000
-0.000000
-0.000000
-0.000000
0.000000
0.000000
-0.000000
0.000000
0.000000
0.000000
0.000000
0.000000
0.000000
-0.000000
-0.000000
-0.000000
-0.000000
0.000000
-0.000000
0.000000
0.000000
-0.000000
-0.000000
-0.000000
-0.000000
0.000000
0.000000
0.000000
0.000000
0.000000
-0.000000
-0.000000
-0.000000
0.000000
0.000000
-0.000000
0.000000
0.000000
0.000000
0.000000
-0.000000
-0.000000
0.000000
-0.000000
0.000000
0.000000
0.000000
0.000000
-0.000000
-0.000000
-0.000000
-0.000000
-0.000000
0.000000
0.000000
0.000000
-0.000000
0.000000
0.000000
-0.000000
-0.000000
0.000000
-0.000000
-0.000000
-0.000000
-0.000000
-0.000000
0.000000
0.000000
0.000000
0.000000
0.000000
-0.000000
-0.000000
0.000000
0.000000
-0.000000
0.000000
0.000000
0.000000
0.000000
0.000000
0.000000
0.000000
-0.000000
-0.000000
0.000000
-0.000000
0.000000
-0.000000
0.000000
-0.000000
-0.000000
-0.000000
-0.000000
0.000000
-0.000000
0.000000
-0.000000
-0.000000
-0.000000
-0.000000
-0.000000
0.000000
-0.000000
-0.000000
0.000000
0.000000
0.000000
0.000000
0.000000
0.000000
-0.000000
0.000000
0.000000
0.000000
0.000000
0.000000
0.000000
0.000000
0.000000
0.000000
0.000000
0.000000
0.000000
-0.000000
-0.000000
-0.000000
-0.000000
0.000000
0.000000
-0.000000
-0.000000
-0.000000
-0.000000
0.000000
0.000000
0.000000
0.000000
-0.000000
0.000000
0.000000
0.000000
-0.000000
-0.000000
-0.000000
-0.000000
-0.000000
-0.000000
-0.000000
-0.000000
0.000000
-0.000000
0.000000
0.000000
-0.000000
-0.000000
0.000000
0.000000
0.000000
0.000000
0.000000
0.000000
-0.000000
0.000000
-0.000000
-0.000000
0.000000
0.000000
0.000000
0.000000
0.000000
0.000000
0.000000
0.000000
0.000000
-0.000000
0.000000
-0.000000
0.000000
0.000000
-0.000000
-0.000000
0.000000
0.000000
0.000000
-0.000000
0.000000
-0.000000
-0.000000
-0.000000
0.000000
0.000000
-0.000000
0.000000
0.000000
0.000000
0.000000
0.000000
0.000000
0.000000
0.000000
-0.000000
-0.000000
0.000000
0.000000
0.000000
-0.000000
-0.000000
-0.000000
-0.000000
-0.000000
-0.000000
-0.000000
0.000000
0.000000
0.000000
0.000000
0.000000
0.000000
0.000000
-0.000000
0.000000
0.000000
0.000000
0.000000
-0.000000
0.000000
0.000000
0.000000
-0.000000
-0.000000
0.000000
-0.000000
0.000000
-0.000000
0.000000
0.000000
-0.000000
-0.000000
0.000000
0.000000
0.000000
-0.000000
-0.000000
0.000000
0.000000
-0.000000
-0.000000
-0.000000
0.000000
-0.000000
0.000000
0.000000
-0.000000
0.000000
0.000000
0.000000
-0.000000
-0.000000
-0.000000
0.000000
0.000000
-0.000000
-0.000000
-0.000000
0.000000
0.000000
0.000000
-0.000000
0.000000
0.000000
0.000000
-0.000000
0.000000
0.000000
0.000000
0.000000
0.000000
0.000000
0.000000
0.000000
0.000000
0.000000
-0.000000
0.000000
0.000000
-0.000000
-0.000000
-0.000000
-0.000000
-0.000000
0.000000
0.000000
0.000000
-0.000000
0.000000
0.000000
0.000000
0.000000
-0.000000
-0.000000
-0.000000
0.000000
-0.000000
-0.000000
0.000000
0.000000
-0.000000
0.000000
0.000000
-0.000000
-0.000000
-0.000000
0.000000
-0.000000
-0.000000
-0.000000
0.000000
-0.000000
-0.000000
-0.000000
-0.000000
-0.000000
-0.000000
0.000000
-0.000000
0.000000
-0.000000
-0.000000
0.000000
0.000000
0.000000
0.000000
-0.000000
-0.000000
0.000000
0.000000
0.000000
0.000000
0.000000
-0.000000
0.000000
0.000000
-0.000000
0.000000
-0.000000
-0.000000
-0.000000
0.000000
0.000000
0.000000
-0.000000
-0.000000
-0.000000
-0.000000
0.000000
-0.000000
0.000000
-0.000000
-0.000000
-0.000000
-0.000000
-0.000000
0.000000
-0.000000
0.000000
-0.000000
-0.000000
0.000000
0.000000
0.000000
0.000000
0.000000
0.000000
0.000000
-0.000000
0.000000
-0.000000
0.000000
-0.000000
-0.000000
-0.000000
0.000000
0.000000
0.000000
0.000000
0.000000
0.000000
-0.000000
0.000000
0.000000
-0.000000
0.000000
-0.000000
-0.000000
0.000000
0.000000
-0.000000
-0.000000
0.000000
0.000000
0.000000
0.000000
0.000000
-0.000000
0.000000
0.000000
-0.000000
0.000000
-0.000000
-0.000000
-0.000000
-0.000000
0.000000
0.000000
0.000000
0.000000
0.000000
-0.000000
0.000000
0.000000
-0.000000
-0.000000
0.000000
0.000000
-0.000000
-0.000000
0.000000
-0.000000
-0.000000
-0.000000
-0.000000
-0.000000
-0.000000
-0.000000
-0.000000
-0.000000
0.000000
-0.000000
0.000000
0.000000
0.000000
0.000000
0.000000
0.000000
0.000000
-0.000000
0.000000
-0.000000
-0.000000
-0.000000
-0.000000
-0.000000
-0.000000
0.000000
0.000000
-0.000000
0.000000
0.000000
0.000000
-0.000000
0.000000
-0.000000
0.000000
-0.000000
0.000000
0.000000
-0.000000
-0.000000
-0.000000
-0.000000
0.000000
0.000000
0.000000
0.000000
-0.000000
-0.000000
0.000000
0.000000
0.000000
0.000000
-0.000000
-0.000000
-0.000000
0.000000
0.000000
0.000000
0.000000
-0.000000
0.000000
-0.000000
0.000000
-0.000000
-0.000000
0.000000
-0.000000
-0.000000
-0.000000
-0.000000
0.000000
0.000000
0.000000
-0.000000
0.000000
0.000000
0.000000
-0.000000
0.000000
-0.000000
0.000000
0.000000
0.000000
0.000000
-0.000000
-0.000000
0.000000
0.000000
0.000000
-0.000000
-0.000000
0.000000
0.000000
-0.000000
-0.000000
-0.000000
0.000000
0.000000
-0.000000
-0.000000
0.000000
0.000000
-0.000000
0.000000
0.000000
0.000000
-0.000000
0.000000
0.000000
0.000000
-0.000000
-0.000000
-0.000000
0.000000
-0.000000
0.000000
-0.000000
0.000000
-0.000000
0.000000
-0.000000
-0.000000
0.000000
0.000000
-0.000000
-0.000000
0.000000
0.000000
-0.000000
0.000000
0.000000
0.000000
0.000000
0.000000
0.000000
0.000000
0.000000
-0.000000
-0.000000
-0.000000
0.000000
0.000000
-0.000000
-0.000000
-0.000000
0.000000
-0.000000
-0.000000
0.000000
0.000000
-0.000000
0.000000
-0.000000
0.000000
0.000000
-0.000000
-0.000000
-0.000000
0.000000
0.000000
0.000000
0.000000
0.000000
-0.000000
-0.000000
0.000000
-0.000000
-0.000000
-0.000000
0.000000
0.000000
0.000000
-0.000000
-0.000000
-0.000000
-0.000000
-0.000000
-0.000000
0.000000
-0.000000
0.000000
-0.000000
0.000000
0.000000
0.000000
0.000000
0.000000
0.000000
0.000000
0.000000
0.000000
-0.000000
0.000000
0.000000
0.000000
-0.000000
-0.000000
-0.000000
-0.000000
-0.000000
-0.000000
-0.000000
-0.000000
0.000000
0.000000
-0.000000
0.000000
0.000000
-0.000000
-0.000000
-0.000000
-0.000000
0.000000
-0.000000
0.000000
-0.000000
-0.000000
0.000000
0.000000
0.000000
-0.000000
-0.000000
-0.000000
-0.000000
-0.000000
-0.000000
0.000000
-0.000000
0.000000
-0.000000
-0.000000
-0.000000
-0.000000
0.000000
0.000000
0.000000
-0.000000
0.000000
0.000000
-0.000000
-0.000000
0.000000
0.000000
0.000000
-0.000000
-0.000000
-0.000000
0.000000
0.000000
-0.000000
-0.000000
0.000000
0.000000
-0.000000
-0.000000
0.000000
0.000000
0.000000
-0.000000
0.000000
0.000000
-0.000000
0.000000
0.000000
0.000000
-0.000000
0.000000
-0.000000
-0.000000
-0.000000
-0.000000
-0.000000
-0.000000
0.000000
0.000000
0.000000
0.000000
-0.000000
-0.000000
-0.000000
0.000000
-0.000000
0.000000
0.000000
-0.000000
0.000000
0.000000
0.000000
0.000000
-0.000000
0.000000
-0.000000
-0.000000
-0.000000
-0.000000
-0.000000
-0.000000
0.000000
-0.000000
0.000000
-0.000000
-0.000000
-0.000000
-0.000000
0.000000
0.000000
0.000000
0.000000
0.000000
-0.000000
0.000000
-0.000000
-0.000000
0.000000
-0.000000
0.000000
-0.000000
-0.000000
0.000000
0.000000
-0.000000
0.000000
-0.000000
-0.000000
-0.000000
0.000000
-0.000000
0.000000
0.000000
-0.000000
0.000000
-0.000000
0.000000
-0.000000
-0.000000
-0.000000
-0.000000
-0.000000
0.000000
-0.000000
0.000000
-0.000000
-0.000000
-0.000000
0.000000
-0.000000
-0.000000
0.000000
0.000000
-0.000000
-0.000000
0.000000
-0.000000
-0.000000
0.000000
-0.000000
-0.000000
0.000000
0.000000
-0.000000
0.000000
0.000000
-0.000000
0.000000
-0.000000
-0.000000
-0.000000
-0.000000
-0.000000
0.000000
0.000000
0.000000
-0.000000
-0.000000
-0.000000
-0.000000
-0.000000
0.000000
0.000000
-0.000000
-0.000000
-0.000000
0.000000
-0.000000
-0.000000
-0.000000
-0.000000
-0.000000
-0.000000
0.000000
0.000000
0.000000
0.000000
-0.000000
0.000000
0.000000
0.000000
-0.000000
0.000000
0.000000
0.000000
-0.000000
0.000000
-0.000000
0.000000
0.000000
0.000000
0.000000
0.000000
0.000000
-0.000000
-0.000000
0.000000
0.000000
-0.000000
-0.000000
0.000000
-0.000000
0.000000
0.000000
-0.000000
0.000000
-0.000000
-0.000000
-0.000000
0.000000
0.000000
0.000000
0.000000
-0.000000
-0.000000
0.000000
-0.000000
-0.000000
0.000000
0.000000
0.000000
-0.000000
0.000000
0.000000
-0.000000
-0.000000
-0.000000
-0.000000
0.000000
0.000000
-0.000000
-0.000000
-0.000000
-0.000000
0.000000
0.000000
0.000000
0.000000
0.000000
0.000000
-0.000000
0.000000
-0.000000
0.000000
0.000000
0.000000
-0.000000
-0.000000
-0.000000
0.000000
0.000000
-0.000000
-0.000000
-0.000000
-0.000000
-0.000000
-0.000000
0.000000
-0.000000
0.000000
-0.000000
0.000000
-0.000000
0.000000
-0.000000
0.000000
-0.000000
0.000000
0.000000
0.000000
0.000000
0.000000
0.000000
0.000000
0.000000
-0.000000
0.000000
-0.000000
-0.000000
-0.000000
0.000000
0.000000
0.000000
0.000000
-0.000000
0.000000
-0.000000
0.000000
0.000000
-0.000000
-0.000000
0.000000
0.000000
0.000000
0.000000
0.000000
0.000000
0.000000
0.000000
0.000000
-0.000000
-0.000000
-0.000000
0.000000
0.000000
0.000000
-0.000000
0.000000
0.000000
-0.000000
0.000000
0.000000
-0.000000
-0.000000
0.000000
-0.000000
-0.000000
0.000000
0.000000
0.000000
0.000000
-0.000000
0.000000
0.000000
0.000000
-0.000000
0.000000
-0.000000
-0.000000
0.000000
-0.000000
-0.000000
-0.000000
0.000000
0.000000
-0.000000
0.000000
0.000000
0.000000
-0.000000
-0.000000
-0.000000
0.000000
-0.000000
-0.000000
0.000000
0.000000
-0.000000
-0.000000
0.000000
-0.000000
0.000000
0.000000
-0.000000
0.000000
0.000000
0.000000
-0.000000
0.000000
-0.000000
-0.000000
-0.000000
0.000000
-0.000000
0.000000
-0.000000
0.000000
0.000000
0.000000
0.000000
0.000000
0.000000
0.000000
0.000000
-0.000000
-0.000000
-0.000000
-0.000000
0.000000
-0.000000
-0.000000
0.000000
-0.000000
-0.000000
-0.000000
0.000000
-0.000000
-0.000000
-0.000000
-0.000000
-0.000000
-0.000000
-0.000000
-0.000000
-0.000000
0.000000
-0.000000
0.000000
0.000000
0.000000
-0.000000
0.000000
0.000000
0.000000
0.000000
-0.000000
-0.000000
0.000000
-0.000000
0.000000
-0.000000
-0.000000
-0.000000
-0.000000
-0.000000
0.000000
0.000000
0.000000
0.000000
0.000000
-0.000000
-0.000000
-0.000000
-0.000000
-0.000000
-0.000000
0.000000
0.000000
0.000000
0.000000
-0.000000
-0.000000
0.000000
-0.000000
0.000000
0.000000
0.000000
-0.000000
-0.000000
0.000000
0.000000
0.000000
0.000000
0.000000
0.000000
0.000000
0.000000
-0.000000
0.000000
-0.000000
0.000000
-0.000000
0.000000
-0.000000
-0.000000
0.000000
0.000000
-0.000000
-0.000000
-0.000000
0.000000
0.000000
-0.000000
0.000000
0.000000
0.000000
-0.000000
-0.000000
-0.000000
-0.000000
0.000000
-0.000000
-0.000000
0.000000
-0.000000
0.000000
-0.000000
0.000000
0.000000
0.000000
-0.000000
0.000000
0.000000
0.000000
-0.000000
-0.000000
-0.000000
0.000000
0.000000
-0.000000
0.000000
-0.000000
-0.000000
0.000000
-0.000000
0.000000
-0.000000
-0.000000
-0.000000
-0.000000
-0.000000
-0.000000
-0.000000
-0.000000
0.000000
0.000000
0.000000
0.000000
0.000000
0.000000
0.000000
-0.000000
0.000000
0.000000
0.000000
0.000000
-0.000000
0.000000
-0.000000
0.000000
0.000000
0.000000
-0.000000
-0.000000
-0.000000
-0.000000
-0.000000
-0.000000
0.000000
-0.000000
0.000000
0.000000
-0.000000
0.000000
0.000000
0.000000
-0.000000
0.000000
0.000000
-0.000000
0.000000
-0.000000
0.000000
-0.000000
-0.000000
-0.000000
0.000000
0.000000
0.000000
-0.000000
-0.000000
-0.000000
-0.000000
0.000000
-0.000000
0.000000
-0.000000
-0.000000
0.000000
-0.000000
0.000000
-0.000000
0.000000
0.000000
0.000000
-0.000000
0.000000
-0.000000
0.000000
-0.000000
-0.000000
-0.000000
-0.000000
0.000000
0.000000
0.000000
0.000000
0.000000
-0.000000
-0.000000
0.000000
0.000000
0.000000
0.000000
-0.000000
0.000000
0.000000
-0.000000
0.000000
0.000000
-0.000000
-0.000000
0.000000
0.000000
0.000000
-0.000000
-0.000000
0.000000
0.000000
0.000000
0.000000
-0.000000
0.000000
0.000000
0.000000
0.000000
0.000000
-0.000000
-0.000000
-0.000000
0.000000
0.000000
-0.000000
0.000000
-0.000000
-0.000000
0.000000
0.000000
-0.000000
0.000000
0.000000
0.000000
-0.000000
-0.000000
-0.000000
-0.000000
0.000000
0.000000
-0.000000
0.000000
0.000000
-0.000000
0.000000
-0.000000
-0.000000
-0.000000
-0.000000
-0.000000
0.000000
-0.000000
-0.000000
0.000000
-0.000000
0.000000
0.000000
-0.000000
-0.000000
-0.000000
-0.000000
-0.000000
-0.000000
-0.000000
0.000000
-0.000000
0.000000
0.000000
-0.000000
0.000000
0.000000
-0.000000
-0.000000
0.000000
0.000000
0.000000
-0.000000
-0.000000
-0.000000
0.000000
-0.000000
0.000000
0.000000
0.000000
0.000000
-0.000000
0.000000
0.000000
-0.000000
0.000000
0.000000
-0.000000
0.000000
-0.000000
0.000000
-0.000000
-0.000000
-0.000000
-0.000000
-0.000000
0.000000
0.000000
-0.000000
-0.000000
0.000000
-0.000000
-0.000000
0.000000
-0.000000
-0.000000
0.000000
-0.000000
-0.000000
0.000000
-0.000000
0.000000
0.000000
-0.000000
-0.000000
0.000000
-0.000000
-0.000000
-0.000000
0.000000
0.000000
-0.000000
-0.000000
-0.000000
-0.000000
-0.000000
0.000000
-0.000000
-0.000000
0.000000
0.000000
0.000000
-0.000000
-0.000000
0.000000
0.000000
-0.000000
-0.000000
0.000000
-0.000000
-0.000000
-0.000000
0.000000
-0.000000
-0.000000
-0.000000
0.000000
0.000000
0.000000
0.000000
0.000000
-0.000000
-0.000000
0.000000
0.000000
-0.000000
0.000000
-0.000000
0.000000
0.000000
0.000000
-0.000000
0.000000
-0.000000
0.000000
-0.000000
-0.000000
0.000000
0.000000
0.000000
-0.000000
0.000000
0.000000
0.000000
0.000000
0.000000
-0.000000
-0.000000
-0.000000
0.000000
-0.000000
0.000000
-0.000000
0.000000
0.000000
-0.000000
-0.000000
-0.000000
0.000000
0.000000
-0.000000
0.000000
0.000000
0.000000
-0.000000
0.000000
0.000000
0.000000
-0.000000
-0.000000
0.000000
0.000000
0.000000
-0.000000
0.000000
0.000000
-0.000000
-0.000000
-0.000000
-0.000000
0.000000
0.000000
-0.000000
0.000000
0.000000
-0.000000
-0.000000
0.000000
-0.000000
-0.000000
-0.000000
-0.000000
0.000000
-0.000000
0.000000
0.000000
0.000000
0.000000
0.000000
0.000000
-0.000000
-0.000000
-0.000000
-0.000000
-0.000000
0.000000
-0.000000
0.000000
0.000000
0.000000
-0.000000
0.000000
0.000000
0.000000
0.000000
-0.000000
0.000000
0.000000
-0.000000
-0.000000
-0.000000
0.000000
0.000000
0.000000
0.000000
-0.000000
0.000000
0.000000
-0.000000
-0.000000
-0.000000
-0.000000
-0.000000
0.000000
-0.000000
-0.000000
-0.000000
-0.000000
-0.000000
0.000000
-0.000000
-0.000000
0.000000
-0.000000
0.000000
0.000000
-0.000000
-0.000000
-0.000000
-0.000000
-0.000000
0.000000
-0.000000
-0.000000
0.000000
0.000000
-0.000000
0.000000
0.000000
-0.000000
0.000000
-0.000000
-0.000000
0.000000
-0.000000
-0.000000
-0.000000
0.000000
0.000000
-0.000000
-0.000000
-0.000000
-0.000000
-0.000000
0.000000
0.000000
-0.000000
-0.000000
-0.000000
0.000000
0.000000
-0.000000
0.000000
0.000000
0.000000
0.000000
-0.000000
0.000000
-0.000000
-0.000000
0.000000
0.000000
0.000000
0.000000
0.000000
-0.000000
-0.000000
-0.000000
-0.000000
-0.000000
0.000000
-0.000000
0.000000
0.000000
0.000000
0.000000
0.000000
0.000000
-0.000000
-0.000000
-0.000000
-0.000000
0.000000
0.000000
0.000000
0.000000
0.000000
0.000000
0.000000
-0.000000
0.000000
0.000000
0.000000
0.000000
-0.000000
0.000000
0.000000
0.000000
0.000000
0.000000
0.000000
0.000000
-0.000000
-0.000000
-0.000000
0.000000
-0.000000
-0.000000
0.000000
0.000000
0.000000
0.000000
-0.000000
-0.000000
-0.000000
0.000000
-0.000000
0.000000
0.000000
0.000000
0.000000
0.000000
0.000000
0.000000
-0.000000
-0.000000
-0.000000
0.000000
-0.000000
-0.000000
-0.000000
0.000000
-0.000000
-0.000000
-0.000000
-0.000000
-0.000000
0.000000
-0.000000
0.000000
-0.000000
0.000000
-0.000000
0.000000
0.000000
-0.000000
0.000000
0.000000
0.000000
-0.000000
0.000000
0.000000
0.000000
0.000000
0.000000
-0.000000
-0.000000
-0.000000
0.000000
0.000000
-0.000000
-0.000000
0.000000
-0.000000
0.000000
-0.000000
-0.000000
-0.000000
-0.000000
0.000000
-0.000000
0.000000
0.000000
-0.000000
-0.000000
0.000000
0.000000
-0.000000
-0.000000
0.000000
-0.000000
-0.000000
-0.000000
0.000000
0.000000
0.000000
-0.000000
-0.000000
-0.000000
-0.000000
-0.000000
0.000000
0.000000
-0.000000
0.000000
-0.000000
-0.000000
-0.000000
0.000000
-0.000000
-0.000000
-0.000000
0.000000
-0.000000
-0.000000
-0.000000
-0.000000
-0.000000
0.000000
0.000000
0.000000
0.000000
-0.000000
-0.000000
-0.000000
-0.000000
0.000000
-0.000000
0.000000
0.000000
0.000000
-0.000000
0.000000
-0.000000
-0.000000
-0.000000
0.000000
-0.000000
0.000000
-0.000000
-0.000000
0.000000
-0.000000
-0.000000
-0.000000
0.000000
-0.000000
0.000000
0.000000
0.000000
-0.000000
0.000000
0.000000
-0.000000
-0.000000
0.000000
-0.000000
-0.000000
-0.000000
-0.000000
0.000000
-0.000000
0.000000
-0.000000
-0.000000
-0.000000
-0.000000
-0.000000
-0.000000
0.000000
-0.000000
-0.000000
0.000000
0.000000
0.000000
0.000000
0.000000
-0.000000
-0.000000
0.000000
0.000000
-0.000000
-0.000000
-0.000000
-0.000000
-0.000000
0.000000
0.000000
-0.000000
-0.000000
-0.000000
-0.000000
-0.000000
0.000000
-0.000000
-0.000000
-0.000000
0.000000
0.000000
-0.000000
0.000000
0.000000
-0.000000
-0.000000
-0.000000
-0.000000
-0.000000
-0.000000
0.000000
0.000000
-0.000000
-0.000000
0.000000
0.000000
-0.000000
-0.000000
-0.000000
0.000000
-0.000000
-0.000000
0.000000
0.000000
-0.000000
-0.000000
0.000000
0.000000
-0.000000
0.000000
-0.000000
-0.000000
-0.000000
-0.000000
-0.000000
-0.000000
0.000000
0.000000
-0.000000
-0.000000
0.000000
0.000000
0.000000
0.000000
-0.000000
0.000000
0.000000
-0.000000
-0.000000
0.000000
0.000000
0.000000
0.000000
0.000000
-0.000000
-0.000000
-0.000000
0.000000
-0.000000
-0.000000
-0.000000
-0.000000
0.000000
0.000000
-0.000000
0.000000
0.000000
0.000000
-0.000000
0.000000
-0.000000
-0.000000
0.000000
-0.000000
0.000000
-0.000000
0.000000
0.000000
-0.000000
-0.000000
0.000000
0.000000
-0.000000
-0.000000
0.000000
-0.000000
-0.000000
0.000000
0.000000
0.000000
0.000000
-0.000000
-0.000000
-0.000000
-0.000000
-0.000000
0.000000
-0.000000
0.000000
0.000000
0.000000
0.000000
-0.000000
0.000000
-0.000000
-0.000000
-0.000000
0.000000
0.000000
-0.000000
0.000000
0.000000
0.000000
0.000000
0.000000
-0.000000
-0.000000
0.000000
0.000000
0.000000
0.000000
-0.000000
-0.000000
-0.000000
0.000000
0.000000
0.000000
-0.000000
-0.000000
0.000000
-0.000000
0.000000
-0.000000
0.000000
-0.000000
0.000000
-0.000000
0.000000
-0.000000
0.000000
0.000000
0.000000
-0.000000
-0.000000
0.000000
-0.000000
0.000000
0.000000
-0.000000
0.000000
-0.000000
-0.000000
-0.000000
-0.000000
0.000000
-0.000000
-0.000000
-0.000000
-0.000000
-0.000000
0.000000
-0.000000
-0.000000
-0.000000
0.000000
-0.000000
-0.000000
0.000000
0.000000
-0.000000
0.000000
-0.000000
-0.000000
-0.000000
-0.000000
0.000000
-0.000000
-0.000000
0.000000
-0.000000
-0.000000
0.000000
0.000000
0.000000
-0.000000
0.000000
-0.000000
-0.000000
0.000000
0.000000
-0.000000
-0.000000
-0.000000
0.000000
-0.000000
-0.000000
-0.000000
-0.000000
0.000000
-0.000000
0.000000
0.000000
0.000000
0.000000
-0.000000
0.000000
0.000000
-0.000000
0.000000
0.000000
0.000000
0.000000
0.000000
-0.000000
0.000000
0.000000
0.000000
0.000000
0.000000
0.000000
-0.000000
0.000000
-0.000000
0.000000
0.000000
-0.000000
-0.000000
-0.000000
0.000000
-0.000000
-0.000000
-0.000000
0.000000
0.000000
0.000000
-0.000000
-0.000000
-0.000000
0.000000
-0.000000
0.000000
0.000000
0.000000
0.000000
-0.000000
0.000000
0.000000
0.000000
0.000000
0.000000
0.000000
-0.000000
-0.000000
-0.000000
0.000000
-0.000000
0.000000
0.000000
-0.000000
-0.000000
0.000000
0.000000
-0.000000
-0.000000
-0.000000
-0.000000
0.000000
0.000000
0.000000
-0.000000
-0.000000
0.000000
0.000000
0.000000
0.000000
0.000000
-0.000000
0.000000
0.000000
0.000000
-0.000000
-0.000000
0.000000
-0.000000
0.000000
-0.000000
-0.000000
-0.000000
-0.000000
-0.000000
0.000000
0.000000
0.000000
0.000000
0.000000
0.000000
-0.000000
-0.000000
0.000000
0.000000
0.000000
-0.000000
0.000000
0.000000
0.000000
0.000000
0.000000
-0.000000
0.000000
0.000000
0.000000
-0.000000
-0.000000
0.000000
0.000000
0.000000
-0.000000
-0.000000
0.000000
-0.000000
-0.000000
0.000000
0.000000
-0.000000
-0.000000
-0.000000
-0.000000
0.000000
-0.000000
0.000000
-0.000000
-0.000000
0.000000
0.000000
0.000000
0.000000
0.000000
-0.000000
-0.000000
0.000000
0.000000
-0.000000
-0.000000
-0.000000
0.000000
-0.000000
-0.000000
0.000000
0.000000
-0.000000
-0.000000
-0.000000
-0.000000
0.000000
0.000000
0.000000
-0.000000
-0.000000
-0.000000
-0.000000
-0.000000
0.000000
0.000000
0.000000
0.000000
-0.000000
0.000000
-0.000000
-0.000000
0.000000
-0.000000
-0.000000
0.000000
0.000000
0.000000
-0.000000
0.000000
0.000000
0.000000
-0.000000
-0.000000
-0.000000
0.000000
-0.000000
0.000000
-0.000000
0.000000
0.000000
0.000000
-0.000000
0.000000
0.000000
-0.000000
-0.000000
-0.000000
-0.000000
0.000000
0.000000
0.000000
0.000000
0.000000
-0.000000
-0.000000
0.000000
0.000000
0.000000
0.000000
0.000000
0.000000
0.000000
0.000000
0.000000
0.000000
-0.000000
0.000000
0.000000
0.000000
0.000000
0.000000
0.000000
0.000000
0.000000
0.000000
-0.000000
-0.000000
-0.000000
0.000000
-0.000000
-0.000000
0.000000
-0.000000
-0.000000
-0.000000
0.000000
0.000000
-0.000000
-0.000000
0.000000
-0.000000
0.000000
0.000000
-0.000000
0.000000
0.000000
0.000000
0.000000
-0.000000
-0.000000
0.000000
-0.000000
0.000000
-0.000000
-0.000000
0.000000
0.000000
-0.000000
-0.000000
0.000000
0.000000
0.000000
0.000000
0.000000
0.000000
0.000000
0.000000
0.000000
0.000000
-0.000000
0.000000
0.000000
-0.000000
0.000000
0.000000
0.000000
-0.000000
-0.000000
-0.000000
0.000000
-0.000000
-0.000000
-0.000000
-0.000000
0.000000
0.000000
0.000000
-0.000000
-0.000000
0.000000
-0.000000
-0.000000
-0.000000
-0.000000
-0.000000
-0.000000
-0.000000
0.000000
-0.000000
-0.000000
-0.000000
-0.000000
-0.000000
-0.000000
-0.000000
-0.000000
0.000000
0.000000
-0.000000
0.000000
-0.000000
-0.000000
0.000000
0.000000
0.000000
0.000000
0.000000
0.000000
0.000000
-0.000000
0.000000
-0.000000
-0.000000
-0.000000
-0.000000
-0.000000
-0.000000
0.000000
0.000000
-0.000000
-0.000000
-0.000000
-0.000000
0.000000
-0.000000
-0.000000
0.000000
0.000000
0.000000
0.000000
-0.000000
-0.000000
0.000000
-0.000000
0.000000
0.000000
0.000000
0.000000
-0.000000
0.000000
-0.000000
0.000000
-0.000000
-0.000000
0.000000
0.000000
0.000000
-0.000000
0.000000
-0.000000
-0.000000
0.000000
-0.000000
-0.000000
-0.000000
-0.000000
0.000000
-0.000000
-0.000000
0.000000
0.000000
0.000000
0.000000
0.000000
0.000000
0.000000
-0.000000
-0.000000
-0.000000
0.000000
0.000000
0.000000
-0.000000
0.000000
-0.000000
-0.000000
0.000000
-0.000000
-0.000000
0.000000
0.000000
0.000000
-0.000000
-0.000000
-0.000000
0.000000
-0.000000
-0.000000
0.000000
0.000000
-0.000000
0.000000
0.000000
-0.000000
-0.000000
0.000000
-0.000000
-0.000000
-0.000000
-0.000000
0.000000
-0.000000
-0.000000
-0.000000
-0.000000
0.000000
0.000000
-0.000000
-0.000000
0.000000
0.000000
0.000000
0.000000
0.000000
-0.000000
-0.000000
-0.000000
-0.000000
-0.000000
-0.000000
-0.000000
0.000000
-0.000000
0.000000
-0.000000
-0.000000
0.000000
0.000000
0.000000
0.000000
0.000000
0.000000
0.000000
0.000000
0.000000
0.000000
-0.000000
-0.000000
0.000000
-0.000000
-0.000000
0.000000
-0.000000
0.000000
-0.000000
0.000000
-0.000000
0.000000
-0.000000
-0.000000
0.000000
-0.000000
0.000000
-0.000000
-0.000000
0.000000
0.000000
0.000000
0.000000
-0.000000
0.000000
0.000000
0.000000
0.000000
0.000000
0.000000
0.000000
0.000000
-0.000000
-0.000000
0.000000
0.000000
0.000000
0.000000
0.000000
0.000000
0.000000
0.000000
0.000000
0.000000
-0.000000
-0.000000
-0.000000
0.000000
0.000000
0.000000
0.000000
-0.000000
0.000000
-0.000000
-0.000000
0.000000
0.000000
0.000000
-0.000000
-0.000000
-0.000000
-0.000000
0.000000
0.000000
0.000000
-0.000000
0.000000
0.000000
0.000000
0.000000
-0.000000
-0.000000
-0.000000
0.000000
0.000000
0.000000
-0.000000
-0.000000
-0.000000
-0.000000
-0.000000
-0.000000
0.000000
-0.000000
0.000000
0.000000
0.000000
0.000000
0.000000
-0.000000
-0.000000
0.000000
-0.000000
-0.000000
-0.000000
0.000000
-0.000000
0.000000
-0.000000
-0.000000
-0.000000
-0.000000
0.000000
0.000000
-0.000000
-0.000000
0.000000
0.000000
0.000000
0.000000
0.000000
0.000000
-0.000000
0.000000
0.000000
0.000000
0.000000
0.000000
-0.000000
-0.000000
0.000000
-0.000000
-0.000000
-0.000000
0.000000
-0.000000
-0.000000
-0.000000
0.000000
-0.000000
0.000000
-0.000000
-0.000000
-0.000000
0.000000
0.000000
0.000000
0.000000
-0.000000
-0.000000
-0.000000
-0.000000
-0.000000
-0.000000
0.000000
0.000000
-0.000000
-0.000000
-0.000000
0.000000
0.000000
-0.000000
0.000000
0.000000
0.000000
0.000000
0.000000
0.000000
0.000000
-0.000000
-0.000000
-0.000000
-0.000000
0.000000
-0.000000
-0.000000
0.000000
0.000000
-0.000000
-0.000000
-0.000000
0.000000
0.000000
-0.000000
0.000000
-0.000000
0.000000
0.000000
0.000000
0.000000
0.000000
-0.000000
0.000000
-0.000000
0.000000
-0.000000
0.000000
0.000000
-0.000000
0.000000
-0.000000
-0.000000
-0.000000
0.000000
0.000000
0.000000
0.000000
0.000000
-0.000000
0.000000
0.000000
-0.000000
-0.000000
-0.000000
-0.000000
0.000000
0.000000
0.000000
-0.000000
-0.000000
-0.000000
-0.000000
-0.000000
-0.000000
0.000000
-0.000000
-0.000000
-0.000000
-0.000000
0.000000
0.000000
0.000000
0.000000
-0.000000
-0.000000
-0.000000
-0.000000
-0.000000
-0.000000
0.000000
-0.000000
0.000000
-0.000000
-0.000000
0.000000
0.000000
0.000000
-0.000000
0.000000
-0.000000
-0.000000
0.000000
0.000000
-0.000000
-0.000000
-0.000000
0.000000
0.000000
-0.000000
0.000000
0.000000
-0.000000
-0.000000
0.000000
-0.000000
0.000000
-0.000000
0.000000
0.000000
0.000000
0.000000
-0.000000
0.000000
-0.000000
-0.000000
-0.000000
0.000000
-0.000000
0.000000
0.000000
0.000000
0.000000
0.000000
0.000000
0.000000
-0.000000
-0.000000
-0.000000
0.000000
0.000000
-0.000000
0.000000
0.000000
0.000000
0.000000
-0.000000
0.000000
0.000000
-0.000000
-0.000000
-0.000000
0.000000
0.000000
0.000000
0.000000
-0.000000
0.000000
0.000000
0.000000
-0.000000
-0.000000
-0.000000
0.000000
-0.000000
-0.000000
0.000000
-0.000000
-0.000000
0.000000
0.000000
0.000000
-0.000000
-0.000000
0.000000
0.000000
-0.000000
-0.000000
-0.000000
0.000000
-0.000000
-0.000000
-0.000000
-0.000000
0.000000
-0.000000
-0.000000
-0.000000
0.000000
-0.000000
0.000000
-0.000000
-0.000000
0.000000
-0.000000
-0.000000
-0.000000
0.000000
-0.000000
-0.000000
0.000000
-0.000000
-0.000000
-0.000000
-0.000000
-0.000000
0.000000
-0.000000
-0.000000
0.000000
0.000000
-0.000000
0.000000
-0.000000
-0.000000
0.000000
0.000000
0.000000
0.000000
0.000000
-0.000000
-0.000000
-0.000000
-0.000000
0.000000
-0.000000
0.000000
0.000000
0.000000
-0.000000
-0.000000
-0.000000
-0.000000
0.000000
-0.000000
0.000000
0.000000
-0.000000
-0.000000
0.000000
0.000000
-0.000000
-0.000000
-0.000000
-0.000000
-0.000000
-0.000000
0.000000
-0.000000
0.000000
-0.000000
0.000000
-0.000000
0.000000
0.000000
-0.000000
0.000000
0.000000
0.000000
-0.000000
-0.000000
-0.000000
0.000000
-0.000000
0.000000
0.000000
-0.000000
0.000000
-0.000000
-0.000000
-0.000000
-0.000000
0.000000
0.000000
-0.000000
-0.000000
0.000000
-0.000000
0.000000
0.000000
-0.000000
0.000000
-0.000000
-0.000000
-0.000000
-0.000000
-0.000000
-0.000000
0.000000
0.000000
0.000000
0.000000
-0.000000
0.000000
0.000000
-0.000000
0.000000
0.000000
0.000000
-0.000000
0.000000
-0.000000
0.000000
-0.000000
0.000000
-0.000000
-0.000000
-0.000000
-0.000000
0.000000
0.000000
-0.000000
0.000000
-0.000000
-0.000000
0.000000
0.000000
0.000000
0.000000
0.000000
-0.000000
0.000000
-0.000000
-0.000000
-0.000000
0.000000
-0.000000
0.000000
-0.000000
0.000000
-0.000000
0.000000
-0.000000
-0.000000
-0.000000
0.000000
0.000000
0.000000
-0.000000
0.000000
0.000000
0.000000
-0.000000
0.000000
-0.000000
-0.000000
0.000000
0.000000
0.000000
0.000000
0.000000
0.000000
-0.000000
-0.000000
0.000000
0.000000
0.000000
0.000000
0.000000
0.000000
0.000000
-0.000000
0.000000
-0.000000
-0.000000
-0.000000
0.000000
-0.000000
-0.000000
-0.000000
0.000000
0.000000
-0.000000
-0.000000
0.000000
0.000000
0.000000
0.000000
-0.000000
0.000000
-0.000000
-0.000000
0.000000
0.000000
0.000000
0.000000
0.000000
-0.000000
-0.000000
-0.000000
-0.000000
-0.000000
-0.000000
0.000000
0.000000
-0.000000
-0.000000
0.000000
-0.000000
0.000000
-0.000000
-0.000000
0.000000
-0.000000
0.000000
0.000000
0.000000
0.000000
-0.000000
-0.000000
0.000000
0.000000
-0.000000
0.000000
0.000000
0.000000
-0.000000
0.000000
0.000000
0.000000
-0.000000
-0.000000
0.000000
0.000000
0.000000
-0.000000
-0.000000
-0.000000
0.000000
-0.000000
0.000000
0.000000
0.000000
-0.000000
0.000000
-0.000000
0.000000
0.000000
0.000000
-0.000000
-0.000000
0.000000
0.000000
-0.000000
0.000000
0.000000
0.000000
-0.000000
-0.000000
0.000000
-0.000000
0.000000
0.000000
0.000000
-0.000000
0.000000
0.000000
-0.000000
-0.000000
-0.000000
-0.000000
-0.000000
-0.000000
0.000000
-0.000000
0.000000
-0.000000
-0.000000
0.000000
-0.000000
-0.000000
-0.000000
0.000000
-0.000000
0.000000
-0.000000
-0.000000
-0.000000
-0.000000
-0.000000
-0.000000
0.000000
-0.000000
-0.000000
-0.000000
0.000000
-0.000000
-0.000000
-0.000000
-0.000000
0.000000
0.000000
0.000000
-0.000000
0.000000
-0.000000
0.000000
0.000000
-0.000000
0.000000
0.000000
0.000000
0.000000
0.000000
-0.000000
-0.000000
0.000000
-0.000000
-0.000000
0.000000
0.000000
-0.000000
0.000000
-0.000000
0.000000
-0.000000
-0.000000
-0.000000
0.000000
0.000000
-0.000000
0.000000
0.000000
-0.000000
0.000000
-0.000000
-0.000000
0.000000
-0.000000
0.000000
-0.000000
0.000000
-0.000000
-0.000000
0.000000
0.000000
0.000000
0.000000
0.000000
-0.000000
0.000000
0.000000
0.000000
-0.000000
-0.000000
-0.000000
-0.000000
-0.000000
0.000000
-0.000000
-0.000000
-0.000000
-0.000000
-0.000000
-0.000000
-0.000000
0.000000
-0.000000
0.000000
0.000000
0.000000
-0.000000
0.000000
0.000000
-0.000000
-0.000000
-0.000000
0.000000
-0.000000
0.000000
-0.000000
0.000000
-0.000000
0.000000
-0.000000
0.000000
0.000000
0.000000
-0.000000
-0.000000
-0.000000
-0.000000
0.000000
0.000000
-0.000000
0.000000
-0.000000
0.000000
-0.000000
-0.000000
0.000000
-0.000000
-0.000000
-0.000000
0.000000
0.000000
0.000000
0.000000
0.000000
-0.000000
0.000000
0.000000
-0.000000
-0.000000
0.000000
0.000000
-0.000000
-0.000000
-0.000000
-0.000000
0.000000
-0.000000
0.000000
-0.000000
0.000000
-0.000000
-0.000000
-0.000000
-0.000000
0.000000
0.000000
0.000000
0.000000
0.000000
0.000000
0.000000
0.000000
-0.000000
-0.000000
0.000000
0.000000
0.000000
-0.000000
0.000000
0.000000
-0.000000
-0.000000
0.000000
-0.000000
0.000000
-0.000000
0.000000
0.000000
-0.000000
0.000000
0.000000
0.000000
0.000000
0.000000
-0.000000
-0.000000
0.000000
0.000000
0.000000
-0.000000
-0.000000
-0.000000
0.000000
-0.000000
-0.000000
0.000000
-0.000000
-0.000000
-0.000000
-0.000000
0.000000
0.000000
0.000000
-0.000000
0.000000
-0.000000
-0.000000
-0.000000
-0.000000
0.000000
0.000000
-0.000000
0.000000
-0.000000
0.000000
0.000000
-0.000000
-0.000000
0.000000
-0.000000
-0.000000
-0.000000
-0.000000
-0.000000
0.000000
0.000000
0.000000
-0.000000
-0.000000
0.000000
-0.000000
-0.000000
0.000000
0.000000
0.000000
-0.000000
0.000000
-0.000000
0.000000
0.000000
-0.000000
-0.000000
0.000000
-0.000000
-0.000000
0.000000
-0.000000
-0.000000
-0.000000
0.000000
-0.000000
0.000000
0.000000
0.000000
0.000000
-0.000000
-0.000000
0.000000
-0.000000
-0.000000
-0.000000
0.000000
-0.000000
-0.000000
0.000000
0.000000
-0.000000
0.000000
-0.000000
0.000000
-0.000000
-0.000000
0.000000
-0.000000
0.000000
-0.000000
-0.000000
0.000000
0.000000
0.000000
-0.000000
0.000000
0.000000
-0.000000
0.000000
0.000000
0.000000
-0.000000
0.000000
0.000000
0.000000
-0.000000
0.000000
0.000000
0.000000
0.000000
0.000000
0.000000
-0.000000
-0.000000
-0.000000
0.000000
0.000000
-0.000000
0.000000
-0.000000
0.000000
-0.000000
0.000000
-0.000000
0.000000
0.000000
-0.000000
0.000000
-0.000000
-0.000000
0.000000
0.000000
-0.000000
-0.000000
0.000000
0.000000
-0.000000
-0.000000
-0.000000
0.000000
0.000000
0.000000
-0.000000
0.000000
0.000000
0.000000
0.000000
0.000000
-0.000000
-0.000000
0.000000
0.000000
-0.000000
0.000000
-0.000000
0.000000
0.000000
-0.000000
-0.000000
-0.000000
-0.000000
0.000000
-0.000000
-0.000000
-0.000000
0.000000
-0.000000
-0.000000
-0.000000
-0.000000
-0.000000
0.000000
-0.000000
0.000000
0.000000
-0.000000
0.000000
0.000000
0.000000
-0.000000
-0.000000
0.000000
0.000000
-0.000000
0.000000
-0.000000
-0.000000
-0.000000
0.000000
0.000000
-0.000000
0.000000
-0.000000
0.000000
0.000000
-0.000000
0.000000
0.000000
-0.000000
0.000000
0.000000
-0.000000
0.000000
0.000000
0.000000
-0.000000
0.000000
-0.000000
0.000000
-0.000000
0.000000
-0.000000
-0.000000
0.000000
-0.000000
-0.000000
0.000000
-0.000000
0.000000
0.000000
0.000000
-0.000000
0.000000
-0.000000
0.000000
0.000000
-0.000000
-0.000000
-0.000000
-0.000000
-0.000000
-0.000000
-0.000000
-0.000000
0.000000
0.000000
-0.000000
0.000000
0.000000
0.000000
0.000000
0.000000
0.000000
-0.000000
0.000000
0.000000
-0.000000
-0.000000
0.000000
-0.000000
-0.000000
-0.000000
0.000000
0.000000
-0.000000
-0.000000
0.000000
-0.000000
0.000000
-0.000000
0.000000
0.000000
0.000000
-0.000000
-0.000000
-0.000000
0.000000
-0.000000
0.000000
0.000000
0.000000
-0.000000
-0.000000
0.000000
-0.000000
-0.000000
-0.000000
-0.000000
-0.000000
0.000000
-0.000000
-0.000000
0.000000
0.000000
-0.000000
-0.000000
-0.000000
0.000000
0.000000
0.000000
-0.000000
-0.000000
0.000000
-0.000000
-0.000000
-0.000000
-0.000000
0.000000
0.000000
0.000000
0.000000
0.000000
0.000000
-0.000000
0.000000
-0.000000
0.000000
-0.000000
-0.000000
0.000000
0.000000
-0.000000
-0.000000
0.000000
0.000000
-0.000000
-0.000000
-0.000000
0.000000
0.000000
-0.000000
0.000000
-0.000000
0.000000
-0.000000
0.000000
0.000000
-0.000000
0.000000
-0.000000
-0.000000
0.000000
-0.000000
0.000000
0.000000
-0.000000
0.000000
0.000000
-0.000000
-0.000000
-0.000000
-0.000000
0.000000
0.000000
-0.000000
0.000000
0.000000
0.000000
0.000000
0.000000
-0.000000
0.000000
-0.000000
-0.000000
0.000000
-0.000000
0.000000
-0.000000
-0.000000
0.000000
-0.000000
-0.000000
0.000000
0.000000
0.000000
0.000000
0.000000
-0.000000
-0.000000
-0.000000
-0.000000
-0.000000
0.000000
-0.000000
-0.000000
0.000000
0.000000
0.000000
0.000000
0.000000
0.000000
-0.000000
0.000000
-0.000000
0.000000
0.000000
-0.000000
0.000000
-0.000000
-0.000000
0.000000
0.000000
-0.000000
-0.000000
0.000000
0.000000
0.000000
0.000000
0.000000
-0.000000
-0.000000
0.000000
-0.000000
-0.000000
0.000000
-0.000000
-0.000000
-0.000000
0.000000
0.000000
0.000000
-0.000000
-0.000000
0.000000
0.000000
0.000000
-0.000000
0.000000
-0.000000
0.000000
-0.000000
0.000000
0.000000
0.000000
-0.000000
-0.000000
0.000000
0.000000
-0.000000
0.000000
0.000000
0.000000
0.000000
0.000000
-0.000000
-0.000000
-0.000000
-0.000000
0.000000
0.000000
-0.000000
0.000000
0.000000
0.000000
0.000000
0.000000
-0.000000
0.000000
-0.000000
-0.000000
-0.000000
-0.000000
0.000000
0.000000
-0.000000
0.000000
0.000000
0.000000
-0.000000
0.000000
0.000000
-0.000000
-0.000000
-0.000000
-0.000000
-0.000000
0.000000
0.000000
0.000000
0.000000
0.000000
0.000000
-0.000000
-0.000000
0.000000
0.000000
-0.000000
0.000000
0.000000
0.000000
0.000000
0.000000
0.000000
-0.000000
0.000000
-0.000000
0.000000
0.000000
0.000000
0.000000
0.000000
-0.000000
0.000000
-0.000000
-0.000000
0.000000
0.000000
0.000000
0.000000
0.000000
-0.000000
-0.000000
-0.000000
0.000000
-0.000000
-0.000000
-0.000000
-0.000000
0.000000
0.000000
0.000000
-0.000000
0.000000
-0.000000
-0.000000
0.000000
-0.000000
0.000000
-0.000000
0.000000
-0.000000
-0.000000
0.000000
-0.000000
-0.000000
-0.000000
-0.000000
-0.000000
-0.000000
-0.000000
-0.000000
0.000000
0.000000
0.000000
0.000000
-0.000000
-0.000000
0.000000
0.000000
-0.000000
0.000000
-0.000000
0.000000
0.000000
-0.000000
0.000000
-0.000000
0.000000
-0.000000
-0.000000
0.000000
0.000000
-0.000000
0.000000
-0.000000
-0.000000
-0.000000
-0.000000
-0.000000
-0.000000
0.000000
-0.000000
-0.000000
0.000000
-0.000000
0.000000
0.000000
-0.000000
0.000000
-0.000000
-0.000000
0.000000
-0.000000
0.000000
-0.000000
-0.000000
-0.000000
0.000000
-0.000000
0.000000
-0.000000
-0.000000
-0.000000
0.000000
0.000000
-0.000000
0.000000
0.000000
0.000000
0.000000
-0.000000
-0.000000
0.000000
0.000000
0.000000
0.000000
-0.000000
0.000000
-0.000000
0.000000
-0.000000
-0.000000
0.000000
0.000000
0.000000
-0.000000
0.000000
-0.000000
0.000000
0.000000
-0.000000
-0.000000
0.000000
0.000000
-0.000000
-0.000000
-0.000000
-0.000000
-0.000000
0.000000
0.000000
0.000000
-0.000000
0.000000
-0.000000
-0.000000
-0.000000
0.000000
0.000000
-0.000000
-0.000000
-0.000000
0.000000
0.000000
0.000000
0.000000
0.000000
-0.000000
-0.000000
-0.000000
0.000000
-0.000000
0.000000
-0.000000
-0.000000
-0.000000
-0.000000
0.000000
0.000000
-0.000000
-0.000000
0.000000
-0.000000
-0.000000
0.000000
CELL_DATA 8828
TENSORS STRESS float
0.021666 -0.005939 0.000000
-0.005939 -0.008266 0.000000
0.000000 0.000000 0.000000
0.017164 -0.008848 0.000000
-0.008848 0.001012 0.000000
0.000000 0.000000 0.000000
0.008956 -0.001480 0.000000
-0.001480 0.032392 0.000000
0.000000 0.000000 0.000000
0.016258 -0.001085 0.000000
-0.001085 0.031995 0.000000
0.000000 0.000000 0.000000
0.012246 -0.003947 0.000000
-0.003947 0.003217 0.000000
0.000000 0.000000 0.000000
0.003076 0.006428 0.000000
0.006428 0.003537 0.000000
0.000000 0.000000 0.000000
-0.006448 0.002979 0.000000
0.002979 -0.007456 0.000000
0.000000 0.000000 0.000000
0.011511 -0.010868 0.000000
-0.010868 0.002592 0.000000
0.000000 0.000000 0.000000
0.010112 0.005000 0.000000
0.005000 0.018122 0.000000
0.000000 0.000000 0.000000
-0.016959 0.016365 0.000000
0.016365 -0.011584 0.000000
0.000000 0.000000 0.000000
-0.001458 -0.000684 0.000000
-0.000684 0.008856 0.000000
0.000000 0.000000 0.000000
0.010165 0.000418 0.000000
0.000418 0.005107 0.000000
0.000000 0.000000 0.000000
-0.006201 0.001228 0.000000
0.001228 -0.004330 0.000000
0.000000 0.000000 0.000000
-0.026244 0.013261 0.000000
0.013261 0.002876 0.000000
0.000000 0.000000 0.000000
0.001836 -0.002640 0.000000
-0.002640 0.002143 0.000000
0.000000 0.000000 0.000000
-0.001004 -0.011463 0.000000
-0.011463 0.023291 0.000000
0.000000 0.000000 0.000000
0.004715 -0.001288 0.000000
-0.001288 -0.005734 0.000000
0.000000 0.000000 0.000000
-0.010444 -0.002041 0.000000
-0.002041 -0.001186 0.000000
0.000000 0.000000 0.000000
0.013052 0.003233 0.000000
0.003233 0.019863 0.000000
0.000000 0.000000 0.000000
0.012463 0.003247 0.000000
0.003247 0.023004 0.000000
0.000000 0.000000 0.000000
-0.014214 -0.004591 0.000000
-0.004591 0.021005 0.000000
0.000000 0.000000 0.000000
-0.010559 0.003269 0.000000
0.003269 0.023673 0.000000
0.000000 0.000000 0.000000
-0.009824 -0.015831 0.000000
-0.015831 -0.011945 0.000000
0.000000 0.000000 0.000000
0.016141 0.005986 0.000000
0.005986 -0.012688 0.000000
0.000000 0.000000 0.000000
0.013652 -0.001328 0.000000
-0.001328 0.028000 0.000000
0.000000 0.000000 0.000000
0.008968 -0.008351 0.000000
-0.008351 0.020577 0.000000
0.000000 0.000000 0.000000
0.005143 -0.003910 0.000000
-0.003910 0.005322 0.000000
0.000000 0.000000 0.000000
0.010757 -0.002347 0.000000
-0.002347 0.006327 0.000000
0.000000 0.000000 0.000000
-0.009508 -0.003598 0.000000
-0.003598 -0.005585 0.000000
0.000000 0.000000 0.000000
-0.029896 0.008758 0.000000
0.008758 -0.031195 0.000000
0.000000 0.000000 0.000000
0.000116 0.006063 0.000000
0.006063 0.010061 0.000000
0.000000 0.000000 0.000000
-0.003174 -0.000595 0.000000
-0.000595 0.006580 0.000000
0.000000 0.000000 0.000000
-0.004554 0.001911 0.000000
0.001911 -0.015151 0.000000
0.000000 0.000000 0.000000
-0.001257 0.000679 0.000000
0.000679 -0.005071 0.000000
0.000000 0.000000 0.000000
0.005875 0.005534 0.000000
0.005534 0.020666 0.000000
0.000000 0.000000 0.000000
0.007043 0.008129 0.000000
0.008129 0.025484 0.000000
0.000000 0.000000 0.000000
-0.000510 -0.006734 0.000000
-0.006734 -0.021310 0.000000
0.000000 0.000000 0.000000
0.004063 -0.002242 0.000000
-0.002242 -0.004153 0.000000
0.000000 0.000000 0.000000
-0.012600 0.010557 0.000000
0.010557 -0.007936 0.000000
0.000000 0.000000 0.000000
-0.004120 -0.000429 0.000000
-0.000429 0.001358 0.000000
0.000000 0.000000 0.000000
0.011498 -0.004150 0.000000
-0.004150 0.005319 0.000000
0.000000 0.000000 0.000000
0.016390 -0.005156 0.000000
-0.005156 -0.024736 0.000000
0.000000 0.000000 0.000000
0.005852 -0.005652 0.000000
-0.005652 0.003571 0.000000
0.000000 0.000000 0.000000
-0.006408 -0.000222 0.000000
-0.000222 0.006714 0.000000
0.000000 0.000000 0.000000
0.003512 -0.001665 0.000000
-0.001665 -0.018711 0.000000
0.000000 0.000000 0.000000
0.013033 -0.005316 0.000000
-0.005316 0.003623 0.000000
0.000000 0.000000 0.000000
0.022279 0.008387 0.000000
0.008387 0.035368 0.000000
0.000000 0.000000 0.000000
-0.027052 0.018359 0.000000
0.018359 -0.017902 0.000000
0.000000 0.000000 0.000000
-0.000444 -0.003640 0.000000
-0.003640 -0.013837 0.000000
0.000000 0.000000 0.000000
0.004426 0.006286 0.000000
0.006286 -0.009713 0.000000
0.000000 0.000000 0.000000
0.016414 0.001422 0.000000
0.001422 0.012358 0.000000
0.000000 0.000000 0.000000
-0.006605 -0.012282 0.000000
-0.012282 0.007707 0.000000
0.000000 0.000000 0.000000
-0.021741 0.003284 0.000000
0.003284 0.000618 0.000000
0.000000 0.000000 0.000000
0.013809 0.006063 0.000000
0.006063 0.007320 0.000000
0.000000 0.000000 0.000000
-0.034436 0.010326 0.000000
0.010326 0.009071 0.000000
0.000000 0.000000 0.000000
0.014330 0.001707 0.000000
0.001707 0.001077 0.000000
0.000000 0.000000 0.000000
0.010314 -0.000959 0.000000
-0.000959 0.021267 0.000000
0.000000 0.000000 0.000000
0.020859 0.019706 0.000000
0.019706 -0.009051 0.000000
0.000000 0.000000 0.000000
0.016403 -0.003630 0.000000
-0.003630 -0.009013 0.000000
0.000000 0.000000 0.000000
0.004743 -0.000266 0.000000
-0.000266 0.001657 0.000000
0.000000 0.000000 0.000000
-0.014600 0.017535 0.000000
0.017535 -0.003589 0.000000
0.000000 0.000000 0.000000
-0.007073 -0.000496 0.000000
-0.000496 0.008290 0.000000
0.000000 0.000000 0.000000
-0.000430 -0.000635 0.000000
-0.000635 -0.014433 0.000000
0.000000 0.000000 0.000000
0.008598 -0.003256 0.000000
-0.003256 0.005041 0.000000
0.000000 0.000000 0.000000
-0.011255 0.001196 0.000000
0.001196 0.023408 0.000000
0.000000 0.000000 0.000000
0.011800 -0.002769 0.000000
-0.002769 0.028411 0.000000
0.000000 0.000000 0.000000
-0.028268 0.004060 0.000000
0.004060 -0.007617 0.000000
0.000000 0.000000 0.000000
0.011016 -0.001806 0.000000
-0.001806 0.033627 0.000000
0.000000 0.000000 0.000000
-0.001732 -0.002678 0.000000
-0.002678 -0.009222 0.000000
0.000000 0.000000 0.000000
-0.031929 -0.028009 0.000000
-0.028009 0.009987 0.000000
0.000000 0.000000 0.000000
-0.022028 0.007560 0.000000
0.007560 0.008589 0.000000
0.000000 0.000000 0.000000
0.015537 0.002650 0.000000
0.002650 0.004228 0.000000
0.000000 0.000000 0.000000
0.024231 0.009286 0.000000
0.009286 0.029322 0.000000
0.000000 0.000000 0.000000
-0.000027 0.005042 0.000000
0.005042 0.014671 0.000000
0.000000 0.000000 0.000000
-0.008803 0.013544 0.000000
0.013544 -0.004197 0.000000
0.000000 0.000000 0.000000
0.015770 -0.001522 0.000000
-0.001522 0.014293 0.000000
0.000000 0.000000 0.000000
-0.020186 -0.001546 0.000000
-0.001546 -0.002308 0.000000
0.000000 0.000000 0.000000
-0.010241 -0.003305 0.000000
-0.003305 0.001155 0.000000
0.000000 0.000000 0.000000
0.002041 0.004315 0.000000
0.004315 0.007300 0.000000
0.000000 0.000000 0.000000
0.017009 0.023034 0.000000
0.023034 0.018380 0.000000
0.000000 0.000000 0.000000
-0.004080 -0.007910 0.000000
-0.007910 -0.004081 0.000000
0.000000 0.000000 0.000000
0.002831 0.002557 0.000000
0.002557 0.017456 0.000000
0.000000 0.000000 0.000000
0.006770 -0.006102 0.000000
-0.006102 0.007676 0.000000
0.000000 0.000000 0.000000
-0.003532 -0.000157 0.000000
-0.000157 0.000519 0.000000
0.000000 0.000000 0.000000
-0.022283 -0.007688 0.000000
-0.007688 0.009831 0.000000
0.000000 0.000000 0.000000
-0.027922 -0.005052 0.000000
-0.005052 -0.007963 0.000000
0.000000 0.000000 0.000000
0.004198 -0.002393 0.000000
-0.002393 -0.005296 0.000000
0.000000 0.000000 0.000000
0.009874 0.004593 0.000000
0.004593 -0.004638 0.000000
0.000000 0.000000 0.000000
-0.017784 -0.005972 0.000000
-0.005972 -0.000785 0.000000
0.000000 0.000000 0.000000
0.009693 -0.003210 0.000000
-0.003210 -0.003202 0.000000
0.000000 0.000000 0.000000
0.021367 -0.038766 0.000000
-0.038766 0.052760 0.000000
0.000000 0.000000 0.000000
0.002796 -0.001129 0.000000
-0.001129 0.016708 0.000000
0.000000 0.000000 0.000000
-0.005172 -0.004381 0.000000
-0.004381 -0.003175 0.000000
0.000000 0.000000 0.000000
-0.000482 -0.024790 0.000000
-0.024790 0.005411 0.000000
0.000000 0.000000 0.000000
-0.024040 0.006976 0.000000
0.006976 0.012935 0.000000
0.000000 0.000000 0.000000
0.026485 0.006076 0.000000
0.006076 0.004665 0.000000
0.000000 0.000000 0.000000
-0.032896 0.012194 0.000000
0.012194 -0.008840 0.000000
0.000000 0.000000 0.000000
-0.013543 -0.010263 0.000000
-0.010263 -0.011656 0.000000
0.000000 0.000000 0.000000
-0.022207 -0.011831 0.000000
-0.011831 -0.003483 0.000000
0.000000 0.000000 0.000000
0.003722 0.002893 0.000000
0.002893 0.008984 0.000000
0.000000 0.000000 0.000000
-0.015568 0.010913 0.000000
0.010913 -0.029383 0.000000
0.000000 0.000000 0.000000
-0.006138 -0.002075 0.000000
-0.002075 -0.019121 0.000000
0.000000 0.000000 0.000000
0.014211 0.004050 0.000000
0.004050 0.015270 0.000000
0.000000 0.000000 0.000000
-0.014102 0.007068 0.000000
0.007068 0.034036 0.000000
0.000000 0.000000 0.000000
0.021560 -0.013706 0.000000
-0.013706 0.050562 0.000000
0.000000 0.000000 0.000000
-0.005477 -0.000441 0.000000
-0.000441 0.009399 0.000000
0.000000 0.000000 0.000000
0.001197 0.006629 0.000000
0.006629 0.037376 0.000000
0.000000 0.000000 0.000000
0.008438 0.003155 0.000000
0.003155 0.007353 0.000000
0.000000 0.000000 0.000000
-0.005132 0.004659 0.000000
0.004659 0.004538 0.000000
0.000000 0.000000 0.000000
-0.031289 -0.011501 0.000000
-0.011501 -0.000682 0.000000
0.000000 0.000000 0.000000
-0.012560 0.018181 0.000000
0.018181 -0.007738 0.000000
0.000000 0.000000 0.000000
-0.004342 0.003684 0.000000
0.003684 -0.003404 0.000000
0.000000 0.000000 0.000000
0.018425 -0.002790 0.000000
-0.002790 0.022595 0.000000
0.000000 0.000000 0.000000
0.022222 -0.004299 0.000000
-0.004299 -0.028771 0.000000
0.000000 0.000000 0.000000
0.004666 0.001065 0.000000
0.001065 -0.002297 0.000000
0.000000 0.000000 0.000000
0.003001 -0.006671 0.000000
-0.006671 0.012791 0.000000
0.000000 0.000000 0.000000
0.013816 0.000206 0.000000
0.000206 0.025338 0.000000
0.000000 0.000000 0.000000
0.007405 -0.007133 0.000000
-0.007133 -0.011060 0.000000
0.000000 0.000000 0.000000
-0.004639 -0.010954 0.000000
-0.010954 -0.005790 0.000000
0.000000 0.000000 0.000000
0.003747 0.004958 0.000000
0.004958 -0.002310 0.000000
0.000000 0.000000 0.000000
0.022313 -0.002869 0.000000
-0.002869 -0.004908 0.000000
0.000000 0.000000 0.000000
0.013679 0.004634 0.000000
0.004634 0.035644 0.000000
0.000000 0.000000 0.000000
0.018655 0.001963 0.000000
0.001963 0.039471 0.000000
0.000000 0.000000 0.000000
0.004946 0.005734 0.000000
0.005734 0.002698 0.000000
0.000000 0.000000 0.000000
-0.004582 0.000724 0.000000
0.000724 0.008778 0.000000
0.000000 0.000000 0.000000
-0.007257 0.011906 0.000000
0.011906 0.003486 0.000000
0.000000 0.000000 0.000000
-0.009071 0.000927 0.000000
0.000927 -0.009127 0.000000
0.000000 0.000000 0.000000
0.026789 0.001717 0.000000
0.001717 -0.002288 0.000000
0.000000 0.000000 0.000000
-0.009547 -0.003600 0.000000
-0.003600 -0.000582 0.000000
0.000000 0.000000 0.000000
-0.006423 0.011562 0.000000
0.011562 0.005158 0.000000
0.000000 0.000000 0.000000
0.007658 -0.003859 0.000000
-0.003859 -0.001412 0.000000
0.000000 0.000000 0.000000
-0.003632 -0.003790 0.000000
-0.003790 -0.001460 0.000000
0.000000 0.000000 0.000000
0.000104 0.009575 0.000000
0.009575 -0.000282 0.000000
0.000000 0.000000 0.000000
0.017974 0.001708 0.000000
0.001708 0.006524 0.000000
0.000000 0.000000 0.000000
0.003070 0.006996 0.000000
0.006996 -0.001166 0.000000
0.000000 0.000000 0.000000
0.001723 0.009515 0.000000
0.009515 0.005287 0.000000
0.000000 0.000000 0.000000
0.010692 -0.002723 0.000000
-0.002723 0.003174 0.000000
0.000000 0.000000 0.000000
-0.005585 0.002243 0.000000
0.002243 0.006381 0.000000
0.000000 0.000000 0.000000
-0.008347 -0.005453 0.000000
-0.005453 0.001481 0.000000
0.000000 0.000000 0.000000
-0.009647 -0.002581 0.000000
-0.002581 0.000354 0.000000
0.000000 0.000000 0.000000
-0.007995 0.000512 0.000000
0.000512 0.008907 0.000000
0.000000 0.000000 0.000000
0.006616 0.001595 0.000000
0.001595 -0.007733 0.000000
0.000000 0.000000 0.000000
-0.006502 0.001642 0.000000
0.001642 0.003107 0.000000
0.000000 0.000000 0.000000
0.005783 0.003065 0.000000
0.003065 -0.009199 0.000000
0.000000 0.000000 0.000000
0.033645 0.024942 0.000000
0.024942 0.082533 0.000000
0.000000 0.000000 0.000000
-0.025766 0.012661 0.000000
0.012661 0.061885 0.000000
0.000000 0.000000 0.000000
-0.004223 -0.002947 0.000000
-0.002947 0.000730 0.000000
0.000000 0.000000 0.000000
-0.010099 -0.003876 0.000000
-0.003876 -0.001280 0.000000
0.000000 0.000000 0.000000
0.004027 -0.003884 0.000000
-0.003884 0.005262 0.000000
0.000000 0.000000 0.000000
0.008582 -0.000219 0.000000
-0.000219 0.012412 0.000000
0.000000 0.000000 0.000000
0.005900 -0.001025 0.000000
-0.001025 -0.002582 0.000000
0.000000 0.000000 0.000000
0.010757 -0.000510 0.000000
-0.000510 0.010165 0.000000
0.000000 0.000000 0.000000
0.003541 0.002296 0.000000
0.002296 -0.019000 0.000000
0.000000 0.000000 0.000000
-0.003873 -0.001124 0.000000
-0.001124 -0.012854 0.000000
0.000000 0.000000 0.000000
0.005898 0.003177 0.000000
0.003177 -0.000249 0.000000
0.000000 0.000000 0.000000
0.001222 -0.004581 0.000000
-0.004581 -0.024050 0.000000
0.000000 0.000000 0.000000
-0.010738 0.005754 0.000000
0.005754 0.000306 0.000000
0.000000 0.000000 0.000000
0.009626 -0.000428 0.000000
-0.000428 0.015702 0.000000
0.000000 0.000000 0.000000
0.007154 0.001277 0.000000
0.001277 0.013761 0.000000
0.000000 0.000000 0.000000
0.010024 0.002187 0.000000
0.002187 0.007604 0.000000
0.000000 0.000000 0.000000
-0.008763 0.005710 0.000000
0.005710 0.000287 0.000000
0.000000 0.000000 0.000000
0.013141 -0.006775 0.000000
-0.006775 0.021307 0.000000
0.000000 0.000000 0.000000
0.008100 -0.016440 0.000000
-0.016440 -0.007975 0.000000
0.000000 0.000000 0.000000
0.007433 0.006169 0.000000
0.006169 0.006881 0.000000
0.000000 0.000000 0.000000
-0.009509 -0.025841 0.000000
-0.025841 0.017028 0.000000
0.000000 0.000000 0.000000
-0.024907 -0.002816 0.000000
-0.002816 -0.016837 0.000000
0.000000 0.000000 0.000000
-0.021873 -0.011172 0.000000
-0.011172 -0.008340 0.000000
0.000000 0.000000 0.000000
-0.016016 -0.008429 0.000000
-0.008429 0.008808 0.000000
0.000000 0.000000 0.000000
0.019623 -0.001685 0.000000
-0.001685 0.004752 0.000000
0.000000 0.000000 0.000000
0.027739 0.014472 0.000000
0.014472 0.017095 0.000000
0.000000 0.000000 0.000000
-0.001992 -0.001370 0.000000
-0.001370 -0.004111 0.000000
0.000000 0.000000 0.000000
0.011523 0.008240 0.000000
0.008240 -0.006970 0.000000
0.000000 0.000000 0.000000
-0.003860 -0.007954 0.000000
-0.007954 -0.001182 0.000000
0.000000 0.000000 0.000000
-0.018864 0.001189 0.000000
0.001189 -0.010190 0.000000
0.000000 0.000000 0.000000
0.016177 -0.010149 0.000000
-0.010149 -0.001297 0.000000
0.000000 0.000000 0.000000
-0.021810 -0.011231 0.000000
-0.011231 -0.011475 0.000000
0.000000 0.000000 0.000000
-0.038143 -0.014192 0.000000
-0.014192 -0.012307 0.000000
0.000000 0.000000 0.000000
-0.010226 -0.011699 0.000000
-0.011699 0.000304 0.000000
0.000000 0.000000 0.000000
0.009631 -0.003958 0.000000
-0.003958 -0.012621 0.000000
0.000000 0.000000 0.000000
-0.005814 0.013820 0.000000
0.013820 -0.005889 0.000000
0.000000 0.000000 0.000000
-0.005911 0.000031 0.000000
0.000031 -0.003056 0.000000
0.000000 0.000000 0.000000
0.002254 0.027316 0.000000
0.027316 0.010337 0.000000
0.000000 0.000000 0.000000
0.013087 0.020149 0.000000
0.020149 0.019661 0.000000
0.000000 0.000000 0.000000
0.011739 0.001417 0.000000
0.001417 0.020687 0.000000
0.000000 0.000000 0.000000
0.011026 0.002072 0.000000
0.002072 0.025862 0.000000
0.000000 0.000000 0.000000
-0.010245 0.005320 0.000000
0.005320 -0.011597 0.000000
0.000000 0.000000 0.000000
0.002995 -0.005323 0.000000
-0.005323 -0.004995 0.000000
0.000000 0.000000 0.000000
0.011655 0.001953 0.000000
0.001953 0.023025 0.000000
0.000000 0.000000 0.000000
0.011688 0.000605 0.000000
0.000605 0.020752 0.000000
0.000000 0.000000 0.000000
-0.006579 0.010311 0.000000
0.010311 0.004180 0.000000
0.000000 0.000000 0.000000
0.007848 0.006565 0.000000
0.006565 0.007370 0.000000
0.000000 0.000000 0.000000
0.016214 -0.002596 0.000000
-0.002596 -0.006806 0.000000
0.000000 0.000000 0.000000
0.004954 -0.010577 0.000000
-0.010577 -0.013018 0.000000
0.000000 0.000000 0.000000
0.013390 0.000015 0.000000
0.000015 0.015819 0.000000
0.000000 0.000000 0.000000
0.007999 0.003894 0.000000
0.003894 -0.010516 0.000000
0.000000 0.000000 0.000000
0.030646 0.011260 0.000000
0.011260 0.017847 0.000000
0.000000 0.000000 0.000000
0.024632 0.006685 0.000000
0.006685 0.006617 0.000000
0.000000 0.000000 0.000000
0.022465 -0.010303 0.000000
-0.010303 0.028795 0.000000
0.000000 0.000000 0.000000
-0.006951 -0.003501 0.000000
-0.003501 -0.027994 0.000000
0.000000 0.000000 0.000000
-0.006470 0.003430 0.000000
0.003430 -0.013285 0.000000
0.000000 0.000000 0.000000
-0.032615 0.004093 0.000000
0.004093 -0.013183 0.000000
0.000000 0.000000 0.000000
0.011064 0.009720 0.000000
0.009720 -0.000603 0.000000
0.000000 0.000000 0.000000
-0.008593 0.015584 0.000000
0.015584 -0.003543 0.000000
0.000000 0.000000 0.000000
-0.026426 -0.006421 0.000000
-0.006421 0.008185 0.000000
0.000000 0.000000 0.000000
0.009015 -0.019289 0.000000
-0.019289 -0.014314 0.000000
0.000000 0.000000 0.000000
-0.001135 0.020383 0.000000
0.020383 0.010413 0.000000
0.000000 0.000000 0.000000
0.002986 -0.015708 0.000000
-0.015708 -0.034139 0.000000
0.000000 0.000000 0.000000
0.027253 -0.010904 0.000000
-0.010904 0.001505 0.000000
0.000000 0.000000 0.000000
-0.005369 0.000500 0.000000
0.000500 -0.017956 0.000000
0.000000 0.000000 0.000000
0.018245 -0.008274 0.000000
-0.008274 -0.000279 0.000000
0.000000 0.000000 0.000000
0.001680 -0.002822 0.000000
-0.002822 0.004818 0.000000
0.000000 0.000000 0.000000
0.000236 0.003112 0.000000
0.003112 -0.013607 0.000000
0.000000 0.000000 0.000000
0.008778 -0.000704 0.000000
-0.000704 0.004256 0.000000
0.000000 0.000000 0.000000
-0.005739 0.013110 0.000000
0.013110 0.025069 0.000000
0.000000 0.000000 0.000000
0.003116 -0.003966 0.000000
-0.003966 -0.009163 0.000000
0.000000 0.000000 0.000000
0.008474 -0.008656 0.000000
-0.008656 -0.009140 0.000000
0.000000 0.000000 0.000000
-0.004200 0.009507 0.000000
0.009507 0.028798 0.000000
0.000000 0.000000 0.000000
-0.006089 0.011732 0.000000
0.011732 0.023043 0.000000
0.000000 0.000000 0.000000
0.008951 0.004461 0.000000
0.004461 0.006553 0.000000
0.000000 0.000000 0.000000
-0.011085 0.000126 0.000000
0.000126 -0.022908 0.000000
0.000000 0.000000 0.000000
0.003511 0.003320 0.000000
0.003320 0.002655 0.000000
0.000000 0.000000 0.000000
-0.004028 -0.000285 0.000000
-0.000285 -0.019426 0.000000
0.000000 0.000000 0.000000
-0.018167 0.001845 0.000000
0.001845 -0.016318 0.000000
0.000000 0.000000 0.000000
-0.001560 0.001641 0.000000
0.001641 -0.004511 0.000000
0.000000 0.000000 0.000000
0.008067 -0.007741 0.000000
-0.007741 0.006371 0.000000
0.000000 0.000000 0.000000
0.009062 -0.008951 0.000000
-0.008951 -0.025509 0.000000
0.000000 0.000000 0.000000
-0.008240 -0.002341 0.000000
-0.002341 -0.016825 0.000000
0.000000 0.000000 0.000000
0.008381 -0.014413 0.000000
-0.014413 -0.010778 0.000000
0.000000 0.000000 0.000000
0.010841 0.000103 0.000000
0.000103 0.008015 0.000000
0.000000 0.000000 0.000000
0.008055 -0.001292 0.000000
-0.001292 0.006964 0.000000
0.000000 0.000000 0.000000
-0.000182 0.003016 0.000000
0.003016 0.001478 0.000000
0.000000 0.000000 0.000000
0.012771 0.007242 0.000000
0.007242 0.029701 0.000000
0.000000 0.000000 0.000000
0.008290 -0.002213 0.000000
-0.002213 0.001030 0.000000
0.000000 0.000000 0.000000
0.004028 0.000332 0.000000
0.000332 0.015657 0.000000
0.000000 0.000000 0.000000
-0.009551 -0.002582 0.000000
-0.002582 -0.016882 0.000000
0.000000 0.000000 0.000000
-0.039773 0.014844 0.000000
0.014844 -0.014282 0.000000
0.000000 0.000000 0.000000
-0.008566 0.004509 0.000000
0.004509 -0.010945 0.000000
0.000000 0.000000 0.000000
-0.002807 0.001099 0.000000
0.001099 -0.003772 0.000000
0.000000 0.000000 0.000000
-0.009164 -0.008879 0.000000
-0.008879 -0.001939 0.000000
0.000000 0.000000 0.000000
0.002159 -0.001581 0.000000
-0.001581 0.022528 0.000000
0.000000 0.000000 0.000000
0.015411 -0.004145 0.000000
-0.004145 -0.005756 0.000000
0.000000 0.000000 0.000000
0.003154 -0.009896 0.000000
-0.009896 0.002052 0.000000
0.000000 0.000000 0.000000
0.014638 0.007252 0.000000
0.007252 -0.011057 0.000000
0.000000 0.000000 0.000000
-0.013916 -0.021203 0.000000
-0.021203 -0.001423 0.000000
0.000000 0.000000 0.000000
-0.015313 -0.017266 0.000000
-0.017266 0.017699 0.000000
0.000000 0.000000 0.000000
-0.001556 0.002777 0.000000
0.002777 -0.005141 0.000000
0.000000 0.000000 0.000000
0.006825 0.000176 0.000000
0.000176 -0.027662 0.000000
0.000000 0.000000 0.000000
-0.007953 -0.003481 0.000000
-0.003481 0.001783 0.000000
0.000000 0.000000 0.000000
0.037146 -0.003813 0.000000
-0.003813 0.010902 0.000000
0.000000 0.000000 0.000000
-0.022079 -0.009571 0.000000
-0.009571 -0.004102 0.000000
0.000000 0.000000 0.000000
-0.002519 -0.013917 0.000000
-0.013917 0.001553 0.000000
0.000000 0.000000 0.000000
-0.018916 0.000592 0.000000
0.000592 -0.009133 0.000000
0.000000 0.000000 0.000000
-0.008296 -0.006742 0.000000
-0.006742 0.005941 0.000000
0.000000 0.000000 0.000000
-0.004410 0.004928 0.000000
0.004928 0.013433 0.000000
0.000000 0.000000 0.000000
-0.007296 0.009094 0.000000
0.009094 -0.001019 0.000000
0.000000 0.000000 0.000000
-0.006292 0.014391 0.000000
0.014391 0.007163 0.000000
0.000000 0.000000 0.000000
-0.016235 0.010244 0.000000
0.010244 -0.004028 0.000000
0.000000 0.000000 0.000000
0.007363 0.012857 0.000000
0.012857 -0.005918 0.000000
0.000000 0.000000 0.000000
-0.013173 0.009224 0.000000
0.009224 -0.011744 0.000000
0.000000 0.000000 0.000000
-0.009174 0.011746 0.000000
0.011746 -0.006657 0.000000
0.000000 0.000000 0.000000
0.008106 0.015375 0.000000
0.015375 0.018095 0.000000
0.000000 0.000000 0.000000
0.010398 0.002908 0.000000
0.002908 0.014489 0.000000
0.000000 0.000000 0.000000
-0.004671 -0.000121 0.000000
-0.000121 0.009314 0.000000
0.000000 0.000000 0.000000
-0.009094 0.006742 0.000000
0.006742 -0.008591 0.000000
0.000000 0.000000 0.000000
-0.003388 0.005383 0.000000
0.005383 0.009810 0.000000
0.000000 0.000000 0.000000
0.009388 -0.005239 0.000000
-0.005239 0.009810 0.000000
0.000000 0.000000 0.000000
0.000181 0.000818 0.000000
0.000818 -0.004362 0.000000
0.000000 0.000000 0.000000
0.001611 -0.004438 0.000000
-0.004438 -0.001498 0.000000
0.000000 0.000000 0.000000
-0.012930 -0.006219 0.000000
-0.006219 -0.025882 0.000000
0.000000 0.000000 0.000000
-0.018166 0.001122 0.000000
0.001122 -0.037279 0.000000
0.000000 0.000000 0.000000
-0.000200 -0.003712 0.000000
-0.003712 0.027684 0.000000
0.000000 0.000000 0.000000
-0.019182 -0.015989 0.000000
-0.015989 0.000871 0.000000
0.000000 0.000000 0.000000
-0.003454 0.017616 0.000000
0.017616 0.012641 0.000000
0.000000 0.000000 0.000000
0.002085 0.003935 0.000000
0.003935 0.010708 0.000000
0.000000 0.000000 0.000000
0.012512 -0.006163 0.000000
-0.006163 -0.003474 0.000000
0.000000 0.000000 0.000000
-0.026868 -0.001199 0.000000
-0.001199 0.000338 0.000000
0.000000 0.000000 0.000000
0.032791 -0.013041 0.000000
-0.013041 0.014618 0.000000
0.000000 0.000000 0.000000
0.017333 -0.002021 0.000000
-0.002021 0.017651 0.000000
0.000000 0.000000 0.000000
0.006249 0.001872 0.000000
0.001872 0.014083 0.000000
0.000000 0.000000 0.000000
0.011375 0.014114 0.000000
0.014114 0.016140 0.000000
0.000000 0.000000 0.000000
-0.001026 0.008847 0.000000
0.008847 -0.003411 0.000000
0.000000 0.000000 0.000000
0.012957 0.004676 0.000000
0.004676 0.003216 0.000000
0.000000 0.000000 0.000000
-0.000367 -0.009652 0.000000
-0.009652 0.014810 0.000000
0.000000 0.000000 0.000000
0.034019 0.005928 0.000000
0.005928 0.014204 0.000000
0.000000 0.000000 0.000000
-0.006332 0.004985 0.000000
0.004985 -0.017142 0.000000
0.000000 0.000000 0.000000
0.004225 -0.000165 0.000000
-0.000165 -0.002703 0.000000
0.000000 0.000000 0.000000
-0.008454 0.002525 0.000000
0.002525 -0.022903 0.000000
0.000000 0.000000 0.000000
-0.018103 0.003044 0.000000
0.003044 -0.010426 0.000000
0.000000 0.000000 0.000000
-0.008821 -0.012354 0.000000
-0.012354 -0.020059 0.000000
0.000000 0.000000 0.000000
-0.002743 0.010351 0.000000
0.010351 0.001475 0.000000
0.000000 0.000000 0.000000
0.000046 0.015653 0.000000
0.015653 -0.021634 0.000000
0.000000 0.000000 0.000000
-0.018422 0.012828 0.000000
0.012828 -0.009659 0.000000
0.000000 0.000000 0.000000
0.017512 0.015309 0.000000
0.015309 0.005518 0.000000
0.000000 0.000000 0.000000
0.017539 0.014676 0.000000
0.014676 0.007386 0.000000
0.000000 0.000000 0.000000
-0.001866 0.004365 0.000000
0.004365 -0.003158 0.000000
0.000000 0.000000 0.000000
0.008676 -0.003989 0.000000
-0.003989 0.015636 0.000000
0.000000 0.000000 0.000000
-0.015294 0.002102 0.000000
0.002102 -0.018961 0.000000
0.000000 0.000000 0.000000
-0.017429 -0.001841 0.000000
-0.001841 -0.026865 0.000000
0.000000 0.000000 0.000000
-0.004601 -0.002684 0.000000
-0.002684 -0.005661 0.000000
0.000000 0.000000 0.000000
-0.010102 0.016957 0.000000
0.016957 0.004022 0.000000
0.000000 0.000000 0.000000
-0.009525 0.007433 0.000000
0.007433 -0.013018 0.000000
0.000000 0.000000 0.000000
-0.021673 0.004171 0.000000
0.004171 -0.024628 0.000000
0.000000 0.000000 0.000000
-0.025744 0.000853 0.000000
0.000853 -0.016574 0.000000
0.000000 0.000000 0.000000
0.053636 -0.005046 0.000000
-0.005046 -0.017646 0.000000
0.000000 0.000000 0.000000
-0.002261 0.001932 0.000000
0.001932 -0.004418 0.000000
0.000000 0.000000 0.000000
0.000576 0.005724 0.000000
0.005724 0.012451 0.000000
0.000000 0.000000 0.000000
-0.000938 0.001938 0.000000
0.001938 0.011775 0.000000
0.000000 0.000000 0.000000
-0.031015 -0.009453 0.000000
-0.009453 -0.005452 0.000000
0.000000 0.000000 0.000000
0.057995 -0.002319 0.000000
-0.002319 -0.002806 0.000000
0.000000 0.000000 0.000000
0.005918 0.001336 0.000000
0.001336 0.019528 0.000000
0.000000 0.000000 0.000000
-0.006557 -0.002549 0.000000
-0.002549 -0.028825 0.000000
0.000000 0.000000 0.000000
-0.022855 0.003164 0.000000
0.003164 -0.009399 0.000000
0.000000 0.000000 0.000000
-0.002835 0.002992 0.000000
0.002992 0.001234 0.000000
0.000000 0.000000 0.000000
-0.021759 -0.003144 0.000000
-0.003144 -0.006822 0.000000
0.000000 0.000000 0.000000
0.011350 0.002996 0.000000
0.002996 0.001823 0.000000
0.000000 0.000000 0.000000
0.008050 0.008451 0.000000
0.008451 -0.008055 0.000000
0.000000 0.000000 0.000000
0.011288 -0.003426 0.000000
-0.003426 -0.003135 0.000000
0.000000 0.000000 0.000000
-0.004386 0.003207 0.000000
0.003207 0.003305 0.000000
0.000000 0.000000 0.000000
0.000567 0.001024 0.000000
0.001024 -0.002045 0.000000
0.000000 0.000000 0.000000
-0.004086 0.001031 0.000000
0.001031 -0.017428 0.000000
0.000000 0.000000 0.000000
-0.018022 -0.002526 0.000000
-0.002526 -0.012042 0.000000
0.000000 0.000000 0.000000
0.007453 0.000469 0.000000
0.000469 0.000821 0.000000
0.000000 0.000000 0.000000
0.012711 0.002406 0.000000
0.002406 0.002153 0.000000
0.000000 0.000000 0.000000
0.042657 -0.002681 0.000000
-0.002681 0.008070 0.000000
0.000000 0.000000 0.000000
-0.007465 0.009460 0.000000
0.009460 -0.006180 0.000000
0.000000 0.000000 0.000000
0.006644 -0.004666 0.000000
-0.004666 -0.008935 0.000000
0.000000 0.000000 0.000000
0.000043 -0.000616 0.000000
-0.000616 -0.023863 0.000000
0.000000 0.000000 0.000000
0.042750 0.000250 0.000000
0.000250 0.022395 0.000000
0.000000 0.000000 0.000000
-0.011496 -0.019149 0.000000
-0.019149 -0.004359 0.000000
0.000000 0.000000 0.000000
-0.002374 -0.001975 0.000000
-0.001975 -0.016793 0.000000
0.000000 0.000000 0.000000
-0.001055 0.008390 0.000000
0.008390 -0.018377 0.000000
0.000000 0.000000 0.000000
-0.010774 0.015266 0.000000
0.015266 -0.014978 0.000000
0.000000 0.000000 0.000000
-0.003295 -0.002858 0.000000
-0.002858 -0.027793 0.000000
0.000000 0.000000 0.000000
-0.006078 -0.005257 0.000000
-0.005257 0.002732 0.000000
0.000000 0.000000 0.000000
0.000140 0.000248 0.000000
0.000248 0.003891 0.000000
0.000000 0.000000 0.000000
-0.006626 -0.004043 0.000000
-0.004043 -0.010738 0.000000
0.000000 0.000000 0.000000
0.002848 -0.002330 0.000000
-0.002330 0.009581 0.000000
0.000000 0.000000 0.000000
-0.008774 -0.001106 0.000000
-0.001106 -0.014582 0.000000
0.000000 0.000000 0.000000
-0.002567 0.000903 0.000000
0.000903 -0.003734 0.000000
0.000000 0.000000 0.000000
-0.012143 0.004134 0.000000
0.004134 -0.014321 0.000000
0.000000 0.000000 0.000000
-0.012115 -0.013097 0.000000
-0.013097 -0.020528 0.000000
0.000000 0.000000 0.000000
-0.013466 -0.014881 0.000000
-0.014881 -0.019049 0.000000
0.000000 0.000000 0.000000
-0.022174 0.001249 0.000000
0.001249 -0.033260 0.000000
0.000000 0.000000 0.000000
0.005150 -0.002889 0.000000
-0.002889 0.002775 0.000000
0.000000 0.000000 0.000000
-0.001093 -0.003042 0.000000
-0.003042 -0.005496 0.000000
0.000000 0.000000 0.000000
-0.010880 -0.008888 0.000000
-0.008888 -0.017732 0.000000
0.000000 0.000000 0.000000
-0.010127 0.008710 0.000000
0.008710 -0.004781 0.000000
0.000000 0.000000 0.000000
-0.011471 0.006407 0.000000
0.006407 -0.002013 0.000000
0.000000 0.000000 0.000000
0.022335 -0.004946 0.000000
-0.004946 -0.005600 0.000000
0.000000 0.000000 0.000000
-0.012056 0.008384 0.000000
0.008384 0.001068 0.000000
0.000000 0.000000 0.000000
0.007355 0.000053 0.000000
0.000053 -0.021768 0.000000
0.000000 0.000000 0.000000
0.004984 -0.001795 0.000000
-0.001795 -0.014130 0.000000
0.000000 0.000000 0.000000
-0.000820 0.001185 0.000000
0.001185 -0.009036 0.000000
0.000000 0.000000 0.000000
-0.004177 -0.008265 0.000000
-0.008265 0.004902 0.000000
0.000000 0.000000 0.000000
-0.014029 -0.005087 0.000000
-0.005087 -0.010245 0.000000
0.000000 0.000000 0.000000
-0.002935 -0.005889 0.000000
-0.005889 -0.013053 0.000000
0.000000 0.000000 0.000000
0.003775 -0.001943 0.000000
-0.001943 0.008672 0.000000
0.000000 0.000000 0.000000
0.005379 0.001979 0.000000
0.001979 0.005137 0.000000
0.000000 0.000000 0.000000
0.001603 -0.008989 0.000000
-0.008989 -0.009749 0.000000
0.000000 0.000000 0.000000
-0.006970 -0.009528 0.000000
-0.009528 -0.009446 0.000000
0.000000 0.000000 0.000000
-0.012156 -0.007740 0.000000
-0.007740 -0.023845 0.000000
0.000000 0.000000 0.000000
-0.001627 0.001305 0.000000
0.001305 0.006138 0.000000
0.000000 0.000000 0.000000
0.010650 0.009710 0.000000
0.009710 -0.001169 0.000000
0.000000 0.000000 0.000000
0.033042 0.004698 0.000000
0.004698 0.007933 0.000000
0.000000 0.000000 0.000000
-0.008712 -0.006099 0.000000
-0.006099 -0.015252 0.000000
0.000000 0.000000 0.000000
-0.005560 -0.012673 0.000000
-0.012673 0.001163 0.000000
0.000000 0.000000 0.000000
-0.004612 0.005602 0.000000
0.005602 -0.010171 0.000000
0.000000 0.000000 0.000000
-0.007422 0.008662 0.000000
0.008662 -0.007020 0.000000
0.000000 0.000000 0.000000
-0.008877 -0.004636 0.000000
-0.004636 -0.024256 0.000000
0.000000 0.000000 0.000000
-0.007163 0.004319 0.000000
0.004319 0.031768 0.000000
0.000000 0.000000 0.000000
0.002196 0.006122 0.000000
0.006122 -0.002900 0.000000
0.000000 0.000000 0.000000
-0.006657 0.001012 0.000000
0.001012 -0.011841 0.000000
0.000000 0.000000 0.000000
-0.005892 -0.000222 0.000000
-0.000222 -0.018384 0.000000
0.000000 0.000000 0.000000
-0.000692 -0.003559 0.000000
-0.003559 0.007640 0.000000
0.000000 0.000000 0.000000
0.008303 0.000815 0.000000
0.000815 0.014914 0.000000
0.000000 0.000000 0.000000
0.006121 0.000702 0.000000
0.000702 0.010401 0.000000
0.000000 0.000000 0.000000
0.000588 0.004233 0.000000
0.004233 -0.000815 0.000000
0.000000 0.000000 0.000000
0.007234 0.005277 0.000000
0.005277 0.015347 0.000000
0.000000 0.000000 0.000000
-0.026250 -0.005663 0.000000
-0.005663 -0.025236 0.000000
0.000000 0.000000 0.000000
-0.009465 -0.001980 0.000000
-0.001980 -0.024019 0.000000
0.000000 0.000000 0.000000
-0.007540 -0.002730 0.000000
-0.002730 -0.025435 0.000000
0.000000 0.000000 0.000000
0.011925 0.001322 0.000000
0.001322 0.012234 0.000000
0.000000 0.000000 0.000000
-0.007407 -0.007495 0.000000
-0.007495 -0.012153 0.000000
0.000000 0.000000 0.000000
-0.003470 -0.006851 0.000000
-0.006851 -0.018616 0.000000
0.000000 0.000000 0.000000
0.003431 -0.003989 0.000000
-0.003989 0.007363 0.000000
0.000000 0.000000 0.000000
0.012747 -0.013104 0.000000
-0.013104 -0.001970 0.000000
0.000000 0.000000 0.000000
-0.007664 0.012811 0.000000
0.012811 -0.010370 0.000000
0.000000 0.000000 0.000000
0.002436 -0.020307 0.000000
-0.020307 0.000703 0.000000
0.000000 0.000000 0.000000
-0.015033 -0.008935 0.000000
-0.008935 -0.006713 0.000000
0.000000 0.000000 0.000000
-0.011291 -0.000286 0.000000
-0.000286 0.008924 0.000000
0.000000 0.000000 0.000000
-0.005675 0.009145 0.000000
0.009145 -0.014830 0.000000
0.000000 0.000000 0.000000
0.010691 0.008238 0.000000
0.008238 -0.000498 0.000000
0.000000 0.000000 0.000000
-0.019159 -0.006505 0.000000
-0.006505 -0.021560 0.000000
0.000000 0.000000 0.000000
0.022057 -0.009314 0.000000
-0.009314 0.035028 0.000000
0.000000 0.000000 0.000000
-0.003210 0.007436 0.000000
0.007436 -0.010484 0.000000
0.000000 0.000000 0.000000
-0.016543 0.006122 0.000000
0.006122 -0.008518 0.000000
0.000000 0.000000 0.000000
-0.000346 -0.005945 0.000000
-0.005945 0.001961 0.000000
0.000000 0.000000 0.000000
-0.003301 0.008311 0.000000
0.008311 0.005478 0.000000
0.000000 0.000000 0.000000
0.002989 0.005545 0.000000
0.005545 -0.005255 0.000000
0.000000 0.000000 0.000000
0.002309 -0.005804 0.000000
-0.005804 0.029889 0.000000
0.000000 0.000000 0.000000
0.015277 0.006846 0.000000
0.006846 0.005938 0.000000
0.000000 0.000000 0.000000
0.003708 0.026381 0.000000
0.026381 -0.015226 0.000000
0.000000 0.000000 0.000000
0.047532 0.005725 0.000000
0.005725 0.011877 0.000000
0.000000 0.000000 0.000000
-0.003041 -0.005077 0.000000
-0.005077 0.000602 0.000000
0.000000 0.000000 0.000000
-0.014754 0.008152 0.000000
0.008152 -0.025625 0.000000
0.000000 0.000000 0.000000
-0.007469 0.011775 0.000000
0.011775 -0.019330 0.000000
0.000000 0.000000 0.000000
0.005796 0.001656 0.000000
0.001656 0.006048 0.000000
0.000000 0.000000 0.000000
-0.005127 -0.005766 0.000000
-0.005766 -0.013722 0.000000
0.000000 0.000000 0.000000
0.014076 0.001639 0.000000
0.001639 -0.000995 0.000000
0.000000 0.000000 0.000000
-0.007391 -0.013908 0.000000
-0.013908 -0.015248 0.000000
0.000000 0.000000 0.000000
-0.019149 -0.002359 0.000000
-0.002359 -0.027985 0.000000
0.000000 0.000000 0.000000
-0.013136 -0.005979 0.000000
-0.005979 -0.020259 0.000000
0.000000 0.000000 0.000000
-0.010345 -0.002758 0.000000
-0.002758 -0.010724 0.000000
0.000000 0.000000 0.000000
0.003882 -0.008932 0.000000
-0.008932 -0.001988 0.000000
0.000000 0.000000 0.000000
0.011665 0.002158 0.000000
0.002158 0.011958 0.000000
0.000000 0.000000 0.000000
-0.003756 0.000257 0.000000
0.000257 -0.008366 0.000000
0.000000 0.000000 0.000000
-0.014676 0.002893 0.000000
0.002893 0.003979 0.000000
0.000000 0.000000 0.000000
-0.023470 -0.001025 0.000000
-0.001025 -0.002381 0.000000
0.000000 0.000000 0.000000
0.022880 0.008692 0.000000
0.008692 0.003847 0.000000
0.000000 0.000000 0.000000
0.015172 -0.000556 0.000000
-0.000556 0.011503 0.000000
0.000000 0.000000 0.000000
-0.010843 -0.025253 0.000000
-0.025253 -0.009576 0.000000
0.000000 0.000000 0.000000
0.000660 0.004131 0.000000
0.004131 -0.010894 0.000000
0.000000 0.000000 0.000000
-0.017395 -0.011421 0.000000
-0.011421 -0.021900 0.000000
0.000000 0.000000 0.000000
-0.012254 -0.016458 0.000000
-0.016458 -0.004159 0.000000
0.000000 0.000000 0.000000
-0.000473 0.025213 0.000000
0.025213 -0.016169 0.000000
0.000000 0.000000 0.000000
0.017071 0.008096 0.000000
0.008096 0.007706 0.000000
0.000000 0.000000 0.000000
0.014424 -0.016365 0.000000
-0.016365 -0.000139 0.000000
0.000000 0.000000 0.000000
-0.014771 0.000121 0.000000
0.000121 -0.026913 0.000000
0.000000 0.000000 0.000000
-0.005429 0.006111 0.000000
0.006111 -0.009094 0.000000
0.000000 0.000000 0.000000
0.005054 -0.000595 0.000000
-0.000595 0.005918 0.000000
0.000000 0.000000 0.000000
0.009930 -0.000816 0.000000
-0.000816 0.015329 0.000000
0.000000 0.000000 0.000000
0.007934 -0.006507 0.000000
-0.006507 0.022541 0.000000
0.000000 0.000000 0.000000
-0.010045 0.011386 0.000000
0.011386 -0.011656 0.000000
0.000000 0.000000 0.000000
0.010683 0.001246 0.000000
0.001246 0.010173 0.000000
0.000000 0.000000 0.000000
0.016206 0.006130 0.000000
0.006130 0.000025 0.000000
0.000000 0.000000 0.000000
0.003972 0.011278 0.000000
0.011278 -0.001713 0.000000
0.000000 0.000000 0.000000
0.010482 -0.008795 0.000000
-0.008795 0.001268 0.000000
0.000000 0.000000 0.000000
-0.002005 -0.008921 0.000000
-0.008921 0.009148 0.000000
0.000000 0.000000 0.000000
-0.010987 -0.003333 0.000000
-0.003333 -0.008459 0.000000
0.000000 0.000000 0.000000
0.004590 0.006289 0.000000
0.006289 0.008104 0.000000
0.000000 0.000000 0.000000
0.003862 0.002120 0.000000
0.002120 -0.006017 0.000000
0.000000 0.000000 0.000000
-0.010510 -0.008104 0.000000
-0.008104 -0.021560 0.000000
0.000000 0.000000 0.000000
0.003642 0.002272 0.000000
0.002272 0.013163 0.000000
0.000000 0.000000 0.000000
0.002202 0.002193 0.000000
0.002193 0.013962 0.000000
0.000000 0.000000 0.000000
-0.011474 -0.006129 0.000000
-0.006129 -0.011719 0.000000
0.000000 0.000000 0.000000
-0.013214 0.008325 0.000000
0.008325 -0.011947 0.000000
0.000000 0.000000 0.000000
-0.006494 0.010264 0.000000
0.010264 -0.017562 0.000000
0.000000 0.000000 0.000000
-0.003586 -0.009498 0.000000
-0.009498 -0.017397 0.000000
0.000000 0.000000 0.000000
-0.010727 -0.005149 0.000000
-0.005149 -0.026641 0.000000
0.000000 0.000000 0.000000
-0.010674 -0.003886 0.000000
-0.003886 -0.031589 0.000000
0.000000 0.000000 0.000000
-0.010193 -0.008777 0.000000
-0.008777 -0.027222 0.000000
0.000000 0.000000 0.000000
-0.009987 -0.005142 0.000000
-0.005142 -0.018781 0.000000
0.000000 0.000000 0.000000
-0.010043 -0.003729 0.000000
-0.003729 -0.024901 0.000000
0.000000 0.000000 0.000000
-0.009300 -0.001156 0.000000
-0.001156 -0.017660 0.000000
0.000000 0.000000 0.000000
0.001237 -0.005028 0.000000
-0.005028 -0.001882 0.000000
0.000000 0.000000 0.000000
-0.005905 -0.000718 0.000000
-0.000718 -0.009832 0.000000
0.000000 0.000000 0.000000
0.001954 -0.002383 0.000000
-0.002383 0.011203 0.000000
0.000000 0.000000 0.000000
-0.013335 -0.008546 0.000000
-0.008546 0.001427 0.000000
0.000000 0.000000 0.000000
0.007067 0.002204 0.000000
0.002204 0.012120 0.000000
0.000000 0.000000 0.000000
0.012931 0.001785 0.000000
0.001785 0.025165 0.000000
0.000000 0.000000 0.000000
0.012660 0.005334 0.000000
0.005334 -0.016105 0.000000
0.000000 0.000000 0.000000
-0.013575 -0.003402 0.000000
-0.003402 -0.025507 0.000000
0.000000 0.000000 0.000000
-0.001543 -0.010719 0.000000
-0.010719 -0.005225 0.000000
0.000000 0.000000 0.000000
0.014796 0.007625 0.000000
0.007625 -0.000801 0.000000
0.000000 0.000000 0.000000
0.004709 0.003647 0.000000
0.003647 -0.003522 0.000000
0.000000 0.000000 0.000000
0.003049 -0.013945 0.000000
-0.013945 -0.023877 0.000000
0.000000 0.000000 0.000000
0.005465 -0.016394 0.000000
-0.016394 -0.008970 0.000000
0.000000 0.000000 0.000000
0.011871 0.003178 0.000000
0.003178 0.013819 0.000000
0.000000 0.000000 0.000000
-0.000403 0.004177 0.000000
0.004177 -0.010389 0.000000
0.000000 0.000000 0.000000
0.001068 -0.019624 0.000000
-0.019624 -0.008007 0.000000
0.000000 0.000000 0.000000
0.005207 -0.018384 0.000000
-0.018384 -0.019952 0.000000
0.000000 0.000000 0.000000
0.010005 -0.007489 0.000000
-0.007489 -0.020754 0.000000
0.000000 0.000000 0.000000
0.007530 -0.009604 0.000000
-0.009604 0.023890 0.000000
0.000000 0.000000 0.000000
-0.002464 -0.000074 0.000000
-0.000074 0.003652 0.000000
0.000000 0.000000 0.000000
0.019691 -0.001807 0.000000
-0.001807 0.026951 0.000000
0.000000 0.000000 0.000000
-0.009717 0.012200 0.000000
0.012200 -0.019290 0.000000
0.000000 0.000000 0.000000
-0.002975 0.001584 0.000000
0.001584 -0.012233 0.000000
0.000000 0.000000 0.000000
0.000649 0.002284 0.000000
0.002284 -0.011504 0.000000
0.000000 0.000000 0.000000
-0.001618 0.004334 0.000000
0.004334 -0.015559 0.000000
0.000000 0.000000 0.000000
-0.009264 -0.000230 0.000000
-0.000230 -0.025223 0.000000
0.000000 0.000000 0.000000
0.008266 -0.005913 0.000000
-0.005913 0.005230 0.000000
0.000000 0.000000 0.000000
-0.016455 0.011731 0.000000
0.011731 -0.020892 0.000000
0.000000 0.000000 0.000000
-0.007846 -0.003080 0.000000
-0.003080 -0.023906 0.000000
0.000000 0.000000 0.000000
-0.007847 -0.004155 0.000000
-0.004155 -0.012753 0.000000
0.000000 0.000000 0.000000
-0.012696 0.012855 0.000000
0.012855 -0.008542 0.000000
0.000000 0.000000 0.000000
0.007408 0.007849 0.000000
0.007849 -0.003006 0.000000
0.000000 0.000000 0.000000
0.017391 0.003408 0.000000
0.003408 0.020971 0.000000
0.000000 0.000000 0.000000
-0.006849 0.000732 0.000000
0.000732 -0.024745 0.000000
0.000000 0.000000 0.000000
-0.016546 0.006908 0.000000
0.006908 -0.002281 0.000000
0.000000 0.000000 0.000000
0.000978 0.010859 0.000000
0.010859 0.003209 0.000000
0.000000 0.000000 0.000000
0.000600 0.010271 0.000000
0.010271 0.008858 0.000000
0.000000 0.000000 0.000000
-0.022929 -0.000210 0.000000
-0.000210 0.000949 0.000000
0.000000 0.000000 0.000000
0.008660 -0.006384 0.000000
-0.006384 0.016975 0.000000
0.000000 0.000000 0.000000
0.025355 0.019870 0.000000
0.019870 -0.000548 0.000000
0.000000 0.000000 0.000000
0.002994 0.005540 0.000000
0.005540 -0.001708 0.000000
0.000000 0.000000 0.000000
0.001164 0.005331 0.000000
0.005331 0.020302 0.000000
0.000000 0.000000 0.000000
-0.017669 -0.009760 0.000000
-0.009760 -0.014389 0.000000
0.000000 0.000000 0.000000
0.012654 -0.006324 0.000000
-0.006324 0.021017 0.000000
0.000000 0.000000 0.000000
-0.008441 0.007162 0.000000
0.007162 0.002317 0.000000
0.000000 0.000000 0.000000
-0.009683 -0.000389 0.000000
-0.000389 -0.021574 0.000000
0.000000 0.000000 0.000000
0.005577 -0.000527 0.000000
-0.000527 0.008283 0.000000
0.000000 0.000000 0.000000
0.002457 0.005434 0.000000
0.005434 0.005240 0.000000
0.000000 0.000000 0.000000
-0.007869 0.003720 0.000000
0.003720 -0.008507 0.000000
0.000000 0.000000 0.000000
0.009856 -0.010966 0.000000
-0.010966 -0.020441 0.000000
0.000000 0.000000 0.000000
-0.005907 0.002419 0.000000
0.002419 -0.007548 0.000000
0.000000 0.000000 0.000000
-0.013953 -0.007210 0.000000
-0.007210 0.024067 0.000000
0.000000 0.000000 0.000000
0.003751 -0.007144 0.000000
-0.007144 0.009186 0.000000
0.000000 0.000000 0.000000
-0.002659 0.004068 0.000000
0.004068 0.006247 0.000000
0.000000 0.000000 0.000000
0.015620 0.006837 0.000000
0.006837 0.033806 0.000000
0.000000 0.000000 0.000000
0.005326 0.001615 0.000000
0.001615 0.025404 0.000000
0.000000 0.000000 0.000000
-0.002473 -0.008473 0.000000
-0.008473 -0.010310 0.000000
0.000000 0.000000 0.000000
0.003642 -0.009837 0.000000
-0.009837 0.012492 0.000000
0.000000 0.000000 0.000000
-0.020132 -0.001014 0.000000
-0.001014 0.000662 0.000000
0.000000 0.000000 0.000000
0.017522 0.005511 0.000000
0.005511 -0.004516 0.000000
0.000000 0.000000 0.000000
0.008080 0.010149 0.000000
0.010149 -0.004553 0.000000
0.000000 0.000000 0.000000
-0.007200 0.001527 0.000000
0.001527 0.000994 0.000000
0.000000 0.000000 0.000000
-0.009434 0.001620 0.000000
0.001620 0.000680 0.000000
0.000000 0.000000 0.000000
-0.008681 -0.001023 0.000000
-0.001023 0.002089 0.000000
0.000000 0.000000 0.000000
-0.006930 -0.000361 0.000000
-0.000361 0.013386 0.000000
0.000000 0.000000 0.000000
-0.010852 -0.004694 0.000000
-0.004694 -0.032169 0.000000
0.000000 0.000000 0.000000
-0.000574 0.002629 0.000000
0.002629 -0.003861 0.000000
0.000000 0.000000 0.000000
-0.030668 0.006895 0.000000
0.006895 -0.011572 0.000000
0.000000 0.000000 0.000000
0.009049 -0.000373 0.000000
-0.000373 -0.005028 0.000000
0.000000 0.000000 0.000000
0.012224 -0.010553 0.000000
-0.010553 0.030544 0.000000
0.000000 0.000000 0.000000
-0.026443 0.002294 0.000000
0.002294 -0.012640 0.000000
0.000000 0.000000 0.000000
0.007697 -0.007232 0.000000
-0.007232 0.021932 0.000000
0.000000 0.000000 0.000000
0.012535 -0.000496 0.000000
-0.000496 -0.026603 0.000000
0.000000 0.000000 0.000000
0.017491 0.004906 0.000000
0.004906 -0.013416 0.000000
0.000000 0.000000 0.000000
0.004099 -0.014822 0.000000
-0.014822 0.003591 0.000000
0.000000 0.000000 0.000000
0.003245 0.006841 0.000000
0.006841 0.030785 0.000000
0.000000 0.000000 0.000000
0.002898 0.004886 0.000000
0.004886 0.025082 0.000000
0.000000 0.000000 0.000000
0.001694 -0.005361 0.000000
-0.005361 -0.007433 0.000000
0.000000 0.000000 0.000000
-0.013561 -0.004675 0.000000
-0.004675 0.013033 0.000000
0.000000 0.000000 0.000000
0.007644 -0.003632 0.000000
-0.003632 -0.000632 0.000000
0.000000 0.000000 0.000000
0.003060 -0.008656 0.000000
-0.008656 0.002001 0.000000
0.000000 0.000000 0.000000
-0.001039 -0.003117 0.000000
-0.003117 -0.012388 0.000000
0.000000 0.000000 0.000000
0.000692 -0.006265 0.000000
-0.006265 0.005113 0.000000
0.000000 0.000000 0.000000
0.003744 0.000438 0.000000
0.000438 0.026098 0.000000
0.000000 0.000000 0.000000
-0.006196 0.006353 0.000000
0.006353 -0.003738 0.000000
0.000000 0.000000 0.000000
-0.004272 0.018535 0.000000
0.018535 0.005975 0.000000
0.000000 0.000000 0.000000
-0.008927 -0.010063 0.000000
-0.010063 -0.000911 0.000000
0.000000 0.000000 0.000000
0.022449 0.000724 0.000000
0.000724 0.041738 0.000000
0.000000 0.000000 0.000000
-0.003634 -0.000104 0.000000
-0.000104 -0.001171 0.000000
0.000000 0.000000 0.000000
0.011728 0.002273 0.000000
0.002273 0.018328 0.000000
0.000000 0.000000 0.000000
-0.000002 -0.002951 0.000000
-0.002951 0.008274 0.000000
0.000000 0.000000 0.000000
0.000335 -0.002984 0.000000
-0.002984 -0.000715 0.000000
0.000000 0.000000 0.000000
-0.009912 -0.001845 0.000000
-0.001845 -0.011782 0.000000
0.000000 0.000000 0.000000
-0.026143 0.002519 0.000000
0.002519 -0.006900 0.000000
0.000000 0.000000 0.000000
0.010419 0.000470 0.000000
0.000470 0.017033 0.000000
0.000000 0.000000 0.000000
0.009567 -0.002641 0.000000
-0.002641 0.029328 0.000000
0.000000 0.000000 0.000000
-0.001190 -0.017056 0.000000
-0.017056 0.017454 0.000000
0.000000 0.000000 0.000000
-0.010779 0.009657 0.000000
0.009657 -0.021212 0.000000
0.000000 0.000000 0.000000
0.007376 0.001659 0.000000
0.001659 0.004656 0.000000
0.000000 0.000000 0.000000
-0.014954 0.011927 0.000000
0.011927 0.000250 0.000000
0.000000 0.000000 0.000000
0.001560 0.002891 0.000000
0.002891 0.005240 0.000000
0.000000 0.000000 0.000000
0.012461 0.011301 0.000000
0.011301 0.006532 0.000000
0.000000 0.000000 0.000000
-0.006370 -0.006523 0.000000
-0.006523 -0.009368 0.000000
0.000000 0.000000 0.000000
-0.017361 0.009946 0.000000
0.009946 -0.002496 0.000000
0.000000 0.000000 0.000000
0.004004 0.010576 0.000000
0.010576 0.024132 0.000000
0.000000 0.000000 0.000000
0.000052 0.005292 0.000000
0.005292 0.019681 0.000000
0.000000 0.000000 0.000000
0.002179 -0.011733 0.000000
-0.011733 -0.013543 0.000000
0.000000 0.000000 0.000000
0.003115 0.010037 0.000000
0.010037 0.022082 0.000000
0.000000 0.000000 0.000000
0.013420 -0.004086 0.000000
-0.004086 0.001883 0.000000
0.000000 0.000000 0.000000
0.004916 0.003347 0.000000
0.003347 -0.020448 0.000000
0.000000 0.000000 0.000000
0.008919 0.002756 0.000000
0.002756 -0.005563 0.000000
0.000000 0.000000 0.000000
0.026786 -0.014290 0.000000
-0.014290 0.000556 0.000000
0.000000 0.000000 0.000000
0.026333 -0.003661 0.000000
-0.003661 0.007722 0.000000
0.000000 0.000000 0.000000
-0.018513 -0.006465 0.000000
-0.006465 0.000150 0.000000
0.000000 0.000000 0.000000
-0.006537 0.008303 0.000000
0.008303 0.009676 0.000000
0.000000 0.000000 0.000000
-0.005861 0.014245 0.000000
0.014245 0.004675 0.000000
0.000000 0.000000 0.000000
-0.009051 0.007673 0.000000
0.007673 -0.020279 0.000000
0.000000 0.000000 0.000000
0.000377 0.007240 0.000000
0.007240 0.028147 0.000000
0.000000 0.000000 0.000000
0.009611 -0.004768 0.000000
-0.004768 0.002776 0.000000
0.000000 0.000000 0.000000
-0.011002 -0.020882 0.000000
-0.020882 -0.030170 0.000000
0.000000 0.000000 0.000000
-0.003477 -0.002915 0.000000
-0.002915 -0.003007 0.000000
0.000000 0.000000 0.000000
-0.001512 -0.007867 0.000000
-0.007867 0.001678 0.000000
0.000000 0.000000 0.000000
0.001841 -0.000214 0.000000
-0.000214 0.009937 0.000000
0.000000 0.000000 0.000000
0.005222 -0.001972 0.000000
-0.001972 0.012523 0.000000
0.000000 0.000000 0.000000
-0.039774 -0.003697 0.000000
-0.003697 -0.003293 0.000000
0.000000 0.000000 0.000000
-0.010432 -0.008296 0.000000
-0.008296 -0.026777 0.000000
0.000000 0.000000 0.000000
0.004355 0.003004 0.000000
0.003004 -0.004340 0.000000
0.000000 0.000000 0.000000
-0.024820 0.009695 0.000000
0.009695 0.015918 0.000000
0.000000 0.000000 0.000000
-0.006316 0.028111 0.000000
0.028111 0.014827 0.000000
0.000000 0.000000 0.000000
-0.001326 -0.023611 0.000000
-0.023611 -0.025280 0.000000
0.000000 0.000000 0.000000
-0.001426 -0.011047 0.000000
-0.011047 -0.016870 0.000000
0.000000 0.000000 0.000000
-0.023202 -0.028067 0.000000
-0.028067 -0.019183 0.000000
0.000000 0.000000 0.000000
0.004800 0.009061 0.000000
0.009061 -0.000196 0.000000
0.000000 0.000000 0.000000
0.000974 0.005116 0.000000
0.005116 0.000790 0.000000
0.000000 0.000000 0.000000
0.013550 0.009490 0.000000
0.009490 0.011312 0.000000
0.000000 0.000000 0.000000
0.015304 0.003830 0.000000
0.003830 0.004492 0.000000
0.000000 0.000000 0.000000
-0.009099 0.003867 0.000000
0.003867 -0.003953 0.000000
0.000000 0.000000 0.000000
-0.021405 -0.002083 0.000000
-0.002083 -0.007359 0.000000
0.000000 0.000000 0.000000
0.017365 -0.014447 0.000000
-0.014447 0.026560 0.000000
0.000000 0.000000 0.000000
-0.004906 0.009038 0.000000
0.009038 -0.011059 0.000000
0.000000 0.000000 0.000000
-0.012902 0.001268 0.000000
0.001268 -0.012973 0.000000
0.000000 0.000000 0.000000
0.016390 -0.014356 0.000000
-0.014356 0.007773 0.000000
0.000000 0.000000 0.000000
0.017963 -0.001505 0.000000
-0.001505 0.008162 0.000000
0.000000 0.000000 0.000000
0.012050 -0.007767 0.000000
-0.007767 -0.000428 0.000000
0.000000 0.000000 0.000000
0.001479 -0.014594 0.000000
-0.014594 -0.015618 0.000000
0.000000 0.000000 0.000000
0.024393 0.008705 0.000000
0.008705 0.035468 0.000000
0.000000 0.000000 0.000000
0.010448 -0.001409 0.000000
-0.001409 0.009721 0.000000
0.000000 0.000000 0.000000
0.008630 -0.001129 0.000000
-0.001129 0.000874 0.000000
0.000000 0.000000 0.000000
-0.001544 -0.008720 0.000000
-0.008720 0.012411 0.000000
0.000000 0.000000 0.000000
0.018985 0.007884 0.000000
0.007884 0.034757 0.000000
0.000000 0.000000 0.000000
0.013947 0.006078 0.000000
0.006078 0.025964 0.000000
0.000000 0.000000 0.000000
0.016861 0.008463 0.000000
0.008463 0.033840 0.000000
0.000000 0.000000 0.000000
0.003411 -0.005057 0.000000
-0.005057 -0.006864 0.000000
0.000000 0.000000 0.000000
0.009431 0.009707 0.000000
0.009707 -0.010813 0.000000
0.000000 0.000000 0.000000
0.012743 -0.001284 0.000000
-0.001284 0.020707 0.000000
0.000000 0.000000 0.000000
0.021729 0.004659 0.000000
0.004659 0.032015 0.000000
0.000000 0.000000 0.000000
-0.002344 -0.005821 0.000000
-0.005821 -0.010623 0.000000
0.000000 0.000000 0.000000
-0.007663 -0.001382 0.000000
-0.001382 0.015164 0.000000
0.000000 0.000000 0.000000
-0.011112 0.020144 0.000000
0.020144 0.024668 0.000000
0.000000 0.000000 0.000000
0.003587 0.004673 0.000000
0.004673 0.019659 0.000000
0.000000 0.000000 0.000000
0.004942 0.006680 0.000000
0.006680 -0.007974 0.000000
0.000000 0.000000 0.000000
0.004296 0.003197 0.000000
0.003197 0.020120 0.000000
0.000000 0.000000 0.000000
0.008758 -0.003358 0.000000
-0.003358 0.014181 0.000000
0.000000 0.000000 0.000000
-0.005920 0.006287 0.000000
0.006287 -0.004836 0.000000
0.000000 0.000000 0.000000
-0.006748 -0.000383 0.000000
-0.000383 -0.000072 0.000000
0.000000 0.000000 0.000000
0.014274 0.005071 0.000000
0.005071 0.008689 0.000000
0.000000 0.000000 0.000000
0.005792 0.001552 0.000000
0.001552 0.006080 0.000000
0.000000 0.000000 0.000000
0.003669 0.000201 0.000000
0.000201 0.004048 0.000000
0.000000 0.000000 0.000000
-0.012203 0.016117 0.000000
0.016117 -0.010358 0.000000
0.000000 0.000000 0.000000
0.003766 0.005730 0.000000
0.005730 0.013725 0.000000
0.000000 0.000000 0.000000
-0.020036 0.010571 0.000000
0.010571 -0.026881 0.000000
0.000000 0.000000 0.000000
-0.017106 0.011751 0.000000
0.011751 -0.032941 0.000000
0.000000 0.000000 0.000000
-0.007484 0.000231 0.000000
0.000231 0.000772 0.000000
0.000000 0.000000 0.000000
-0.014864 -0.002216 0.000000
-0.002216 -0.000000 0.000000
0.000000 0.000000 0.000000
0.002653 0.000858 0.000000
0.000858 -0.004880 0.000000
0.000000 0.000000 0.000000
0.015224 -0.005341 0.000000
-0.005341 0.005774 0.000000
0.000000 0.000000 0.000000
0.008645 0.002159 0.000000
0.002159 0.001299 0.000000
0.000000 0.000000 0.000000
-0.009331 -0.004347 0.000000
-0.004347 -0.002930 0.000000
0.000000 0.000000 0.000000
0.011559 -0.006024 0.000000
-0.006024 0.016411 0.000000
0.000000 0.000000 0.000000
0.002097 -0.000005 0.000000
-0.000005 -0.002853 0.000000
0.000000 0.000000 0.000000
0.007086 -0.005096 0.000000
-0.005096 -0.027239 0.000000
0.000000 0.000000 0.000000
-0.004857 -0.006016 0.000000
-0.006016 -0.029824 0.000000
0.000000 0.000000 0.000000
-0.003052 0.001510 0.000000
0.001510 0.011290 0.000000
0.000000 0.000000 0.000000
-0.001902 0.001815 0.000000
0.001815 0.011792 0.000000
0.000000 0.000000 0.000000
-0.006662 -0.010378 0.000000
-0.010378 0.012986 0.000000
0.000000 0.000000 0.000000
0.002048 -0.018534 0.000000
-0.018534 0.006621 0.000000
0.000000 0.000000 0.000000
0.016443 0.000076 0.000000
0.000076 0.014873 0.000000
0.000000 0.000000 0.000000
-0.018203 -0.011645 0.000000
-0.011645 -0.029600 0.000000
0.000000 0.000000 0.000000
-0.005834 -0.005635 0.000000
-0.005635 -0.004069 0.000000
0.000000 0.000000 0.000000
0.000778 0.003628 0.000000
0.003628 -0.008268 0.000000
0.000000 0.000000 0.000000
-0.021948 -0.014314 0.000000
-0.014314 -0.019847 0.000000
0.000000 0.000000 0.000000
-0.013109 -0.018267 0.000000
-0.018267 -0.010884 0.000000
0.000000 0.000000 0.000000
-0.002575 -0.004227 0.000000
-0.004227 0.007188 0.000000
0.000000 0.000000 0.000000
0.008849 -0.007402 0.000000
-0.007402 0.007233 0.000000
0.000000 0.000000 0.000000
-0.005464 0.003283 0.000000
0.003283 -0.008292 0.000000
0.000000 0.000000 0.000000
0.005508 -0.003964 0.000000
-0.003964 0.009328 0.000000
0.000000 0.000000 0.000000
-0.000912 0.003745 0.000000
0.003745 -0.006894 0.000000
0.000000 0.000000 0.000000
-0.002012 -0.003598 0.000000
-0.003598 -0.017358 0.000000
0.000000 0.000000 0.000000
-0.008031 -0.003628 0.000000
-0.003628 -0.005824 0.000000
0.000000 0.000000 0.000000
-0.002627 -0.006102 0.000000
-0.006102 -0.017736 0.000000
0.000000 0.000000 0.000000
-0.012056 0.000186 0.000000
0.000186 -0.013357 0.000000
0.000000 0.000000 0.000000
-0.001629 0.007988 0.000000
0.007988 0.002976 0.000000
0.000000 0.000000 0.000000
0.021819 0.001090 0.000000
0.001090 -0.020051 0.000000
0.000000 0.000000 0.000000
0.031298 -0.004826 0.000000
-0.004826 0.002652 0.000000
0.000000 0.000000 0.000000
0.006487 -0.002639 0.000000
-0.002639 -0.003526 0.000000
0.000000 0.000000 0.000000
0.005386 -0.002479 0.000000
-0.002479 -0.003675 0.000000
0.000000 0.000000 0.000000
-0.016674 -0.009625 0.000000
-0.009625 -0.003743 0.000000
0.000000 0.000000 0.000000
-0.012668 0.001307 0.000000
0.001307 0.004813 0.000000
0.000000 0.000000 0.000000
0.004971 -0.005475 0.000000
-0.005475 0.011395 0.000000
0.000000 0.000000 0.000000
0.014518 -0.010076 0.000000
-0.010076 0.038261 0.000000
0.000000 0.000000 0.000000
-0.000110 -0.003917 0.000000
-0.003917 -0.004671 0.000000
0.000000 0.000000 0.000000
-0.013097 -0.001272 0.000000
-0.001272 -0.004743 0.000000
0.000000 0.000000 0.000000
0.009806 -0.004370 0.000000
-0.004370 0.012995 0.000000
0.000000 0.000000 0.000000
-0.004463 -0.016606 0.000000
-0.016606 -0.023464 0.000000
0.000000 0.000000 0.000000
-0.000352 0.001335 0.000000
0.001335 0.012013 0.000000
0.000000 0.000000 0.000000
0.018675 0.015000 0.000000
0.015000 0.047491 0.000000
0.000000 0.000000 0.000000
-0.006904 -0.006961 0.000000
-0.006961 -0.014887 0.000000
0.000000 0.000000 0.000000
0.017295 -0.015835 0.000000
-0.015835 -0.003210 0.000000
0.000000 0.000000 0.000000
-0.021641 0.031540 0.000000
0.031540 -0.017730 0.000000
0.000000 0.000000 0.000000
-0.015524 0.021299 0.000000
0.021299 -0.008428 0.000000
0.000000 0.000000 0.000000
-0.006042 -0.000297 0.000000
-0.000297 0.003843 0.000000
0.000000 0.000000 0.000000
-0.002758 0.003735 0.000000
0.003735 0.006144 0.000000
0.000000 0.000000 0.000000
0.018480 0.011503 0.000000
0.011503 -0.024449 0.000000
0.000000 0.000000 0.000000
0.008214 0.008449 0.000000
0.008449 -0.028337 0.000000
0.000000 0.000000 0.000000
0.006610 -0.007551 0.000000
-0.007551 0.016184 0.000000
0.000000 0.000000 0.000000
0.005453 0.000137 0.000000
0.000137 0.020395 0.000000
0.000000 0.000000 0.000000
-0.012884 -0.001360 0.000000
-0.001360 -0.016527 0.000000
0.000000 0.000000 0.000000
-0.010492 -0.002309 0.000000
-0.002309 0.020907 0.000000
0.000000 0.000000 0.000000
0.008452 -0.003262 0.000000
-0.003262 -0.010993 0.000000
0.000000 0.000000 0.000000
0.013242 0.003902 0.000000
0.003902 0.015993 0.000000
0.000000 0.000000 0.000000
0.006088 0.006254 0.000000
0.006254 0.013561 0.000000
0.000000 0.000000 0.000000
0.011959 0.005686 0.000000
0.005686 0.006857 0.000000
0.000000 0.000000 0.000000
0.014762 0.005510 0.000000
0.005510 0.005479 0.000000
0.000000 0.000000 0.000000
0.000903 0.007906 0.000000
0.007906 0.002965 0.000000
0.000000 0.000000 0.000000
-0.006418 0.003266 0.000000
0.003266 -0.007445 0.000000
0.000000 0.000000 0.000000
-0.000088 -0.008310 0.000000
-0.008310 0.015820 0.000000
0.000000 0.000000 0.000000
-0.013569 -0.013233 0.000000
-0.013233 -0.006921 0.000000
0.000000 0.000000 0.000000
0.016785 -0.002990 0.000000
-0.002990 0.025600 0.000000
0.000000 0.000000 0.000000
0.003843 -0.008007 0.000000
-0.008007 0.016310 0.000000
0.000000 0.000000 0.000000
-0.003074 -0.004050 0.000000
-0.004050 -0.000927 0.000000
0.000000 0.000000 0.000000
0.004901 0.009830 0.000000
0.009830 0.012111 0.000000
0.000000 0.000000 0.000000
-0.023858 0.000457 0.000000
0.000457 -0.001918 0.000000
0.000000 0.000000 0.000000
0.001017 -0.001451 0.000000
-0.001451 -0.006331 0.000000
0.000000 0.000000 0.000000
0.003592 0.001094 0.000000
0.001094 -0.002935 0.000000
0.000000 0.000000 0.000000
-0.027566 0.024605 0.000000
0.024605 -0.033040 0.000000
0.000000 0.000000 0.000000
-0.024944 0.024651 0.000000
0.024651 -0.009386 0.000000
0.000000 0.000000 0.000000
0.009078 0.004102 0.000000
0.004102 0.007201 0.000000
0.000000 0.000000 0.000000
0.011892 -0.001571 0.000000
-0.001571 -0.005267 0.000000
0.000000 0.000000 0.000000
-0.020754 0.017891 0.000000
0.017891 -0.022956 0.000000
0.000000 0.000000 0.000000
0.006620 0.000629 0.000000
0.000629 0.019646 0.000000
0.000000 0.000000 0.000000
-0.038617 -0.006287 0.000000
-0.006287 -0.019545 0.000000
0.000000 0.000000 0.000000
-0.048169 -0.002298 0.000000
-0.002298 -0.013770 0.000000
0.000000 0.000000 0.000000
-0.008813 -0.000290 0.000000
-0.000290 -0.005513 0.000000
0.000000 0.000000 0.000000
-0.000135 0.003567 0.000000
0.003567 0.000778 0.000000
0.000000 0.000000 0.000000
0.018220 -0.005712 0.000000
-0.005712 0.017062 0.000000
0.000000 0.000000 0.000000
0.011441 -0.001526 0.000000
-0.001526 0.001880 0.000000
0.000000 0.000000 0.000000
-0.003677 -0.003835 0.000000
-0.003835 -0.005095 0.000000
0.000000 0.000000 0.000000
0.004683 0.003510 0.000000
0.003510 0.003675 0.000000
0.000000 0.000000 0.000000
0.018384 -0.005054 0.000000
-0.005054 0.019487 0.000000
0.000000 0.000000 0.000000
0.001428 -0.004132 0.000000
-0.004132 0.017507 0.000000
0.000000 0.000000 0.000000
-0.009187 0.000501 0.000000
0.000501 -0.007874 0.000000
0.000000 0.000000 0.000000
-0.020852 0.009146 0.000000
0.009146 -0.025548 0.000000
0.000000 0.000000 0.000000
0.017852 0.016162 0.000000
0.016162 0.014480 0.000000
0.000000 0.000000 0.000000
0.001630 -0.001697 0.000000
-0.001697 -0.003028 0.000000
0.000000 0.000000 0.000000
-0.000485 0.004400 0.000000
0.004400 -0.005782 0.000000
0.000000 0.000000 0.000000
0.019659 -0.008414 0.000000
-0.008414 0.024427 0.000000
0.000000 0.000000 0.000000
0.003492 -0.009335 0.000000
-0.009335 0.020154 0.000000
0.000000 0.000000 0.000000
0.023099 -0.013474 0.000000
-0.013474 0.040436 0.000000
0.000000 0.000000 0.000000
0.008242 -0.005814 0.000000
-0.005814 -0.014238 0.000000
0.000000 0.000000 0.000000
-0.017163 -0.002920 0.000000
-0.002920 0.004430 0.000000
0.000000 0.000000 0.000000
0.004418 0.005165 0.000000
0.005165 0.009079 0.000000
0.000000 0.000000 0.000000
-0.011350 0.004720 0.000000
0.004720 0.004087 0.000000
0.000000 0.000000 0.000000
-0.001741 0.002388 0.000000
0.002388 -0.001191 0.000000
0.000000 0.000000 0.000000
-0.004255 0.003643 0.000000
0.003643 0.003184 0.000000
0.000000 0.000000 0.000000
-0.003381 0.003949 0.000000
0.003949 0.010988 0.000000
0.000000 0.000000 0.000000
-0.007805 -0.000850 0.000000
-0.000850 0.003347 0.000000
0.000000 0.000000 0.000000
-0.038341 0.003375 0.000000
0.003375 -0.000918 0.000000
0.000000 0.000000 0.000000
-0.011139 -0.005025 0.000000
-0.005025 -0.012992 0.000000
0.000000 0.000000 0.000000
-0.012310 -0.004737 0.000000
-0.004737 -0.017285 0.000000
0.000000 0.000000 0.000000
-0.006254 0.007981 0.000000
0.007981 -0.003026 0.000000
0.000000 0.000000 0.000000
-0.004555 0.009320 0.000000
0.009320 -0.003707 0.000000
0.000000 0.000000 0.000000
-0.005065 0.006025 0.000000
0.006025 -0.012204 0.000000
0.000000 0.000000 0.000000
-0.005214 0.002069 0.000000
0.002069 -0.009718 0.000000
0.000000 0.000000 0.000000
0.018284 -0.013987 0.000000
-0.013987 0.032620 0.000000
0.000000 0.000000 0.000000
0.019111 0.005358 0.000000
0.005358 -0.003344 0.000000
0.000000 0.000000 0.000000
-0.024893 0.006106 0.000000
0.006106 -0.009409 0.000000
0.000000 0.000000 0.000000
0.007108 -0.003339 0.000000
-0.003339 -0.008776 0.000000
0.000000 0.000000 0.000000
0.005107 -0.003274 0.000000
-0.003274 -0.009019 0.000000
0.000000 0.000000 0.000000
0.010727 -0.009078 0.000000
-0.009078 0.017750 0.000000
0.000000 0.000000 0.000000
0.024569 -0.021950 0.000000
-0.021950 0.019081 0.000000
0.000000 0.000000 0.000000
0.014375 -0.002137 0.000000
-0.002137 -0.020477 0.000000
0.000000 0.000000 0.000000
0.014389 -0.007261 0.000000
-0.007261 -0.002011 0.000000
0.000000 0.000000 0.000000
0.020562 -0.010750 0.000000
-0.010750 0.045601 0.000000
0.000000 0.000000 0.000000
-0.001515 0.003811 0.000000
0.003811 0.008710 0.000000
0.000000 0.000000 0.000000
0.010934 0.000479 0.000000
0.000479 0.003433 0.000000
0.000000 0.000000 0.000000
0.012067 -0.000391 0.000000
-0.000391 0.000777 0.000000
0.000000 0.000000 0.000000
0.001506 0.004176 0.000000
0.004176 0.014394 0.000000
0.000000 0.000000 0.000000
0.006829 0.009735 0.000000
0.009735 0.026335 0.000000
0.000000 0.000000 0.000000
-0.012223 0.015836 0.000000
0.015836 -0.011822 0.000000
0.000000 0.000000 0.000000
-0.000009 0.003324 0.000000
0.003324 0.036721 0.000000
0.000000 0.000000 0.000000
-0.030178 -0.003773 0.000000
-0.003773 -0.011918 0.000000
0.000000 0.000000 0.000000
-0.005373 0.004406 0.000000
0.004406 -0.015911 0.000000
0.000000 0.000000 0.000000
-0.022282 0.017342 0.000000
0.017342 -0.032950 0.000000
0.000000 0.000000 0.000000
-0.003323 0.005603 0.000000
0.005603 -0.005654 0.000000
0.000000 0.000000 0.000000
0.019364 0.010843 0.000000
0.010843 -0.000898 0.000000
0.000000 0.000000 0.000000
-0.005732 0.001764 0.000000
0.001764 -0.014748 0.000000
0.000000 0.000000 0.000000
-0.002074 0.002035 0.000000
0.002035 -0.008052 0.000000
0.000000 0.000000 0.000000
-0.012608 -0.002451 0.000000
-0.002451 -0.015275 0.000000
0.000000 0.000000 0.000000
-0.033517 -0.003402 0.000000
-0.003402 -0.003528 0.000000
0.000000 0.000000 0.000000
-0.019507 -0.011260 0.000000
-0.011260 0.008286 0.000000
0.000000 0.000000 0.000000
-0.004365 0.005778 0.000000
0.005778 -0.018310 0.000000
0.000000 0.000000 0.000000
-0.004331 0.006439 0.000000
0.006439 -0.015503 0.000000
0.000000 0.000000 0.000000
0.002244 0.000012 0.000000
0.000012 -0.004215 0.000000
0.000000 0.000000 0.000000
0.001736 0.000675 0.000000
0.000675 -0.003765 0.000000
0.000000 0.000000 0.000000
-0.005329 -0.004303 0.000000
-0.004303 0.014503 0.000000
0.000000 0.000000 0.000000
0.004272 0.008068 0.000000
0.008068 0.026874 0.000000
0.000000 0.000000 0.000000
0.006889 -0.006634 0.000000
-0.006634 0.015946 0.000000
0.000000 0.000000 0.000000
-0.000026 0.001554 0.000000
0.001554 0.015751 0.000000
0.000000 0.000000 0.000000
-0.005297 -0.006638 0.000000
-0.006638 -0.007212 0.000000
0.000000 0.000000 0.000000
-0.002548 -0.013457 0.000000
-0.013457 -0.010365 0.000000
0.000000 0.000000 0.000000
-0.019706 -0.011880 0.000000
-0.011880 -0.015861 0.000000
0.000000 0.000000 0.000000
-0.017023 -0.004702 0.000000
-0.004702 -0.029381 0.000000
0.000000 0.000000 0.000000
0.009829 0.001073 0.000000
0.001073 -0.019279 0.000000
0.000000 0.000000 0.000000
-0.009314 0.006596 0.000000
0.006596 -0.009881 0.000000
0.000000 0.000000 0.000000
0.002579 -0.005013 0.000000
-0.005013 0.001486 0.000000
0.000000 0.000000 0.000000
0.000800 0.006131 0.000000
0.006131 0.006292 0.000000
0.000000 0.000000 0.000000
-0.013921 -0.008810 0.000000
-0.008810 -0.010428 0.000000
0.000000 0.000000 0.000000
-0.005186 -0.010068 0.000000
-0.010068 -0.011356 0.000000
0.000000 0.000000 0.000000
-0.008186 0.012496 0.000000
0.012496 0.009763 0.000000
0.000000 0.000000 0.000000
0.012192 0.021647 0.000000
0.021647 0.019185 0.000000
0.000000 0.000000 0.000000
-0.019863 -0.007195 0.000000
-0.007195 -0.027477 0.000000
0.000000 0.000000 0.000000
-0.017627 -0.007324 0.000000
-0.007324 -0.032644 0.000000
0.000000 0.000000 0.000000
0.000989 -0.001576 0.000000
-0.001576 -0.002829 0.000000
0.000000 0.000000 0.000000
-0.011766 0.001821 0.000000
0.001821 -0.005754 0.000000
0.000000 0.000000 0.000000
-0.004539 -0.001631 0.000000
-0.001631 0.008313 0.000000
0.000000 0.000000 0.000000
0.006036 -0.001164 0.000000
-0.001164 -0.014395 0.000000
0.000000 0.000000 0.000000
0.010538 -0.002111 0.000000
-0.002111 0.008590 0.000000
0.000000 0.000000 0.000000
0.010570 0.006040 0.000000
0.006040 -0.004722 0.000000
0.000000 0.000000 0.000000
-0.000930 -0.002417 0.000000
-0.002417 -0.001013 0.000000
0.000000 0.000000 0.000000
0.014702 0.000866 0.000000
0.000866 -0.021755 0.000000
0.000000 0.000000 0.000000
0.007161 -0.000109 0.000000
-0.000109 -0.019338 0.000000
0.000000 0.000000 0.000000
0.008284 0.008332 0.000000
0.008332 -0.018960 0.000000
0.000000 0.000000 0.000000
0.004133 0.007846 0.000000
0.007846 -0.000941 0.000000
0.000000 0.000000 0.000000
-0.001570 0.010504 0.000000
0.010504 0.001933 0.000000
0.000000 0.000000 0.000000
0.018984 0.027320 0.000000
0.027320 0.028570 0.000000
0.000000 0.000000 0.000000
0.007132 0.006013 0.000000
0.006013 -0.011612 0.000000
0.000000 0.000000 0.000000
0.007430 -0.005754 0.000000
-0.005754 -0.009337 0.000000
0.000000 0.000000 0.000000
0.015952 0.005411 0.000000
0.005411 0.011418 0.000000
0.000000 0.000000 0.000000
-0.000349 -0.015153 0.000000
-0.015153 0.018840 0.000000
0.000000 0.000000 0.000000
-0.001300 -0.013702 0.000000
-0.013702 0.006659 0.000000
0.000000 0.000000 0.000000
-0.009542 -0.009743 0.000000
-0.009743 0.005798 0.000000
0.000000 0.000000 0.000000
0.005009 -0.010068 0.000000
-0.010068 -0.012549 0.000000
0.000000 0.000000 0.000000
-0.011262 -0.004947 0.000000
-0.004947 0.009936 0.000000
0.000000 0.000000 0.000000
0.001965 -0.008161 0.000000
-0.008161 0.006690 0.000000
0.000000 0.000000 0.000000
0.004306 -0.009092 0.000000
-0.009092 0.007574 0.000000
0.000000 0.000000 0.000000
0.002535 -0.003758 0.000000
-0.003758 0.010893 0.000000
0.000000 0.000000 0.000000
0.002276 0.004561 0.000000
0.004561 0.006283 0.000000
0.000000 0.000000 0.000000
0.003922 0.006528 0.000000
0.006528 0.011395 0.000000
0.000000 0.000000 0.000000
0.001856 -0.003248 0.000000
-0.003248 -0.001715 0.000000
0.000000 0.000000 0.000000
0.004692 0.001373 0.000000
0.001373 0.003361 0.000000
0.000000 0.000000 0.000000
-0.009263 -0.008072 0.000000
-0.008072 -0.024736 0.000000
0.000000 0.000000 0.000000
-0.019884 0.008785 0.000000
0.008785 -0.033528 0.000000
0.000000 0.000000 0.000000
0.014869 -0.010227 0.000000
-0.010227 0.008893 0.000000
0.000000 0.000000 0.000000
-0.010038 0.003323 0.000000
0.003323 -0.023089 0.000000
0.000000 0.000000 0.000000
-0.019206 0.001909 0.000000
0.001909 -0.016637 0.000000
0.000000 0.000000 0.000000
-0.019137 0.005197 0.000000
0.005197 -0.023438 0.000000
0.000000 0.000000 0.000000
0.021288 0.011740 0.000000
0.011740 0.009398 0.000000
0.000000 0.000000 0.000000
0.010439 -0.001782 0.000000
-0.001782 -0.013504 0.000000
0.000000 0.000000 0.000000
-0.014765 0.016384 0.000000
0.016384 -0.031742 0.000000
0.000000 0.000000 0.000000
0.015578 -0.003098 0.000000
-0.003098 0.023719 0.000000
0.000000 0.000000 0.000000
-0.000810 0.004640 0.000000
0.004640 0.009693 0.000000
0.000000 0.000000 0.000000
-0.020176 0.016523 0.000000
0.016523 -0.011262 0.000000
0.000000 0.000000 0.000000
-0.002241 -0.005099 0.000000
-0.005099 -0.027865 0.000000
0.000000 0.000000 0.000000
0.001709 -0.002609 0.000000
-0.002609 -0.023777 0.000000
0.000000 0.000000 0.000000
-0.002118 -0.004696 0.000000
-0.004696 0.014782 0.000000
0.000000 0.000000 0.000000
0.000337 -0.002061 0.000000
-0.002061 0.016749 0.000000
0.000000 0.000000 0.000000
-0.009727 -0.018380 0.000000
-0.018380 0.023474 0.000000
0.000000 0.000000 0.000000
-0.007421 -0.018608 0.000000
-0.018608 0.024181 0.000000
0.000000 0.000000 0.000000
0.009337 -0.006631 0.000000
-0.006631 0.007844 0.000000
0.000000 0.000000 0.000000
-0.006530 0.001253 0.000000
0.001253 -0.001308 0.000000
0.000000 0.000000 0.000000
0.007203 0.004048 0.000000
0.004048 0.008971 0.000000
0.000000 0.000000 0.000000
0.006629 0.002798 0.000000
0.002798 0.010381 0.000000
0.000000 0.000000 0.000000
-0.023314 -0.003953 0.000000
-0.003953 -0.020472 0.000000
0.000000 0.000000 0.000000
-0.013595 -0.004464 0.000000
-0.004464 0.021662 0.000000
0.000000 0.000000 0.000000
-0.002761 0.003005 0.000000
0.003005 0.003786 0.000000
0.000000 0.000000 0.000000
-0.014041 0.002000 0.000000
0.002000 0.001899 0.000000
0.000000 0.000000 0.000000
0.003706 0.002267 0.000000
0.002267 0.011480 0.000000
0.000000 0.000000 0.000000
0.001034 0.001957 0.000000
0.001957 0.010911 0.000000
0.000000 0.000000 0.000000
0.003536 0.006365 0.000000
0.006365 -0.001734 0.000000
0.000000 0.000000 0.000000
0.014182 -0.000447 0.000000
-0.000447 0.017780 0.000000
0.000000 0.000000 0.000000
0.011596 0.030385 0.000000
0.030385 0.006496 0.000000
0.000000 0.000000 0.000000
0.002921 0.000716 0.000000
0.000716 -0.033485 0.000000
0.000000 0.000000 0.000000
0.006356 0.002093 0.000000
0.002093 -0.001069 0.000000
0.000000 0.000000 0.000000
-0.003639 0.003096 0.000000
0.003096 0.000151 0.000000
0.000000 0.000000 0.000000
0.021507 -0.009706 0.000000
-0.009706 0.027170 0.000000
0.000000 0.000000 0.000000
-0.008249 0.010371 0.000000
0.010371 -0.010843 0.000000
0.000000 0.000000 0.000000
-0.003280 0.005142 0.000000
0.005142 0.004835 0.000000
0.000000 0.000000 0.000000
0.007261 -0.000448 0.000000
-0.000448 0.036951 0.000000
0.000000 0.000000 0.000000
0.022884 0.007021 0.000000
0.007021 0.007704 0.000000
0.000000 0.000000 0.000000
-0.009168 0.002002 0.000000
0.002002 -0.002670 0.000000
0.000000 0.000000 0.000000
0.013394 0.002777 0.000000
0.002777 0.000293 0.000000
0.000000 0.000000 0.000000
0.006688 0.006468 0.000000
0.006468 -0.000974 0.000000
0.000000 0.000000 0.000000
-0.015733 0.010231 0.000000
0.010231 -0.017726 0.000000
0.000000 0.000000 0.000000
-0.017092 0.012358 0.000000
0.012358 -0.021032 0.000000
0.000000 0.000000 0.000000
0.020979 -0.010722 0.000000
-0.010722 0.045723 0.000000
0.000000 0.000000 0.000000
0.012750 -0.005089 0.000000
-0.005089 0.023103 0.000000
0.000000 0.000000 0.000000
0.001372 0.003310 0.000000
0.003310 -0.029286 0.000000
0.000000 0.000000 0.000000
-0.000040 -0.005155 0.000000
-0.005155 -0.032289 0.000000
0.000000 0.000000 0.000000
-0.002659 0.002816 0.000000
0.002816 0.000832 0.000000
0.000000 0.000000 0.000000
-0.001513 -0.000656 0.000000
-0.000656 0.000097 0.000000
0.000000 0.000000 0.000000
0.005024 -0.000180 0.000000
-0.000180 -0.005398 0.000000
0.000000 0.000000 0.000000
0.007566 0.005175 0.000000
0.005175 0.009158 0.000000
0.000000 0.000000 0.000000
0.015428 -0.004750 0.000000
-0.004750 0.016477 0.000000
0.000000 0.000000 0.000000
0.003608 0.002663 0.000000
0.002663 -0.000037 0.000000
0.000000 0.000000 0.000000
0.011308 -0.009388 0.000000
-0.009388 0.011195 0.000000
0.000000 0.000000 0.000000
0.011819 -0.009611 0.000000
-0.009611 0.010785 0.000000
0.000000 0.000000 0.000000
0.003825 0.000674 0.000000
0.000674 -0.008727 0.000000
0.000000 0.000000 0.000000
0.002531 0.002858 0.000000
0.002858 -0.005962 0.000000
0.000000 0.000000 0.000000
-0.021546 0.006586 0.000000
0.006586 0.000209 0.000000
0.000000 0.000000 0.000000
-0.033300 0.015344 0.000000
0.015344 -0.003888 0.000000
0.000000 0.000000 0.000000
0.008521 0.002554 0.000000
0.002554 -0.007524 0.000000
0.000000 0.000000 0.000000
0.014984 -0.004299 0.000000
-0.004299 0.013816 0.000000
0.000000 0.000000 0.000000
-0.010397 0.010461 0.000000
0.010461 -0.012694 0.000000
0.000000 0.000000 0.000000
-0.010588 0.010438 0.000000
0.010438 -0.012590 0.000000
0.000000 0.000000 0.000000
-0.000173 0.006741 0.000000
0.006741 0.022435 0.000000
0.000000 0.000000 0.000000
-0.002553 -0.004334 0.000000
-0.004334 0.003162 0.000000
0.000000 0.000000 0.000000
-0.008646 -0.006181 0.000000
-0.006181 0.002431 0.000000
0.000000 0.000000 0.000000
-0.008534 -0.007716 0.000000
-0.007716 -0.003134 0.000000
0.000000 0.000000 0.000000
0.017238 -0.008727 0.000000
-0.008727 -0.007499 0.000000
0.000000 0.000000 0.000000
0.016615 -0.009252 0.000000
-0.009252 -0.004944 0.000000
0.000000 0.000000 0.000000
0.009225 -0.012149 0.000000
-0.012149 0.001889 0.000000
0.000000 0.000000 0.000000
0.003206 -0.010952 0.000000
-0.010952 0.010387 0.000000
0.000000 0.000000 0.000000
0.017788 -0.009398 0.000000
-0.009398 -0.003260 0.000000
0.000000 0.000000 0.000000
-0.006356 -0.000504 0.000000
-0.000504 -0.009713 0.000000
0.000000 0.000000 0.000000
0.000188 0.000617 0.000000
0.000617 0.003627 0.000000
0.000000 0.000000 0.000000
0.001680 0.000759 0.000000
0.000759 0.001307 0.000000
0.000000 0.000000 0.000000
0.003477 -0.001512 0.000000
-0.001512 0.021077 0.000000
0.000000 0.000000 0.000000
0.010855 0.003190 0.000000
0.003190 0.030951 0.000000
0.000000 0.000000 0.000000
-0.022550 0.010475 0.000000
0.010475 -0.028724 0.000000
0.000000 0.000000 0.000000
-0.016498 0.006386 0.000000
0.006386 -0.015388 0.000000
0.000000 0.000000 0.000000
-0.012772 -0.012306 0.000000
-0.012306 -0.018849 0.000000
0.000000 0.000000 0.000000
0.000106 -0.004067 0.000000
-0.004067 -0.004728 0.000000
0.000000 0.000000 0.000000
-0.000292 -0.002352 0.000000
-0.002352 0.026955 0.000000
0.000000 0.000000 0.000000
-0.017691 -0.003117 0.000000
-0.003117 0.027866 0.000000
0.000000 0.000000 0.000000
-0.002396 0.004167 0.000000
0.004167 -0.003731 0.000000
0.000000 0.000000 0.000000
0.017900 -0.008612 0.000000
-0.008612 0.027895 0.000000
0.000000 0.000000 0.000000
0.011199 0.000279 0.000000
0.000279 -0.007588 0.000000
0.000000 0.000000 0.000000
-0.001216 -0.007430 0.000000
-0.007430 0.001397 0.000000
0.000000 0.000000 0.000000
-0.001021 0.004131 0.000000
0.004131 -0.002764 0.000000
0.000000 0.000000 0.000000
-0.011481 -0.002806 0.000000
-0.002806 -0.018947 0.000000
0.000000 0.000000 0.000000
0.002080 -0.023543 0.000000
-0.023543 -0.011786 0.000000
0.000000 0.000000 0.000000
0.005147 -0.020579 0.000000
-0.020579 -0.021062 0.000000
0.000000 0.000000 0.000000
-0.003194 -0.001430 0.000000
-0.001430 0.004023 0.000000
0.000000 0.000000 0.000000
0.004875 -0.000596 0.000000
-0.000596 0.003596 0.000000
0.000000 0.000000 0.000000
0.040253 -0.011672 0.000000
-0.011672 0.024705 0.000000
0.000000 0.000000 0.000000
0.027922 -0.002777 0.000000
-0.002777 0.030427 0.000000
0.000000 0.000000 0.000000
0.005566 0.000493 0.000000
0.000493 -0.002170 0.000000
0.000000 0.000000 0.000000
0.005077 -0.000663 0.000000
-0.000663 -0.003826 0.000000
0.000000 0.000000 0.000000
0.016113 -0.001854 0.000000
-0.001854 0.018741 0.000000
0.000000 0.000000 0.000000
0.002310 -0.006036 0.000000
-0.006036 0.012142 0.000000
0.000000 0.000000 0.000000
0.010612 -0.004854 0.000000
-0.004854 0.015149 0.000000
0.000000 0.000000 0.000000
0.003368 0.000002 0.000000
0.000002 0.011995 0.000000
0.000000 0.000000 0.000000
-0.006838 -0.011310 0.000000
-0.011310 -0.011453 0.000000
0.000000 0.000000 0.000000
-0.006434 -0.010579 0.000000
-0.010579 -0.014837 0.000000
0.000000 0.000000 0.000000
0.005111 0.001469 0.000000
0.001469 -0.005714 0.000000
0.000000 0.000000 0.000000
0.011872 -0.001816 0.000000
-0.001816 -0.001048 0.000000
0.000000 0.000000 0.000000
0.000623 -0.006365 0.000000
-0.006365 0.014224 0.000000
0.000000 0.000000 0.000000
-0.003365 0.012708 0.000000
0.012708 -0.008303 0.000000
0.000000 0.000000 0.000000
0.012171 0.000322 0.000000
0.000322 0.018879 0.000000
0.000000 0.000000 0.000000
-0.008165 -0.013584 0.000000
-0.013584 -0.014205 0.000000
0.000000 0.000000 0.000000
-0.001419 -0.003375 0.000000
-0.003375 0.019442 0.000000
0.000000 0.000000 0.000000
-0.007654 -0.006323 0.000000
-0.006323 0.001749 0.000000
0.000000 0.000000 0.000000
0.015278 -0.004796 0.000000
-0.004796 -0.010421 0.000000
0.000000 0.000000 0.000000
0.005400 -0.000512 0.000000
-0.000512 -0.015639 0.000000
0.000000 0.000000 0.000000
-0.001004 -0.001040 0.000000
-0.001040 -0.000870 0.000000
0.000000 0.000000 0.000000
0.010490 -0.000976 0.000000
-0.000976 0.001961 0.000000
0.000000 0.000000 0.000000
-0.034380 0.009543 0.000000
0.009543 -0.009428 0.000000
0.000000 0.000000 0.000000
-0.028810 0.015776 0.000000
0.015776 -0.003446 0.000000
0.000000 0.000000 0.000000
0.014129 -0.006138 0.000000
-0.006138 -0.002872 0.000000
0.000000 0.000000 0.000000
-0.003236 -0.016425 0.000000
-0.016425 -0.006320 0.000000
0.000000 0.000000 0.000000
-0.000075 -0.006862 0.000000
-0.006862 0.012301 0.000000
0.000000 0.000000 0.000000
-0.008173 0.012275 0.000000
0.012275 -0.007535 0.000000
0.000000 0.000000 0.000000
-0.003241 0.013596 0.000000
0.013596 -0.007118 0.000000
0.000000 0.000000 0.000000
-0.008994 0.002419 0.000000
0.002419 -0.023374 0.000000
0.000000 0.000000 0.000000
0.018498 0.005910 0.000000
0.005910 0.027079 0.000000
0.000000 0.000000 0.000000
0.025432 0.002325 0.000000
0.002325 0.000309 0.000000
0.000000 0.000000 0.000000
-0.010239 -0.016574 0.000000
-0.016574 -0.027865 0.000000
0.000000 0.000000 0.000000
0.000381 0.001475 0.000000
0.001475 -0.008336 0.000000
0.000000 0.000000 0.000000
0.010210 0.005768 0.000000
0.005768 0.004426 0.000000
0.000000 0.000000 0.000000
-0.027421 -0.013432 0.000000
-0.013432 -0.019781 0.000000
0.000000 0.000000 0.000000
-0.002084 0.014664 0.000000
0.014664 -0.002434 0.000000
0.000000 0.000000 0.000000
-0.001159 0.012712 0.000000
0.012712 0.012610 0.000000
0.000000 0.000000 0.000000
-0.008995 0.011075 0.000000
0.011075 0.032411 0.000000
0.000000 0.000000 0.000000
0.017471 0.012835 0.000000
0.012835 0.010354 0.000000
0.000000 0.000000 0.000000
0.002963 0.001462 0.000000
0.001462 0.026019 0.000000
0.000000 0.000000 0.000000
0.006165 0.008390 0.000000
0.008390 -0.006429 0.000000
0.000000 0.000000 0.000000
0.002125 -0.008874 0.000000
-0.008874 0.019312 0.000000
0.000000 0.000000 0.000000
0.002580 -0.006474 0.000000
-0.006474 0.019461 0.000000
0.000000 0.000000 0.000000
-0.020797 0.007414 0.000000
0.007414 -0.029249 0.000000
0.000000 0.000000 0.000000
-0.025409 0.008171 0.000000
0.008171 0.011616 0.000000
0.000000 0.000000 0.000000
0.018149 -0.002597 0.000000
-0.002597 0.019812 0.000000
0.000000 0.000000 0.000000
-0.004319 0.006845 0.000000
0.006845 0.002660 0.000000
0.000000 0.000000 0.000000
-0.003243 -0.008503 0.000000
-0.008503 0.009380 0.000000
0.000000 0.000000 0.000000
0.004773 -0.012519 0.000000
-0.012519 0.002854 0.000000
0.000000 0.000000 0.000000
-0.018164 -0.016764 0.000000
-0.016764 0.028397 0.000000
0.000000 0.000000 0.000000
-0.027390 0.008905 0.000000
0.008905 -0.035310 0.000000
0.000000 0.000000 0.000000
-0.009359 -0.004482 0.000000
-0.004482 0.002359 0.000000
0.000000 0.000000 0.000000
-0.016260 -0.004573 0.000000
-0.004573 0.002301 0.000000
0.000000 0.000000 0.000000
-0.014253 0.018624 0.000000
0.018624 -0.020647 0.000000
0.000000 0.000000 0.000000
-0.018269 0.002267 0.000000
0.002267 -0.009291 0.000000
0.000000 0.000000 0.000000
0.020746 -0.006439 0.000000
-0.006439 -0.000701 0.000000
0.000000 0.000000 0.000000
0.015273 -0.002961 0.000000
-0.002961 -0.008072 0.000000
0.000000 0.000000 0.000000
-0.013814 0.004388 0.000000
0.004388 0.006331 0.000000
0.000000 0.000000 0.000000
-0.011038 -0.000596 0.000000
-0.000596 -0.021610 0.000000
0.000000 0.000000 0.000000
-0.006647 0.001746 0.000000
0.001746 -0.023559 0.000000
0.000000 0.000000 0.000000
0.003295 0.007504 0.000000
0.007504 0.003897 0.000000
0.000000 0.000000 0.000000
-0.019258 0.002916 0.000000
0.002916 -0.003828 0.000000
0.000000 0.000000 0.000000
0.015806 0.002869 0.000000
0.002869 0.010783 0.000000
0.000000 0.000000 0.000000
0.010918 -0.011810 0.000000
-0.011810 0.006844 0.000000
0.000000 0.000000 0.000000
0.013677 -0.014404 0.000000
-0.014404 0.016342 0.000000
0.000000 0.000000 0.000000
-0.004583 -0.004971 0.000000
-0.004971 0.005561 0.000000
0.000000 0.000000 0.000000
-0.015757 -0.009229 0.000000
-0.009229 -0.000743 0.000000
0.000000 0.000000 0.000000
-0.001299 -0.001426 0.000000
-0.001426 -0.009405 0.000000
0.000000 0.000000 0.000000
0.006474 -0.001995 0.000000
-0.001995 -0.013966 0.000000
0.000000 0.000000 0.000000
0.009949 0.003470 0.000000
0.003470 -0.018031 0.000000
0.000000 0.000000 0.000000
-0.016262 0.011227 0.000000
0.011227 -0.001625 0.000000
0.000000 0.000000 0.000000
0.039423 -0.000626 0.000000
-0.000626 -0.015746 0.000000
0.000000 0.000000 0.000000
0.028581 -0.005672 0.000000
-0.005672 0.013993 0.000000
0.000000 0.000000 0.000000
0.000962 -0.010785 0.000000
-0.010785 0.008509 0.000000
0.000000 0.000000 0.000000
0.002391 -0.010467 0.000000
-0.010467 0.007858 0.000000
0.000000 0.000000 0.000000
0.001327 0.001675 0.000000
0.001675 0.026676 0.000000
0.000000 0.000000 0.000000
-0.013769 0.007135 0.000000
0.007135 0.018142 0.000000
0.000000 0.000000 0.000000
-0.000685 0.001160 0.000000
0.001160 0.001193 0.000000
0.000000 0.000000 0.000000
0.019178 0.013884 0.000000
0.013884 0.036716 0.000000
0.000000 0.000000 0.000000
0.013437 0.001722 0.000000
0.001722 0.034628 0.000000
0.000000 0.000000 0.000000
0.011014 0.002683 0.000000
0.002683 0.016294 0.000000
0.000000 0.000000 0.000000
0.005121 -0.003595 0.000000
-0.003595 0.021577 0.000000
0.000000 0.000000 0.000000
-0.015316 -0.000295 0.000000
-0.000295 0.013713 0.000000
0.000000 0.000000 0.000000
0.036704 -0.001620 0.000000
-0.001620 0.013105 0.000000
0.000000 0.000000 0.000000
0.026173 -0.001544 0.000000
-0.001544 -0.022572 0.000000
0.000000 0.000000 0.000000
-0.007264 0.011288 0.000000
0.011288 -0.002193 0.000000
0.000000 0.000000 0.000000
-0.001824 0.014676 0.000000
0.014676 0.004648 0.000000
0.000000 0.000000 0.000000
0.007966 0.003867 0.000000
0.003867 0.005397 0.000000
0.000000 0.000000 0.000000
-0.001847 0.000718 0.000000
0.000718 0.008243 0.000000
0.000000 0.000000 0.000000
0.006119 0.005464 0.000000
0.005464 0.011596 0.000000
0.000000 0.000000 0.000000
0.011211 0.005952 0.000000
0.005952 0.013193 0.000000
0.000000 0.000000 0.000000
-0.006487 0.014093 0.000000
0.014093 -0.008845 0.000000
0.000000 0.000000 0.000000
0.005004 0.009918 0.000000
0.009918 -0.002310 0.000000
0.000000 0.000000 0.000000
0.012014 0.002913 0.000000
0.002913 0.016775 0.000000
0.000000 0.000000 0.000000
-0.006999 0.002338 0.000000
0.002338 -0.020163 0.000000
0.000000 0.000000 0.000000
0.013384 -0.012204 0.000000
-0.012204 0.006873 0.000000
0.000000 0.000000 0.000000
0.021718 -0.012691 0.000000
-0.012691 0.034635 0.000000
0.000000 0.000000 0.000000
0.004836 -0.002270 0.000000
-0.002270 0.013881 0.000000
0.000000 0.000000 0.000000
-0.003387 -0.008667 0.000000
-0.008667 -0.008986 0.000000
0.000000 0.000000 0.000000
-0.004332 -0.002443 0.000000
-0.002443 -0.009208 0.000000
0.000000 0.000000 0.000000
0.006984 0.009293 0.000000
0.009293 0.009834 0.000000
0.000000 0.000000 0.000000
-0.004233 0.003032 0.000000
0.003032 -0.000537 0.000000
0.000000 0.000000 0.000000
0.008148 -0.000144 0.000000
-0.000144 0.003145 0.000000
0.000000 0.000000 0.000000
-0.010192 0.007210 0.000000
0.007210 -0.008928 0.000000
0.000000 0.000000 0.000000
0.012080 0.006942 0.000000
0.006942 -0.014197 0.000000
0.000000 0.000000 0.000000
0.006430 0.010522 0.000000
0.010522 0.004267 0.000000
0.000000 0.000000 0.000000
0.021435 0.009964 0.000000
0.009964 0.017086 0.000000
0.000000 0.000000 0.000000
0.027252 0.005773 0.000000
0.005773 0.019828 0.000000
0.000000 0.000000 0.000000
0.003424 0.019806 0.000000
0.019806 -0.012123 0.000000
0.000000 0.000000 0.000000
0.013347 -0.017519 0.000000
-0.017519 -0.030819 0.000000
0.000000 0.000000 0.000000
-0.027881 -0.003331 0.000000
-0.003331 0.029569 0.000000
0.000000 0.000000 0.000000
0.016712 0.013008 0.000000
0.013008 0.020724 0.000000
0.000000 0.000000 0.000000
0.009272 -0.000049 0.000000
-0.000049 0.018243 0.000000
0.000000 0.000000 0.000000
0.008809 0.005136 0.000000
0.005136 0.018387 0.000000
0.000000 0.000000 0.000000
-0.009287 -0.003423 0.000000
-0.003423 0.006993 0.000000
0.000000 0.000000 0.000000
-0.007744 -0.011853 0.000000
-0.011853 -0.009674 0.000000
0.000000 0.000000 0.000000
0.007347 -0.013373 0.000000
-0.013373 -0.005039 0.000000
0.000000 0.000000 0.000000
0.001558 -0.000526 0.000000
-0.000526 0.001644 0.000000
0.000000 0.000000 0.000000
-0.012630 -0.010895 0.000000
-0.010895 -0.028065 0.000000
0.000000 0.000000 0.000000
-0.009161 -0.007607 0.000000
-0.007607 -0.031115 0.000000
0.000000 0.000000 0.000000
0.002950 -0.004626 0.000000
-0.004626 0.011229 0.000000
0.000000 0.000000 0.000000
0.017892 -0.003838 0.000000
-0.003838 0.003342 0.000000
0.000000 0.000000 0.000000
0.026574 0.007498 0.000000
0.007498 -0.024709 0.000000
0.000000 0.000000 0.000000
0.012744 -0.002248 0.000000
-0.002248 0.011755 0.000000
0.000000 0.000000 0.000000
0.009491 -0.004418 0.000000
-0.004418 0.013704 0.000000
0.000000 0.000000 0.000000
0.002725 -0.013083 0.000000
-0.013083 0.013434 0.000000
0.000000 0.000000 0.000000
-0.005894 -0.007185 0.000000
-0.007185 0.007360 0.000000
0.000000 0.000000 0.000000
-0.005599 -0.000588 0.000000
-0.000588 0.013231 0.000000
0.000000 0.000000 0.000000
-0.009224 -0.002557 0.000000
-0.002557 0.014899 0.000000
0.000000 0.000000 0.000000
0.010808 -0.003068 0.000000
-0.003068 0.013735 0.000000
0.000000 0.000000 0.000000
0.011059 -0.002539 0.000000
-0.002539 0.011385 0.000000
0.000000 0.000000 0.000000
0.014786 0.000755 0.000000
0.000755 0.006666 0.000000
0.000000 0.000000 0.000000
-0.003604 -0.014531 0.000000
-0.014531 0.006610 0.000000
0.000000 0.000000 0.000000
0.001236 0.007597 0.000000
0.007597 0.009265 0.000000
0.000000 0.000000 0.000000
-0.012495 -0.001799 0.000000
-0.001799 -0.038036 0.000000
0.000000 0.000000 0.000000
0.003452 -0.007398 0.000000
-0.007398 0.001549 0.000000
0.000000 0.000000 0.000000
0.003059 -0.011695 0.000000
-0.011695 -0.000541 0.000000
0.000000 0.000000 0.000000
0.010991 0.000088 0.000000
0.000088 0.019753 0.000000
0.000000 0.000000 0.000000
0.012034 -0.003389 0.000000
-0.003389 0.004666 0.000000
0.000000 0.000000 0.000000
-0.000653 -0.001108 0.000000
-0.001108 0.012026 0.000000
0.000000 0.000000 0.000000
0.000053 -0.000759 0.000000
-0.000759 0.010998 0.000000
0.000000 0.000000 0.000000
-0.001933 -0.013703 0.000000
-0.013703 -0.007135 0.000000
0.000000 0.000000 0.000000
0.023035 0.000008 0.000000
0.000008 0.015465 0.000000
0.000000 0.000000 0.000000
0.005986 0.000613 0.000000
0.000613 0.013437 0.000000
0.000000 0.000000 0.000000
0.002545 -0.001917 0.000000
-0.001917 0.005753 0.000000
0.000000 0.000000 0.000000
-0.034677 -0.015147 0.000000
-0.015147 -0.001220 0.000000
0.000000 0.000000 0.000000
-0.067981 0.000764 0.000000
0.000764 -0.027652 0.000000
0.000000 0.000000 0.000000
-0.005055 0.005307 0.000000
0.005307 -0.009170 0.000000
0.000000 0.000000 0.000000
-0.020072 -0.000499 0.000000
-0.000499 -0.002137 0.000000
0.000000 0.000000 0.000000
0.007369 0.004826 0.000000
0.004826 -0.002266 0.000000
0.000000 0.000000 0.000000
0.009442 0.009165 0.000000
0.009165 0.002171 0.000000
0.000000 0.000000 0.000000
0.004084 0.002215 0.000000
0.002215 0.012403 0.000000
0.000000 0.000000 0.000000
0.005640 0.001791 0.000000
0.001791 0.012931 0.000000
0.000000 0.000000 0.000000
0.009094 -0.004987 0.000000
-0.004987 0.015374 0.000000
0.000000 0.000000 0.000000
0.000329 0.001498 0.000000
0.001498 0.000901 0.000000
0.000000 0.000000 0.000000
0.007217 0.006323 0.000000
0.006323 0.005990 0.000000
0.000000 0.000000 0.000000
-0.002491 0.001180 0.000000
0.001180 0.000384 0.000000
0.000000 0.000000 0.000000
0.001708 -0.000624 0.000000
-0.000624 0.018381 0.000000
0.000000 0.000000 0.000000
-0.008100 -0.002489 0.000000
-0.002489 0.014803 0.000000
0.000000 0.000000 0.000000
0.022134 -0.012531 0.000000
-0.012531 0.027660 0.000000
0.000000 0.000000 0.000000
-0.017856 0.004756 0.000000
0.004756 -0.000321 0.000000
0.000000 0.000000 0.000000
0.080150 -0.012395 0.000000
-0.012395 0.008370 0.000000
0.000000 0.000000 0.000000
0.075250 -0.008743 0.000000
-0.008743 -0.000091 0.000000
0.000000 0.000000 0.000000
0.004746 0.001330 0.000000
0.001330 0.014024 0.000000
0.000000 0.000000 0.000000
0.003781 0.003217 0.000000
0.003217 0.006757 0.000000
0.000000 0.000000 0.000000
0.016788 -0.004544 0.000000
-0.004544 0.022819 0.000000
0.000000 0.000000 0.000000
-0.027842 0.001447 0.000000
0.001447 0.007920 0.000000
0.000000 0.000000 0.000000
-0.004150 -0.008241 0.000000
-0.008241 0.006200 0.000000
0.000000 0.000000 0.000000
-0.018267 -0.008193 0.000000
-0.008193 0.002427 0.000000
0.000000 0.000000 0.000000
-0.003932 0.007085 0.000000
0.007085 0.002172 0.000000
0.000000 0.000000 0.000000
0.003427 0.025884 0.000000
0.025884 -0.007576 0.000000
0.000000 0.000000 0.000000
0.003510 -0.022467 0.000000
-0.022467 0.011921 0.000000
0.000000 0.000000 0.000000
-0.017994 -0.036221 0.000000
-0.036221 -0.026862 0.000000
0.000000 0.000000 0.000000
-0.001817 -0.006171 0.000000
-0.006171 0.005363 0.000000
0.000000 0.000000 0.000000
-0.025484 -0.007300 0.000000
-0.007300 0.008041 0.000000
0.000000 0.000000 0.000000
-0.000770 -0.013653 0.000000
-0.013653 0.014754 0.000000
0.000000 0.000000 0.000000
-0.001103 -0.010474 0.000000
-0.010474 0.009613 0.000000
0.000000 0.000000 0.000000
-0.002955 0.001564 0.000000
0.001564 -0.001590 0.000000
0.000000 0.000000 0.000000
0.012287 0.011463 0.000000
0.011463 0.031698 0.000000
0.000000 0.000000 0.000000
-0.026246 0.026493 0.000000
0.026493 0.009323 0.000000
0.000000 0.000000 0.000000
-0.008045 0.013347 0.000000
0.013347 0.027311 0.000000
0.000000 0.000000 0.000000
0.001588 -0.004210 0.000000
-0.004210 -0.005192 0.000000
0.000000 0.000000 0.000000
0.002328 0.000667 0.000000
0.000667 0.002861 0.000000
0.000000 0.000000 0.000000
-0.003369 0.002605 0.000000
0.002605 0.006533 0.000000
0.000000 0.000000 0.000000
-0.016602 0.001623 0.000000
0.001623 0.004799 0.000000
0.000000 0.000000 0.000000
0.007734 -0.003134 0.000000
-0.003134 0.013758 0.000000
0.000000 0.000000 0.000000
0.003815 -0.000551 0.000000
-0.000551 0.014135 0.000000
0.000000 0.000000 0.000000
-0.002052 -0.006521 0.000000
-0.006521 0.003257 0.000000
0.000000 0.000000 0.000000
0.009369 -0.001456 0.000000
-0.001456 0.011505 0.000000
0.000000 0.000000 0.000000
0.005885 -0.000664 0.000000
-0.000664 0.008399 0.000000
0.000000 0.000000 0.000000
-0.005066 0.006308 0.000000
0.006308 -0.008995 0.000000
0.000000 0.000000 0.000000
0.006130 0.009418 0.000000
0.009418 -0.005112 0.000000
0.000000 0.000000 0.000000
0.023754 -0.006358 0.000000
-0.006358 0.030930 0.000000
0.000000 0.000000 0.000000
-0.018173 -0.007602 0.000000
-0.007602 -0.021532 0.000000
0.000000 0.000000 0.000000
0.000308 -0.000212 0.000000
-0.000212 -0.015444 0.000000
0.000000 0.000000 0.000000
-0.009631 -0.004278 0.000000
-0.004278 -0.001946 0.000000
0.000000 0.000000 0.000000
-0.007482 -0.004371 0.000000
-0.004371 -0.002691 0.000000
0.000000 0.000000 0.000000
0.001492 0.022608 0.000000
0.022608 -0.006670 0.000000
0.000000 0.000000 0.000000
0.025258 0.030600 0.000000
0.030600 -0.006543 0.000000
0.000000 0.000000 0.000000
-0.011081 0.002381 0.000000
0.002381 -0.003928 0.000000
0.000000 0.000000 0.000000
-0.026540 -0.003177 0.000000
-0.003177 -0.009610 0.000000
0.000000 0.000000 0.000000
-0.003353 0.019431 0.000000
0.019431 -0.001749 0.000000
0.000000 0.000000 0.000000
0.009724 0.033392 0.000000
0.033392 0.026916 0.000000
0.000000 0.000000 0.000000
0.048209 0.030628 0.000000
0.030628 -0.004931 0.000000
0.000000 0.000000 0.000000
-0.000149 0.011565 0.000000
0.011565 -0.003180 0.000000
0.000000 0.000000 0.000000
-0.010979 -0.003048 0.000000
-0.003048 -0.023041 0.000000
0.000000 0.000000 0.000000
-0.008030 -0.005719 0.000000
-0.005719 -0.015856 0.000000
0.000000 0.000000 0.000000
-0.003262 0.002409 0.000000
0.002409 0.002077 0.000000
0.000000 0.000000 0.000000
0.008710 -0.009817 0.000000
-0.009817 0.018359 0.000000
0.000000 0.000000 0.000000
0.008168 0.004623 0.000000
0.004623 0.004522 0.000000
0.000000 0.000000 0.000000
0.002898 0.002608 0.000000
0.002608 0.002163 0.000000
0.000000 0.000000 0.000000
-0.005578 -0.019917 0.000000
-0.019917 -0.010810 0.000000
0.000000 0.000000 0.000000
0.000551 0.001394 0.000000
0.001394 0.011604 0.000000
0.000000 0.000000 0.000000
-0.001944 0.001842 0.000000
0.001842 0.011082 0.000000
0.000000 0.000000 0.000000
0.000514 0.003456 0.000000
0.003456 0.003412 0.000000
0.000000 0.000000 0.000000
0.003151 0.003454 0.000000
0.003454 0.006093 0.000000
0.000000 0.000000 0.000000
-0.011329 0.006122 0.000000
0.006122 -0.004663 0.000000
0.000000 0.000000 0.000000
-0.012104 -0.004120 0.000000
-0.004120 -0.006726 0.000000
0.000000 0.000000 0.000000
-0.009913 -0.003986 0.000000
-0.003986 -0.013765 0.000000
0.000000 0.000000 0.000000
0.000525 0.008649 0.000000
0.008649 -0.019054 0.000000
0.000000 0.000000 0.000000
0.006963 0.000183 0.000000
0.000183 0.012748 0.000000
0.000000 0.000000 0.000000
0.012238 -0.003587 0.000000
-0.003587 -0.001717 0.000000
0.000000 0.000000 0.000000
-0.005035 0.001107 0.000000
0.001107 0.001886 0.000000
0.000000 0.000000 0.000000
0.004750 -0.001799 0.000000
-0.001799 0.009397 0.000000
0.000000 0.000000 0.000000
-0.020160 0.010591 0.000000
0.010591 -0.012132 0.000000
0.000000 0.000000 0.000000
0.022795 0.004933 0.000000
0.004933 -0.008657 0.000000
0.000000 0.000000 0.000000
-0.014238 -0.008119 0.000000
-0.008119 -0.007214 0.000000
0.000000 0.000000 0.000000
0.019215 -0.005663 0.000000
-0.005663 0.000454 0.000000
0.000000 0.000000 0.000000
-0.000831 -0.003428 0.000000
-0.003428 -0.005693 0.000000
0.000000 0.000000 0.000000
-0.036535 0.002262 0.000000
0.002262 0.019398 0.000000
0.000000 0.000000 0.000000
-0.027265 0.014146 0.000000
0.014146 0.018740 0.000000
0.000000 0.000000 0.000000
0.016278 -0.000104 0.000000
-0.000104 -0.009061 0.000000
0.000000 0.000000 0.000000
0.001340 -0.003946 0.000000
-0.003946 -0.009548 0.000000
0.000000 0.000000 0.000000
0.003134 -0.001781 0.000000
-0.001781 0.020860 0.000000
0.000000 0.000000 0.000000
-0.001042 0.000163 0.000000
0.000163 -0.004716 0.000000
0.000000 0.000000 0.000000
-0.015615 0.004706 0.000000
0.004706 -0.001373 0.000000
0.000000 0.000000 0.000000
-0.001855 -0.000013 0.000000
-0.000013 -0.002504 0.000000
0.000000 0.000000 0.000000
0.003291 -0.002148 0.000000
-0.002148 0.007605 0.000000
0.000000 0.000000 0.000000
-0.014689 -0.016982 0.000000
-0.016982 -0.006088 0.000000
0.000000 0.000000 0.000000
0.003037 -0.004292 0.000000
-0.004292 0.003690 0.000000
0.000000 0.000000 0.000000
0.001259 0.004957 0.000000
0.004957 -0.012078 0.000000
0.000000 0.000000 0.000000
0.009154 0.001222 0.000000
0.001222 0.014006 0.000000
0.000000 0.000000 0.000000
0.052822 -0.002258 0.000000
-0.002258 0.070066 0.000000
0.000000 0.000000 0.000000
-0.008845 0.003315 0.000000
0.003315 -0.016288 0.000000
0.000000 0.000000 0.000000
-0.022655 -0.002381 0.000000
-0.002381 -0.011155 0.000000
0.000000 0.000000 0.000000
-0.006195 0.002156 0.000000
0.002156 -0.002533 0.000000
0.000000 0.000000 0.000000
-0.018217 -0.005332 0.000000
-0.005332 -0.028447 0.000000
0.000000 0.000000 0.000000
-0.026069 0.018894 0.000000
0.018894 0.005422 0.000000
0.000000 0.000000 0.000000
-0.024558 0.021578 0.000000
0.021578 -0.008934 0.000000
0.000000 0.000000 0.000000
-0.006824 0.001094 0.000000
0.001094 -0.002379 0.000000
0.000000 0.000000 0.000000
0.002045 0.001921 0.000000
0.001921 -0.002322 0.000000
0.000000 0.000000 0.000000
-0.022753 -0.003050 0.000000
-0.003050 -0.001059 0.000000
0.000000 0.000000 0.000000
-0.011713 -0.007283 0.000000
-0.007283 0.002437 0.000000
0.000000 0.000000 0.000000
0.007344 0.020105 0.000000
0.020105 0.022630 0.000000
0.000000 0.000000 0.000000
-0.017927 0.000550 0.000000
0.000550 -0.021981 0.000000
0.000000 0.000000 0.000000
-0.015826 -0.008624 0.000000
-0.008624 -0.010087 0.000000
0.000000 0.000000 0.000000
0.005975 0.000390 0.000000
0.000390 0.002788 0.000000
0.000000 0.000000 0.000000
-0.008627 0.000816 0.000000
0.000816 -0.017574 0.000000
0.000000 0.000000 0.000000
-0.057712 0.015773 0.000000
0.015773 -0.017643 0.000000
0.000000 0.000000 0.000000
-0.015235 0.003819 0.000000
0.003819 0.027592 0.000000
0.000000 0.000000 0.000000
-0.001917 -0.003272 0.000000
-0.003272 -0.019370 0.000000
0.000000 0.000000 0.000000
-0.000539 0.003037 0.000000
0.003037 0.031393 0.000000
0.000000 0.000000 0.000000
0.001051 -0.000228 0.000000
-0.000228 0.013340 0.000000
0.000000 0.000000 0.000000
-0.014926 0.008434 0.000000
0.008434 0.016795 0.000000
0.000000 0.000000 0.000000
-0.004995 0.000564 0.000000
0.000564 0.003170 0.000000
0.000000 0.000000 0.000000
-0.007754 0.002544 0.000000
0.002544 -0.003247 0.000000
0.000000 0.000000 0.000000
-0.001880 -0.000472 0.000000
-0.000472 0.004667 0.000000
0.000000 0.000000 0.000000
0.004510 -0.015041 0.000000
-0.015041 -0.003365 0.000000
0.000000 0.000000 0.000000
0.007096 0.003208 0.000000
0.003208 0.007387 0.000000
0.000000 0.000000 0.000000
-0.000684 -0.012917 0.000000
-0.012917 -0.034840 0.000000
0.000000 0.000000 0.000000
0.003111 -0.003901 0.000000
-0.003901 -0.017036 0.000000
0.000000 0.000000 0.000000
-0.008366 -0.007155 0.000000
-0.007155 -0.021812 0.000000
0.000000 0.000000 0.000000
0.013677 0.000524 0.000000
0.000524 0.015358 0.000000
0.000000 0.000000 0.000000
-0.013352 0.019639 0.000000
0.019639 -0.016255 0.000000
0.000000 0.000000 0.000000
0.002096 0.001837 0.000000
0.001837 0.005382 0.000000
0.000000 0.000000 0.000000
0.000198 0.007664 0.000000
0.007664 -0.003845 0.000000
0.000000 0.000000 0.000000
0.013634 -0.011210 0.000000
-0.011210 -0.000906 0.000000
0.000000 0.000000 0.000000
0.011944 -0.000339 0.000000
-0.000339 0.019301 0.000000
0.000000 0.000000 0.000000
0.014049 0.004549 0.000000
0.004549 0.003189 0.000000
0.000000 0.000000 0.000000
-0.000470 -0.008155 0.000000
-0.008155 -0.003901 0.000000
0.000000 0.000000 0.000000
0.000391 0.008452 0.000000
0.008452 0.008866 0.000000
0.000000 0.000000 0.000000
0.014606 -0.005949 0.000000
-0.005949 0.015002 0.000000
0.000000 0.000000 0.000000
-0.012736 -0.000059 0.000000
-0.000059 -0.016710 0.000000
0.000000 0.000000 0.000000
0.003849 -0.000193 0.000000
-0.000193 0.015583 0.000000
0.000000 0.000000 0.000000
0.002247 0.005262 0.000000
0.005262 -0.024769 0.000000
0.000000 0.000000 0.000000
-0.012170 0.010738 0.000000
0.010738 -0.011850 0.000000
0.000000 0.000000 0.000000
0.002346 -0.011185 0.000000
-0.011185 0.028579 0.000000
0.000000 0.000000 0.000000
0.003218 -0.001116 0.000000
-0.001116 0.008549 0.000000
0.000000 0.000000 0.000000
-0.013427 0.000251 0.000000
0.000251 -0.006146 0.000000
0.000000 0.000000 0.000000
-0.002501 -0.004920 0.000000
-0.004920 -0.010030 0.000000
0.000000 0.000000 0.000000
0.017721 -0.007010 0.000000
-0.007010 0.019150 0.000000
0.000000 0.000000 0.000000
-0.014716 0.009399 0.000000
0.009399 -0.018674 0.000000
0.000000 0.000000 0.000000
-0.001558 0.006427 0.000000
0.006427 -0.011530 0.000000
0.000000 0.000000 0.000000
-0.003224 -0.002244 0.000000
-0.002244 -0.002215 0.000000
0.000000 0.000000 0.000000
0.012185 -0.005309 0.000000
-0.005309 0.013467 0.000000
0.000000 0.000000 0.000000
-0.010329 0.014460 0.000000
0.014460 0.002283 0.000000
0.000000 0.000000 0.000000
-0.003105 0.019442 0.000000
0.019442 -0.001294 0.000000
0.000000 0.000000 0.000000
0.010848 0.007492 0.000000
0.007492 -0.016559 0.000000
0.000000 0.000000 0.000000
0.012381 -0.002239 0.000000
-0.002239 -0.002258 0.000000
0.000000 0.000000 0.000000
0.015946 0.005115 0.000000
0.005115 -0.005051 0.000000
0.000000 0.000000 0.000000
0.007388 0.008905 0.000000
0.008905 -0.010934 0.000000
0.000000 0.000000 0.000000
-0.002538 -0.001070 0.000000
-0.001070 0.006853 0.000000
0.000000 0.000000 0.000000
0.008835 0.006103 0.000000
0.006103 0.033410 0.000000
0.000000 0.000000 0.000000
-0.013218 0.018899 0.000000
0.018899 -0.017740 0.000000
0.000000 0.000000 0.000000
-0.001890 0.010046 0.000000
0.010046 -0.000609 0.000000
0.000000 0.000000 0.000000
0.004984 -0.001642 0.000000
-0.001642 -0.013786 0.000000
0.000000 0.000000 0.000000
0.006768 -0.000247 0.000000
-0.000247 -0.010789 0.000000
0.000000 0.000000 0.000000
0.020448 -0.000388 0.000000
-0.000388 0.001283 0.000000
0.000000 0.000000 0.000000
0.009125 0.008838 0.000000
0.008838 0.016482 0.000000
0.000000 0.000000 0.000000
0.009773 -0.001726 0.000000
-0.001726 0.017288 0.000000
0.000000 0.000000 0.000000
0.000834 0.003997 0.000000
0.003997 0.000672 0.000000
0.000000 0.000000 0.000000
0.007902 -0.010296 0.000000
-0.010296 0.022159 0.000000
0.000000 0.000000 0.000000
-0.007861 -0.004395 0.000000
-0.004395 0.013074 0.000000
0.000000 0.000000 0.000000
0.007520 0.001949 0.000000
0.001949 0.010472 0.000000
0.000000 0.000000 0.000000
-0.006681 -0.007346 0.000000
-0.007346 -0.019875 0.000000
0.000000 0.000000 0.000000
0.008906 -0.003555 0.000000
-0.003555 0.020892 0.000000
0.000000 0.000000 0.000000
0.005214 -0.002576 0.000000
-0.002576 0.007634 0.000000
0.000000 0.000000 0.000000
0.011003 0.000902 0.000000
0.000902 -0.014183 0.000000
0.000000 0.000000 0.000000
0.003632 0.007430 0.000000
0.007430 -0.017825 0.000000
0.000000 0.000000 0.000000
0.011419 0.005971 0.000000
0.005971 -0.011458 0.000000
0.000000 0.000000 0.000000
-0.001770 0.003763 0.000000
0.003763 -0.014840 0.000000
0.000000 0.000000 0.000000
0.008802 -0.020437 0.000000
-0.020437 0.012802 0.000000
0.000000 0.000000 0.000000
0.007376 -0.016535 0.000000
-0.016535 0.004891 0.000000
0.000000 0.000000 0.000000
0.010233 -0.003352 0.000000
-0.003352 0.022401 0.000000
0.000000 0.000000 0.000000
0.019669 -0.009135 0.000000
-0.009135 0.025672 0.000000
0.000000 0.000000 0.000000
-0.008157 0.005935 0.000000
0.005935 0.017756 0.000000
0.000000 0.000000 0.000000
-0.005552 -0.005219 0.000000
-0.005219 -0.014047 0.000000
0.000000 0.000000 0.000000
0.010505 0.007832 0.000000
0.007832 0.027020 0.000000
0.000000 0.000000 0.000000
-0.001373 0.001527 0.000000
0.001527 0.015658 0.000000
0.000000 0.000000 0.000000
-0.006297 0.006419 0.000000
0.006419 -0.003589 0.000000
0.000000 0.000000 0.000000
-0.006930 0.004188 0.000000
0.004188 0.008820 0.000000
0.000000 0.000000 0.000000
0.017451 0.006055 0.000000
0.006055 -0.005544 0.000000
0.000000 0.000000 0.000000
0.028578 -0.013647 0.000000
-0.013647 0.001689 0.000000
0.000000 0.000000 0.000000
0.007019 -0.002482 0.000000
-0.002482 -0.007239 0.000000
0.000000 0.000000 0.000000
-0.002736 -0.006131 0.000000
-0.006131 -0.012822 0.000000
0.000000 0.000000 0.000000
-0.004193 0.001158 0.000000
0.001158 -0.004689 0.000000
0.000000 0.000000 0.000000
-0.003441 0.000977 0.000000
0.000977 0.007084 0.000000
0.000000 0.000000 0.000000
0.010128 0.021516 0.000000
0.021516 0.019568 0.000000
0.000000 0.000000 0.000000
0.006807 -0.008772 0.000000
-0.008772 -0.017669 0.000000
0.000000 0.000000 0.000000
-0.005826 0.003595 0.000000
0.003595 -0.003963 0.000000
0.000000 0.000000 0.000000
0.000684 0.010374 0.000000
0.010374 0.006906 0.000000
0.000000 0.000000 0.000000
0.015525 -0.013345 0.000000
-0.013345 0.005732 0.000000
0.000000 0.000000 0.000000
0.021067 -0.017272 0.000000
-0.017272 0.012166 0.000000
0.000000 0.000000 0.000000
0.017801 -0.002967 0.000000
-0.002967 -0.005635 0.000000
0.000000 0.000000 0.000000
0.003727 0.006971 0.000000
0.006971 -0.011494 0.000000
0.000000 0.000000 0.000000
0.002358 0.000594 0.000000
0.000594 0.014562 0.000000
0.000000 0.000000 0.000000
-0.020086 -0.014595 0.000000
-0.014595 0.003705 0.000000
0.000000 0.000000 0.000000
0.011269 0.012520 0.000000
0.012520 0.017654 0.000000
0.000000 0.000000 0.000000
-0.002324 0.011299 0.000000
0.011299 0.002207 0.000000
0.000000 0.000000 0.000000
0.000463 0.001908 0.000000
0.001908 -0.009935 0.000000
0.000000 0.000000 0.000000
0.013249 -0.000438 0.000000
-0.000438 0.011171 0.000000
0.000000 0.000000 0.000000
-0.024145 0.007308 0.000000
0.007308 0.005972 0.000000
0.000000 0.000000 0.000000
-0.001821 -0.001031 0.000000
-0.001031 -0.008674 0.000000
0.000000 0.000000 0.000000
-0.009741 0.007156 0.000000
0.007156 -0.015488 0.000000
0.000000 0.000000 0.000000
0.003278 -0.004723 0.000000
-0.004723 0.016870 0.000000
0.000000 0.000000 0.000000
-0.009295 0.009395 0.000000
0.009395 -0.017930 0.000000
0.000000 0.000000 0.000000
0.002711 0.000291 0.000000
0.000291 0.000058 0.000000
0.000000 0.000000 0.000000
0.010199 -0.002973 0.000000
-0.002973 0.006690 0.000000
0.000000 0.000000 0.000000
0.007622 -0.006176 0.000000
-0.006176 -0.009703 0.000000
0.000000 0.000000 0.000000
0.005930 -0.015346 0.000000
-0.015346 -0.000579 0.000000
0.000000 0.000000 0.000000
0.030881 -0.019177 0.000000
-0.019177 0.021092 0.000000
0.000000 0.000000 0.000000
0.021218 -0.009162 0.000000
-0.009162 0.000478 0.000000
0.000000 0.000000 0.000000
-0.013784 0.007525 0.000000
0.007525 -0.008379 0.000000
0.000000 0.000000 0.000000
-0.007386 -0.006996 0.000000
-0.006996 -0.008720 0.000000
0.000000 0.000000 0.000000
-0.004246 -0.012111 0.000000
-0.012111 -0.023724 0.000000
0.000000 0.000000 0.000000
-0.001018 0.005074 0.000000
0.005074 0.002810 0.000000
0.000000 0.000000 0.000000
-0.008101 0.008029 0.000000
0.008029 0.000692 0.000000
0.000000 0.000000 0.000000
-0.023788 0.005232 0.000000
0.005232 -0.022741 0.000000
0.000000 0.000000 0.000000
-0.003034 -0.003417 0.000000
-0.003417 -0.009792 0.000000
0.000000 0.000000 0.000000
0.002447 -0.023850 0.000000
-0.023850 0.044589 0.000000
0.000000 0.000000 0.000000
0.014250 -0.028765 0.000000
-0.028765 0.025209 0.000000
0.000000 0.000000 0.000000
-0.002691 0.003205 0.000000
0.003205 -0.003513 0.000000
0.000000 0.000000 0.000000
0.011909 -0.006437 0.000000
-0.006437 0.029918 0.000000
0.000000 0.000000 0.000000
0.008538 0.025418 0.000000
0.025418 0.019288 0.000000
0.000000 0.000000 0.000000
-0.007905 0.005789 0.000000
0.005789 -0.009955 0.000000
0.000000 0.000000 0.000000
-0.001307 -0.000067 0.000000
-0.000067 0.006211 0.000000
0.000000 0.000000 0.000000
0.001639 0.003827 0.000000
0.003827 0.011988 0.000000
0.000000 0.000000 0.000000
0.015162 0.001986 0.000000
0.001986 -0.000213 0.000000
0.000000 0.000000 0.000000
-0.007549 0.002092 0.000000
0.002092 -0.001174 0.000000
0.000000 0.000000 0.000000
0.009834 -0.023180 0.000000
-0.023180 0.000299 0.000000
0.000000 0.000000 0.000000
-0.024952 0.000239 0.000000
0.000239 -0.018316 0.000000
0.000000 0.000000 0.000000
-0.001407 0.001976 0.000000
0.001976 0.006816 0.000000
0.000000 0.000000 0.000000
-0.013219 -0.005538 0.000000
-0.005538 -0.016718 0.000000
0.000000 0.000000 0.000000
0.028726 -0.019294 0.000000
-0.019294 0.017436 0.000000
0.000000 0.000000 0.000000
0.027219 -0.019706 0.000000
-0.019706 -0.011224 0.000000
0.000000 0.000000 0.000000
0.013301 0.000775 0.000000
0.000775 -0.012339 0.000000
0.000000 0.000000 0.000000
0.006793 0.005268 0.000000
0.005268 -0.019125 0.000000
0.000000 0.000000 0.000000
-0.004037 -0.007598 0.000000
-0.007598 0.015120 0.000000
0.000000 0.000000 0.000000
-0.020940 -0.018767 0.000000
-0.018767 -0.005444 0.000000
0.000000 0.000000 0.000000
0.012474 0.004426 0.000000
0.004426 0.008499 0.000000
0.000000 0.000000 0.000000
0.009914 -0.000908 0.000000
-0.000908 0.015897 0.000000
0.000000 0.000000 0.000000
0.001352 0.003919 0.000000
0.003919 0.004198 0.000000
0.000000 0.000000 0.000000
0.008210 -0.001148 0.000000
-0.001148 0.011692 0.000000
0.000000 0.000000 0.000000
0.008449 -0.003595 0.000000
-0.003595 0.017733 0.000000
0.000000 0.000000 0.000000
0.006579 -0.004788 0.000000
-0.004788 0.014667 0.000000
0.000000 0.000000 0.000000
0.011425 -0.012825 0.000000
-0.012825 -0.000990 0.000000
0.000000 0.000000 0.000000
-0.006111 -0.002815 0.000000
-0.002815 -0.000384 0.000000
0.000000 0.000000 0.000000
0.003270 -0.004473 0.000000
-0.004473 0.002944 0.000000
0.000000 0.000000 0.000000
0.003615 -0.004780 0.000000
-0.004780 0.000816 0.000000
0.000000 0.000000 0.000000
0.006322 -0.004213 0.000000
-0.004213 0.014452 0.000000
0.000000 0.000000 0.000000
-0.005544 -0.007535 0.000000
-0.007535 -0.007109 0.000000
0.000000 0.000000 0.000000
0.034599 -0.010080 0.000000
-0.010080 0.000916 0.000000
0.000000 0.000000 0.000000
0.013850 0.008746 0.000000
0.008746 0.017395 0.000000
0.000000 0.000000 0.000000
-0.007881 0.001852 0.000000
0.001852 0.012387 0.000000
0.000000 0.000000 0.000000
0.006055 0.000484 0.000000
0.000484 -0.020186 0.000000
0.000000 0.000000 0.000000
0.009153 0.004258 0.000000
0.004258 -0.001019 0.000000
0.000000 0.000000 0.000000
-0.007312 0.007806 0.000000
0.007806 -0.003734 0.000000
0.000000 0.000000 0.000000
0.006152 0.035953 0.000000
0.035953 -0.016272 0.000000
0.000000 0.000000 0.000000
-0.006828 0.025331 0.000000
0.025331 -0.028638 0.000000
0.000000 0.000000 0.000000
0.014240 -0.003579 0.000000
-0.003579 0.014840 0.000000
0.000000 0.000000 0.000000
-0.035349 0.005445 0.000000
0.005445 -0.050750 0.000000
0.000000 0.000000 0.000000
0.000385 0.009565 0.000000
0.009565 0.000081 0.000000
0.000000 0.000000 0.000000
-0.015725 0.002948 0.000000
0.002948 -0.010300 0.000000
0.000000 0.000000 0.000000
-0.045231 0.007815 0.000000
0.007815 -0.036429 0.000000
0.000000 0.000000 0.000000
-0.034139 0.011916 0.000000
0.011916 -0.049598 0.000000
0.000000 0.000000 0.000000
-0.011117 0.023284 0.000000
0.023284 0.003458 0.000000
0.000000 0.000000 0.000000
-0.014936 0.009933 0.000000
0.009933 -0.030056 0.000000
0.000000 0.000000 0.000000
-0.005465 0.003020 0.000000
0.003020 -0.009740 0.000000
0.000000 0.000000 0.000000
-0.003589 0.001450 0.000000
0.001450 -0.004812 0.000000
0.000000 0.000000 0.000000
-0.014605 0.010583 0.000000
0.010583 -0.005863 0.000000
0.000000 0.000000 0.000000
0.000913 0.008499 0.000000
0.008499 -0.000682 0.000000
0.000000 0.000000 0.000000
0.004510 0.003438 0.000000
0.003438 0.015592 0.000000
0.000000 0.000000 0.000000
0.005459 0.000317 0.000000
0.000317 0.024332 0.000000
0.000000 0.000000 0.000000
0.017051 0.006455 0.000000
0.006455 0.020749 0.000000
0.000000 0.000000 0.000000
-0.001109 0.005122 0.000000
0.005122 -0.044797 0.000000
0.000000 0.000000 0.000000
0.006994 0.007951 0.000000
0.007951 -0.024603 0.000000
0.000000 0.000000 0.000000
0.015316 0.003620 0.000000
0.003620 -0.000947 0.000000
0.000000 0.000000 0.000000
-0.033497 -0.012585 0.000000
-0.012585 0.000114 0.000000
0.000000 0.000000 0.000000
0.006223 0.004725 0.000000
0.004725 -0.015656 0.000000
0.000000 0.000000 0.000000
0.028818 -0.000845 0.000000
-0.000845 -0.003922 0.000000
0.000000 0.000000 0.000000
0.003626 0.022404 0.000000
0.022404 0.010797 0.000000
0.000000 0.000000 0.000000
-0.016721 -0.009573 0.000000
-0.009573 -0.023928 0.000000
0.000000 0.000000 0.000000
-0.022326 -0.006101 0.000000
-0.006101 -0.002582 0.000000
0.000000 0.000000 0.000000
-0.010876 -0.007381 0.000000
-0.007381 -0.029959 0.000000
0.000000 0.000000 0.000000
0.010400 0.004483 0.000000
0.004483 -0.015834 0.000000
0.000000 0.000000 0.000000
-0.021328 0.000417 0.000000
0.000417 -0.008365 0.000000
0.000000 0.000000 0.000000
-0.000998 0.010251 0.000000
0.010251 0.007661 0.000000
0.000000 0.000000 0.000000
-0.010188 0.006680 0.000000
0.006680 -0.003443 0.000000
0.000000 0.000000 0.000000
-0.012851 0.012489 0.000000
0.012489 0.007760 0.000000
0.000000 0.000000 0.000000
-0.011074 -0.004411 0.000000
-0.004411 -0.013765 0.000000
0.000000 0.000000 0.000000
-0.011127 -0.008718 0.000000
-0.008718 0.000534 0.000000
0.000000 0.000000 0.000000
0.005582 0.008397 0.000000
0.008397 0.006939 0.000000
0.000000 0.000000 0.000000
0.014575 0.005964 0.000000
0.005964 0.010262 0.000000
0.000000 0.000000 0.000000
-0.032347 0.002052 0.000000
0.002052 -0.000316 0.000000
0.000000 0.000000 0.000000
-0.007972 -0.015597 0.000000
-0.015597 0.017864 0.000000
0.000000 0.000000 0.000000
-0.001563 -0.000255 0.000000
-0.000255 -0.029642 0.000000
0.000000 0.000000 0.000000
-0.005709 0.005196 0.000000
0.005196 0.003139 0.000000
0.000000 0.000000 0.000000
0.006158 -0.013053 0.000000
-0.013053 0.001234 0.000000
0.000000 0.000000 0.000000
0.030264 0.020600 0.000000
0.020600 -0.001881 0.000000
0.000000 0.000000 0.000000
-0.015835 -0.002879 0.000000
-0.002879 -0.026373 0.000000
0.000000 0.000000 0.000000
-0.002172 0.010263 0.000000
0.010263 0.017374 0.000000
0.000000 0.000000 0.000000
-0.002947 -0.000491 0.000000
-0.000491 -0.010994 0.000000
0.000000 0.000000 0.000000
-0.006798 0.006681 0.000000
0.006681 -0.015027 0.000000
0.000000 0.000000 0.000000
-0.002783 -0.005426 0.000000
-0.005426 0.010423 0.000000
0.000000 0.000000 0.000000
0.009752 -0.002145 0.000000
-0.002145 0.014808 0.000000
0.000000 0.000000 0.000000
-0.001508 0.005303 0.000000
0.005303 -0.023482 0.000000
0.000000 0.000000 0.000000
-0.006416 0.005888 0.000000
0.005888 -0.023793 0.000000
0.000000 0.000000 0.000000
-0.001990 0.001298 0.000000
0.001298 -0.005385 0.000000
0.000000 0.000000 0.000000
0.003917 -0.002421 0.000000
-0.002421 0.003774 0.000000
0.000000 0.000000 0.000000
0.015626 -0.012450 0.000000
-0.012450 0.006919 0.000000
0.000000 0.000000 0.000000
0.016238 0.001894 0.000000
0.001894 -0.010959 0.000000
0.000000 0.000000 0.000000
0.006059 -0.007409 0.000000
-0.007409 -0.009488 0.000000
0.000000 0.000000 0.000000
0.017232 -0.002064 0.000000
-0.002064 -0.031517 0.000000
0.000000 0.000000 0.000000
-0.033621 0.001042 0.000000
0.001042 -0.022697 0.000000
0.000000 0.000000 0.000000
-0.015811 -0.005888 0.000000
-0.005888 -0.000218 0.000000
0.000000 0.000000 0.000000
0.010296 0.009872 0.000000
0.009872 -0.000832 0.000000
0.000000 0.000000 0.000000
0.012746 0.004864 0.000000
0.004864 0.011412 0.000000
0.000000 0.000000 0.000000
-0.001646 -0.003875 0.000000
-0.003875 0.014717 0.000000
0.000000 0.000000 0.000000
0.003253 -0.001133 0.000000
-0.001133 0.018296 0.000000
0.000000 0.000000 0.000000
0.038595 0.016366 0.000000
0.016366 0.025155 0.000000
0.000000 0.000000 0.000000
0.002478 -0.004942 0.000000
-0.004942 0.003743 0.000000
0.000000 0.000000 0.000000
0.003929 -0.008023 0.000000
-0.008023 0.017651 0.000000
0.000000 0.000000 0.000000
-0.009107 -0.005114 0.000000
-0.005114 0.013905 0.000000
0.000000 0.000000 0.000000
0.009392 -0.010361 0.000000
-0.010361 0.002827 0.000000
0.000000 0.000000 0.000000
-0.016777 -0.008148 0.000000
-0.008148 0.012980 0.000000
0.000000 0.000000 0.000000
-0.025931 -0.014348 0.000000
-0.014348 0.000591 0.000000
0.000000 0.000000 0.000000
0.000659 0.006233 0.000000
0.006233 -0.000188 0.000000
0.000000 0.000000 0.000000
-0.005341 0.020260 0.000000
0.020260 0.011348 0.000000
0.000000 0.000000 0.000000
0.000590 0.008606 0.000000
0.008606 0.006928 0.000000
0.000000 0.000000 0.000000
-0.009628 -0.002377 0.000000
-0.002377 0.002134 0.000000
0.000000 0.000000 0.000000
0.004979 0.005430 0.000000
0.005430 0.014145 0.000000
0.000000 0.000000 0.000000
0.001954 0.010849 0.000000
0.010849 -0.005729 0.000000
0.000000 0.000000 0.000000
0.001372 0.011545 0.000000
0.011545 0.013277 0.000000
0.000000 0.000000 0.000000
-0.013063 0.013869 0.000000
0.013869 0.002047 0.000000
0.000000 0.000000 0.000000
-0.003179 0.008484 0.000000
0.008484 -0.000321 0.000000
0.000000 0.000000 0.000000
-0.009995 0.000971 0.000000
0.000971 -0.008759 0.000000
0.000000 0.000000 0.000000
-0.003660 -0.002842 0.000000
-0.002842 -0.005386 0.000000
0.000000 0.000000 0.000000
-0.006174 0.005143 0.000000
0.005143 -0.002933 0.000000
0.000000 0.000000 0.000000
-0.015247 -0.008361 0.000000
-0.008361 -0.043881 0.000000
0.000000 0.000000 0.000000
0.001431 0.008679 0.000000
0.008679 0.003176 0.000000
0.000000 0.000000 0.000000
0.002790 -0.000554 0.000000
-0.000554 -0.008921 0.000000
0.000000 0.000000 0.000000
0.001578 0.003320 0.000000
0.003320 0.017073 0.000000
0.000000 0.000000 0.000000
-0.006529 -0.005430 0.000000
-0.005430 -0.000446 0.000000
0.000000 0.000000 0.000000
-0.000197 -0.004017 0.000000
-0.004017 -0.004575 0.000000
0.000000 0.000000 0.000000
-0.006501 -0.008258 0.000000
-0.008258 0.000406 0.000000
0.000000 0.000000 0.000000
0.003519 0.004305 0.000000
0.004305 0.020727 0.000000
0.000000 0.000000 0.000000
0.003908 -0.002830 0.000000
-0.002830 -0.004941 0.000000
0.000000 0.000000 0.000000
-0.023904 0.002097 0.000000
0.002097 0.003265 0.000000
0.000000 0.000000 0.000000
-0.012417 -0.004152 0.000000
-0.004152 0.007527 0.000000
0.000000 0.000000 0.000000
0.021077 0.002661 0.000000
0.002661 -0.007542 0.000000
0.000000 0.000000 0.000000
0.006571 -0.002319 0.000000
-0.002319 -0.012216 0.000000
0.000000 0.000000 0.000000
-0.005851 0.000361 0.000000
0.000361 -0.016959 0.000000
0.000000 0.000000 0.000000
-0.000852 -0.002373 0.000000
-0.002373 -0.003463 0.000000
0.000000 0.000000 0.000000
-0.000332 0.006076 0.000000
0.006076 -0.000327 0.000000
0.000000 0.000000 0.000000
-0.001360 0.004286 0.000000
0.004286 -0.003185 0.000000
0.000000 0.000000 0.000000
0.007232 -0.005204 0.000000
-0.005204 0.004863 0.000000
0.000000 0.000000 0.000000
-0.000397 0.030489 0.000000
0.030489 -0.037526 0.000000
0.000000 0.000000 0.000000
-0.007742 0.028719 0.000000
0.028719 -0.039983 0.000000
0.000000 0.000000 0.000000
-0.011202 -0.002134 0.000000
-0.002134 -0.028984 0.000000
0.000000 0.000000 0.000000
-0.005351 0.005866 0.000000
0.005866 0.000280 0.000000
0.000000 0.000000 0.000000
-0.001044 0.007995 0.000000
0.007995 0.000930 0.000000
0.000000 0.000000 0.000000
-0.005320 -0.006573 0.000000
-0.006573 -0.002489 0.000000
0.000000 0.000000 0.000000
-0.001113 -0.003650 0.000000
-0.003650 0.004698 0.000000
0.000000 0.000000 0.000000
-0.016238 0.003737 0.000000
0.003737 -0.011306 0.000000
0.000000 0.000000 0.000000
-0.006894 -0.002938 0.000000
-0.002938 0.002913 0.000000
0.000000 0.000000 0.000000
-0.009416 0.016223 0.000000
0.016223 0.023871 0.000000
0.000000 0.000000 0.000000
-0.012321 0.000529 0.000000
0.000529 -0.030934 0.000000
0.000000 0.000000 0.000000
0.007443 -0.007695 0.000000
-0.007695 0.017804 0.000000
0.000000 0.000000 0.000000
-0.008813 -0.001554 0.000000
-0.001554 0.008236 0.000000
0.000000 0.000000 0.000000
0.007395 0.000981 0.000000
0.000981 0.012444 0.000000
0.000000 0.000000 0.000000
0.000017 -0.011581 0.000000
-0.011581 0.022351 0.000000
0.000000 0.000000 0.000000
0.008211 0.003618 0.000000
0.003618 0.017167 0.000000
0.000000 0.000000 0.000000
-0.001454 0.004914 0.000000
0.004914 0.008596 0.000000
0.000000 0.000000 0.000000
0.017111 0.031836 0.000000
0.031836 0.016331 0.000000
0.000000 0.000000 0.000000
-0.018137 0.008313 0.000000
0.008313 -0.019913 0.000000
0.000000 0.000000 0.000000
-0.003921 -0.000506 0.000000
-0.000506 -0.002612 0.000000
0.000000 0.000000 0.000000
-0.008184 -0.003230 0.000000
-0.003230 -0.010293 0.000000
0.000000 0.000000 0.000000
-0.010008 0.000000 0.000000
0.000000 -0.020854 0.000000
0.000000 0.000000 0.000000
-0.011023 -0.006781 0.000000
-0.006781 -0.013958 0.000000
0.000000 0.000000 0.000000
0.019512 0.003748 0.000000
0.003748 0.001507 0.000000
0.000000 0.000000 0.000000
0.018547 -0.010977 0.000000
-0.010977 0.016066 0.000000
0.000000 0.000000 0.000000
0.024445 0.009611 0.000000
0.009611 0.019130 0.000000
0.000000 0.000000 0.000000
-0.016266 -0.018209 0.000000
-0.018209 -0.038284 0.000000
0.000000 0.000000 0.000000
0.007702 -0.004534 0.000000
-0.004534 0.019937 0.000000
0.000000 0.000000 0.000000
-0.004501 -0.015568 0.000000
-0.015568 0.026947 0.000000
0.000000 0.000000 0.000000
-0.072836 -0.025991 0.000000
-0.025991 -0.027396 0.000000
0.000000 0.000000 0.000000
0.000594 0.005646 0.000000
0.005646 0.000316 0.000000
0.000000 0.000000 0.000000
-0.023986 -0.017527 0.000000
-0.017527 -0.000976 0.000000
0.000000 0.000000 0.000000
-0.025120 -0.017970 0.000000
-0.017970 -0.001565 0.000000
0.000000 0.000000 0.000000
0.006722 0.006006 0.000000
0.006006 -0.008517 0.000000
0.000000 0.000000 0.000000
-0.012506 0.015719 0.000000
0.015719 -0.021826 0.000000
0.000000 0.000000 0.000000
0.011640 -0.008905 0.000000
-0.008905 -0.007663 0.000000
0.000000 0.000000 0.000000
0.005167 -0.013125 0.000000
-0.013125 -0.017783 0.000000
0.000000 0.000000 0.000000
-0.008693 0.018560 0.000000
0.018560 -0.001465 0.000000
0.000000 0.000000 0.000000
0.007938 0.009439 0.000000
0.009439 0.014986 0.000000
0.000000 0.000000 0.000000
0.010841 0.008794 0.000000
0.008794 -0.001239 0.000000
0.000000 0.000000 0.000000
0.004421 0.002396 0.000000
0.002396 -0.007466 0.000000
0.000000 0.000000 0.000000
-0.005507 0.002027 0.000000
0.002027 -0.015085 0.000000
0.000000 0.000000 0.000000
-0.014922 0.004374 0.000000
0.004374 -0.012917 0.000000
0.000000 0.000000 0.000000
-0.003952 0.009184 0.000000
0.009184 -0.005103 0.000000
0.000000 0.000000 0.000000
0.010984 0.001079 0.000000
0.001079 0.008030 0.000000
0.000000 0.000000 0.000000
-0.006825 0.002157 0.000000
0.002157 -0.011501 0.000000
0.000000 0.000000 0.000000
-0.008486 0.014383 0.000000
0.014383 0.014670 0.000000
0.000000 0.000000 0.000000
0.021111 -0.013576 0.000000
-0.013576 0.008444 0.000000
0.000000 0.000000 0.000000
0.003449 -0.001997 0.000000
-0.001997 0.011171 0.000000
0.000000 0.000000 0.000000
0.008396 -0.016674 0.000000
-0.016674 0.005292 0.000000
0.000000 0.000000 0.000000
0.044711 0.005550 0.000000
0.005550 0.013687 0.000000
0.000000 0.000000 0.000000
0.039760 -0.004623 0.000000
-0.004623 0.044719 0.000000
0.000000 0.000000 0.000000
0.008503 0.000740 0.000000
0.000740 -0.013238 0.000000
0.000000 0.000000 0.000000
-0.010425 -0.003190 0.000000
-0.003190 -0.002583 0.000000
0.000000 0.000000 0.000000
-0.012422 -0.002720 0.000000
-0.002720 -0.002321 0.000000
0.000000 0.000000 0.000000
-0.010604 0.011539 0.000000
0.011539 0.030499 0.000000
0.000000 0.000000 0.000000
0.011066 0.001422 0.000000
0.001422 0.009337 0.000000
0.000000 0.000000 0.000000
-0.001561 0.007297 0.000000
0.007297 0.000019 0.000000
0.000000 0.000000 0.000000
-0.002231 0.004813 0.000000
0.004813 -0.007923 0.000000
0.000000 0.000000 0.000000
0.024430 -0.009769 0.000000
-0.009769 0.003110 0.000000
0.000000 0.000000 0.000000
0.019404 -0.006515 0.000000
-0.006515 -0.006055 0.000000
0.000000 0.000000 0.000000
0.013184 0.000224 0.000000
0.000224 -0.011738 0.000000
0.000000 0.000000 0.000000
0.032473 0.035108 0.000000
0.035108 0.009465 0.000000
0.000000 0.000000 0.000000
0.026837 0.015129 0.000000
0.015129 0.019000 0.000000
0.000000 0.000000 0.000000
0.014496 0.000157 0.000000
0.000157 0.013878 0.000000
0.000000 0.000000 0.000000
-0.012123 -0.004487 0.000000
-0.004487 -0.000047 0.000000
0.000000 0.000000 0.000000
-0.020500 0.015384 0.000000
0.015384 0.017203 0.000000
0.000000 0.000000 0.000000
0.013261 0.003629 0.000000
0.003629 -0.041643 0.000000
0.000000 0.000000 0.000000
0.045540 -0.010495 0.000000
-0.010495 0.059476 0.000000
0.000000 0.000000 0.000000
-0.006272 -0.008326 0.000000
-0.008326 -0.015797 0.000000
0.000000 0.000000 0.000000
0.007990 0.001967 0.000000
0.001967 0.011616 0.000000
0.000000 0.000000 0.000000
0.030307 0.007810 0.000000
0.007810 0.005083 0.000000
0.000000 0.000000 0.000000
0.006356 -0.017573 0.000000
-0.017573 -0.018092 0.000000
0.000000 0.000000 0.000000
0.019132 0.005935 0.000000
0.005935 0.007754 0.000000
0.000000 0.000000 0.000000
-0.013837 -0.012787 0.000000
-0.012787 -0.025163 0.000000
0.000000 0.000000 0.000000
-0.005164 -0.003354 0.000000
-0.003354 -0.019495 0.000000
0.000000 0.000000 0.000000
0.000752 -0.001668 0.000000
-0.001668 -0.000593 0.000000
0.000000 0.000000 0.000000
-0.002409 0.004593 0.000000
0.004593 -0.007996 0.000000
0.000000 0.000000 0.000000
0.000273 0.004934 0.000000
0.004934 0.005193 0.000000
0.000000 0.000000 0.000000
-0.012969 -0.001561 0.000000
-0.001561 -0.020574 0.000000
0.000000 0.000000 0.000000
-0.001218 -0.009553 0.000000
-0.009553 -0.017560 0.000000
0.000000 0.000000 0.000000
-0.037399 -0.018596 0.000000
-0.018596 -0.004355 0.000000
0.000000 0.000000 0.000000
-0.001017 -0.014264 0.000000
-0.014264 -0.027744 0.000000
0.000000 0.000000 0.000000
-0.009553 0.009289 0.000000
0.009289 -0.013769 0.000000
0.000000 0.000000 0.000000
-0.005969 0.005144 0.000000
0.005144 -0.021037 0.000000
0.000000 0.000000 0.000000
0.001393 -0.010979 0.000000
-0.010979 -0.009450 0.000000
0.000000 0.000000 0.000000
-0.002069 0.018423 0.000000
0.018423 0.022098 0.000000
0.000000 0.000000 0.000000
-0.003988 -0.012105 0.000000
-0.012105 0.043684 0.000000
0.000000 0.000000 0.000000
0.020723 0.025602 0.000000
0.025602 -0.009783 0.000000
0.000000 0.000000 0.000000
-0.017980 -0.000644 0.000000
-0.000644 -0.014906 0.000000
0.000000 0.000000 0.000000
-0.002578 -0.014474 0.000000
-0.014474 -0.035424 0.000000
0.000000 0.000000 0.000000
-0.001504 -0.013783 0.000000
-0.013783 0.013893 0.000000
0.000000 0.000000 0.000000
-0.031664 -0.024111 0.000000
-0.024111 0.004327 0.000000
0.000000 0.000000 0.000000
0.006922 0.017605 0.000000
0.017605 0.017200 0.000000
0.000000 0.000000 0.000000
0.008597 0.018203 0.000000
0.018203 0.022676 0.000000
0.000000 0.000000 0.000000
0.000278 -0.004869 0.000000
-0.004869 0.023140 0.000000
0.000000 0.000000 0.000000
-0.008776 0.002440 0.000000
0.002440 0.005866 0.000000
0.000000 0.000000 0.000000
0.010197 -0.006056 0.000000
-0.006056 -0.005072 0.000000
0.000000 0.000000 0.000000
0.019784 -0.003228 0.000000
-0.003228 0.006459 0.000000
0.000000 0.000000 0.000000
0.016863 -0.000663 0.000000
-0.000663 -0.002456 0.000000
0.000000 0.000000 0.000000
0.017442 0.002576 0.000000
0.002576 0.002257 0.000000
0.000000 0.000000 0.000000
0.009918 0.009514 0.000000
0.009514 0.004054 0.000000
0.000000 0.000000 0.000000
0.004964 0.008854 0.000000
0.008854 0.006711 0.000000
0.000000 0.000000 0.000000
0.005609 0.002450 0.000000
0.002450 -0.005348 0.000000
0.000000 0.000000 0.000000
-0.003738 0.001576 0.000000
0.001576 -0.014740 0.000000
0.000000 0.000000 0.000000
0.008111 0.000362 0.000000
0.000362 0.007884 0.000000
0.000000 0.000000 0.000000
-0.042159 -0.005482 0.000000
-0.005482 -0.013382 0.000000
0.000000 0.000000 0.000000
-0.035000 -0.014226 0.000000
-0.014226 0.005138 0.000000
0.000000 0.000000 0.000000
-0.006481 -0.023187 0.000000
-0.023187 0.004139 0.000000
0.000000 0.000000 0.000000
-0.005083 0.013043 0.000000
0.013043 -0.021817 0.000000
0.000000 0.000000 0.000000
-0.006124 0.006115 0.000000
0.006115 0.009526 0.000000
0.000000 0.000000 0.000000
0.000945 0.012061 0.000000
0.012061 0.006458 0.000000
0.000000 0.000000 0.000000
-0.006039 0.007259 0.000000
0.007259 -0.004528 0.000000
0.000000 0.000000 0.000000
-0.016059 -0.003437 0.000000
-0.003437 0.004684 0.000000
0.000000 0.000000 0.000000
0.027451 0.030169 0.000000
0.030169 0.006934 0.000000
0.000000 0.000000 0.000000
0.015220 -0.005411 0.000000
-0.005411 0.000975 0.000000
0.000000 0.000000 0.000000
-0.008784 -0.007062 0.000000
-0.007062 -0.006170 0.000000
0.000000 0.000000 0.000000
-0.000541 0.010453 0.000000
0.010453 0.000815 0.000000
0.000000 0.000000 0.000000
0.024229 0.029015 0.000000
0.029015 0.023682 0.000000
0.000000 0.000000 0.000000
0.006620 -0.001761 0.000000
-0.001761 0.020429 0.000000
0.000000 0.000000 0.000000
-0.037732 -0.020606 0.000000
-0.020606 0.014492 0.000000
0.000000 0.000000 0.000000
-0.004720 0.002354 0.000000
0.002354 -0.014772 0.000000
0.000000 0.000000 0.000000
0.001278 -0.003504 0.000000
-0.003504 -0.004899 0.000000
0.000000 0.000000 0.000000
0.003090 0.001404 0.000000
0.001404 0.008364 0.000000
0.000000 0.000000 0.000000
-0.007514 0.004304 0.000000
0.004304 0.006015 0.000000
0.000000 0.000000 0.000000
-0.003613 0.003134 0.000000
0.003134 -0.000705 0.000000
0.000000 0.000000 0.000000
0.014810 -0.011047 0.000000
-0.011047 0.030493 0.000000
0.000000 0.000000 0.000000
0.017463 -0.008842 0.000000
-0.008842 0.020241 0.000000
0.000000 0.000000 0.000000
0.009935 -0.002747 0.000000
-0.002747 -0.000748 0.000000
0.000000 0.000000 0.000000
0.004234 -0.015769 0.000000
-0.015769 -0.000902 0.000000
0.000000 0.000000 0.000000
-0.008672 0.003765 0.000000
0.003765 0.034702 0.000000
0.000000 0.000000 0.000000
-0.004365 -0.020829 0.000000
-0.020829 -0.011114 0.000000
0.000000 0.000000 0.000000
0.008453 0.057649 0.000000
0.057649 0.026904 0.000000
0.000000 0.000000 0.000000
0.002562 -0.004899 0.000000
-0.004899 0.010586 0.000000
0.000000 0.000000 0.000000
-0.008738 -0.002278 0.000000
-0.002278 0.001299 0.000000
0.000000 0.000000 0.000000
0.007695 -0.005324 0.000000
-0.005324 -0.012541 0.000000
0.000000 0.000000 0.000000
0.007083 0.000787 0.000000
0.000787 0.028643 0.000000
0.000000 0.000000 0.000000
-0.019618 -0.018864 0.000000
-0.018864 0.020897 0.000000
0.000000 0.000000 0.000000
-0.001756 -0.001422 0.000000
-0.001422 -0.003720 0.000000
0.000000 0.000000 0.000000
0.000767 0.003552 0.000000
0.003552 0.009690 0.000000
0.000000 0.000000 0.000000
-0.006336 -0.003596 0.000000
-0.003596 -0.007352 0.000000
0.000000 0.000000 0.000000
0.013845 0.005416 0.000000
0.005416 0.035597 0.000000
0.000000 0.000000 0.000000
0.014165 -0.022635 0.000000
-0.022635 -0.000270 0.000000
0.000000 0.000000 0.000000
0.010906 0.002038 0.000000
0.002038 0.016694 0.000000
0.000000 0.000000 0.000000
0.013883 -0.012757 0.000000
-0.012757 -0.000648 0.000000
0.000000 0.000000 0.000000
-0.017328 -0.005828 0.000000
-0.005828 -0.004048 0.000000
0.000000 0.000000 0.000000
0.010662 0.010147 0.000000
0.010147 -0.021998 0.000000
0.000000 0.000000 0.000000
0.018203 0.007207 0.000000
0.007207 -0.018408 0.000000
0.000000 0.000000 0.000000
0.010533 -0.008580 0.000000
-0.008580 0.027363 0.000000
0.000000 0.000000 0.000000
-0.017105 -0.004017 0.000000
-0.004017 0.000846 0.000000
0.000000 0.000000 0.000000
0.008347 -0.010266 0.000000
-0.010266 0.000886 0.000000
0.000000 0.000000 0.000000
0.008520 0.009430 0.000000
0.009430 0.014505 0.000000
0.000000 0.000000 0.000000
-0.007820 0.006929 0.000000
0.006929 -0.013468 0.000000
0.000000 0.000000 0.000000
0.002979 -0.003556 0.000000
-0.003556 -0.001429 0.000000
0.000000 0.000000 0.000000
0.000883 -0.006493 0.000000
-0.006493 -0.032064 0.000000
0.000000 0.000000 0.000000
-0.008811 0.010027 0.000000
0.010027 0.009748 0.000000
0.000000 0.000000 0.000000
-0.009546 -0.004749 0.000000
-0.004749 0.018266 0.000000
0.000000 0.000000 0.000000
0.008574 0.024841 0.000000
0.024841 -0.002976 0.000000
0.000000 0.000000 0.000000
-0.026922 0.006548 0.000000
0.006548 -0.002930 0.000000
0.000000 0.000000 0.000000
0.000473 0.005865 0.000000
0.005865 -0.008583 0.000000
0.000000 0.000000 0.000000
0.018920 -0.000971 0.000000
-0.000971 0.002115 0.000000
0.000000 0.000000 0.000000
-0.003276 0.001916 0.000000
0.001916 -0.022967 0.000000
0.000000 0.000000 0.000000
0.003630 0.002657 0.000000
0.002657 0.009807 0.000000
0.000000 0.000000 0.000000
0.004223 0.003709 0.000000
0.003709 -0.003653 0.000000
0.000000 0.000000 0.000000
-0.001006 -0.000748 0.000000
-0.000748 -0.001310 0.000000
0.000000 0.000000 0.000000
0.005388 -0.015683 0.000000
-0.015683 0.015331 0.000000
0.000000 0.000000 0.000000
-0.011734 -0.000259 0.000000
-0.000259 -0.019214 0.000000
0.000000 0.000000 0.000000
-0.003745 -0.000592 0.000000
-0.000592 -0.019172 0.000000
0.000000 0.000000 0.000000
-0.001846 0.011278 0.000000
0.011278 -0.001254 0.000000
0.000000 0.000000 0.000000
-0.000869 0.012505 0.000000
0.012505 -0.015978 0.000000
0.000000 0.000000 0.000000
0.000639 0.011920 0.000000
0.011920 -0.016619 0.000000
0.000000 0.000000 0.000000
-0.010615 -0.003877 0.000000
-0.003877 -0.007927 0.000000
0.000000 0.000000 0.000000
0.010878 0.012535 0.000000
0.012535 -0.011352 0.000000
0.000000 0.000000 0.000000
0.021579 0.010254 0.000000
0.010254 0.001103 0.000000
0.000000 0.000000 0.000000
-0.027295 -0.002192 0.000000
-0.002192 -0.010680 0.000000
0.000000 0.000000 0.000000
-0.000780 -0.011253 0.000000
-0.011253 0.001767 0.000000
0.000000 0.000000 0.000000
0.014542 -0.001454 0.000000
-0.001454 0.024410 0.000000
0.000000 0.000000 0.000000
0.006283 0.001641 0.000000
0.001641 -0.003555 0.000000
0.000000 0.000000 0.000000
0.002371 0.003913 0.000000
0.003913 0.004403 0.000000
0.000000 0.000000 0.000000
-0.016725 0.008455 0.000000
0.008455 0.004420 0.000000
0.000000 0.000000 0.000000
0.018001 -0.018182 0.000000
-0.018182 0.006793 0.000000
0.000000 0.000000 0.000000
0.015650 -0.011404 0.000000
-0.011404 0.005657 0.000000
0.000000 0.000000 0.000000
0.013584 -0.010374 0.000000
-0.010374 0.004246 0.000000
0.000000 0.000000 0.000000
-0.001372 -0.001900 0.000000
-0.001900 0.019529 0.000000
0.000000 0.000000 0.000000
-0.013778 0.007219 0.000000
0.007219 -0.033643 0.000000
0.000000 0.000000 0.000000
0.012374 0.002395 0.000000
0.002395 0.020019 0.000000
0.000000 0.000000 0.000000
0.008288 0.005050 0.000000
0.005050 0.015707 0.000000
0.000000 0.000000 0.000000
0.006750 -0.003688 0.000000
-0.003688 0.021069 0.000000
0.000000 0.000000 0.000000
-0.004703 -0.002504 0.000000
-0.002504 0.012499 0.000000
0.000000 0.000000 0.000000
0.010181 0.007326 0.000000
0.007326 0.000914 0.000000
0.000000 0.000000 0.000000
0.003754 0.004482 0.000000
0.004482 0.019761 0.000000
0.000000 0.000000 0.000000
-0.001581 -0.000297 0.000000
-0.000297 -0.022035 0.000000
0.000000 0.000000 0.000000
0.001913 0.002451 0.000000
0.002451 -0.006894 0.000000
0.000000 0.000000 0.000000
0.002667 -0.001662 0.000000
-0.001662 -0.030604 0.000000
0.000000 0.000000 0.000000
0.000895 -0.002070 0.000000
-0.002070 0.016863 0.000000
0.000000 0.000000 0.000000
0.000389 -0.001863 0.000000
-0.001863 0.003355 0.000000
0.000000 0.000000 0.000000
-0.011991 -0.000339 0.000000
-0.000339 0.001221 0.000000
0.000000 0.000000 0.000000
0.007459 0.003083 0.000000
0.003083 0.008449 0.000000
0.000000 0.000000 0.000000
0.008086 0.003702 0.000000
0.003702 0.036361 0.000000
0.000000 0.000000 0.000000
0.004568 -0.001209 0.000000
-0.001209 0.010177 0.000000
0.000000 0.000000 0.000000
0.004594 -0.001037 0.000000
-0.001037 0.004429 0.000000
0.000000 0.000000 0.000000
-0.004529 0.008029 0.000000
0.008029 0.010986 0.000000
0.000000 0.000000 0.000000
0.005642 0.002683 0.000000
0.002683 0.020182 0.000000
0.000000 0.000000 0.000000
-0.012685 -0.031599 0.000000
-0.031599 -0.008081 0.000000
0.000000 0.000000 0.000000
-0.003005 0.006773 0.000000
0.006773 -0.017366 0.000000
0.000000 0.000000 0.000000
0.001347 0.001672 0.000000
0.001672 -0.000647 0.000000
0.000000 0.000000 0.000000
-0.010753 0.001773 0.000000
0.001773 0.002757 0.000000
0.000000 0.000000 0.000000
0.004950 0.019788 0.000000
0.019788 -0.017429 0.000000
0.000000 0.000000 0.000000
0.004168 -0.008931 0.000000
-0.008931 0.011212 0.000000
0.000000 0.000000 0.000000
-0.035409 -0.009817 0.000000
-0.009817 -0.016035 0.000000
0.000000 0.000000 0.000000
0.021089 -0.007689 0.000000
-0.007689 0.025613 0.000000
0.000000 0.000000 0.000000
0.016465 0.009795 0.000000
0.009795 0.026253 0.000000
0.000000 0.000000 0.000000
0.008019 0.004393 0.000000
0.004393 0.023207 0.000000
0.000000 0.000000 0.000000
0.017021 -0.011803 0.000000
-0.011803 0.030043 0.000000
0.000000 0.000000 0.000000
0.011423 -0.008003 0.000000
-0.008003 0.018759 0.000000
0.000000 0.000000 0.000000
-0.003019 0.000851 0.000000
0.000851 0.016634 0.000000
0.000000 0.000000 0.000000
-0.007108 0.000961 0.000000
0.000961 0.002972 0.000000
0.000000 0.000000 0.000000
-0.004923 -0.003085 0.000000
-0.003085 -0.003792 0.000000
0.000000 0.000000 0.000000
0.050746 -0.013690 0.000000
-0.013690 0.038579 0.000000
0.000000 0.000000 0.000000
0.049410 0.014094 0.000000
0.014094 0.101077 0.000000
0.000000 0.000000 0.000000
0.000032 0.006396 0.000000
0.006396 -0.035369 0.000000
0.000000 0.000000 0.000000
0.003070 0.014428 0.000000
0.014428 -0.015478 0.000000
0.000000 0.000000 0.000000
-0.014005 -0.001190 0.000000
-0.001190 0.030226 0.000000
0.000000 0.000000 0.000000
-0.019302 -0.004753 0.000000
-0.004753 0.022231 0.000000
0.000000 0.000000 0.000000
0.008996 -0.003627 0.000000
-0.003627 0.033770 0.000000
0.000000 0.000000 0.000000
-0.037040 0.008700 0.000000
0.008700 -0.009772 0.000000
0.000000 0.000000 0.000000
-0.035487 0.009006 0.000000
0.009006 0.000236 0.000000
0.000000 0.000000 0.000000
0.014831 -0.000842 0.000000
-0.000842 0.016163 0.000000
0.000000 0.000000 0.000000
-0.000572 0.002406 0.000000
0.002406 0.013669 0.000000
0.000000 0.000000 0.000000
-0.011634 0.006755 0.000000
0.006755 0.002203 0.000000
0.000000 0.000000 0.000000
0.009431 0.006536 0.000000
0.006536 0.008059 0.000000
0.000000 0.000000 0.000000
0.003382 0.001518 0.000000
0.001518 0.001286 0.000000
0.000000 0.000000 0.000000
-0.003908 0.003313 0.000000
0.003313 0.005785 0.000000
0.000000 0.000000 0.000000
-0.009748 -0.015956 0.000000
-0.015956 0.011459 0.000000
0.000000 0.000000 0.000000
0.003006 -0.009865 0.000000
-0.009865 0.019914 0.000000
0.000000 0.000000 0.000000
0.014905 -0.000433 0.000000
-0.000433 0.025525 0.000000
0.000000 0.000000 0.000000
0.003771 0.006984 0.000000
0.006984 0.017094 0.000000
0.000000 0.000000 0.000000
-0.007544 -0.000881 0.000000
-0.000881 0.009152 0.000000
0.000000 0.000000 0.000000
-0.006680 0.028608 0.000000
0.028608 -0.049018 0.000000
0.000000 0.000000 0.000000
0.005621 0.003724 0.000000
0.003724 0.009106 0.000000
0.000000 0.000000 0.000000
-0.003500 0.002858 0.000000
0.002858 0.006904 0.000000
0.000000 0.000000 0.000000
-0.005350 -0.005264 0.000000
-0.005264 0.010287 0.000000
0.000000 0.000000 0.000000
0.002389 0.031744 0.000000
0.031744 -0.044486 0.000000
0.000000 0.000000 0.000000
0.013677 0.001098 0.000000
0.001098 0.005242 0.000000
0.000000 0.000000 0.000000
0.012540 -0.005687 0.000000
-0.005687 0.001339 0.000000
0.000000 0.000000 0.000000
-0.009594 0.008893 0.000000
0.008893 -0.022768 0.000000
0.000000 0.000000 0.000000
0.008731 -0.002081 0.000000
-0.002081 -0.003643 0.000000
0.000000 0.000000 0.000000
-0.016273 -0.016571 0.000000
-0.016571 0.028869 0.000000
0.000000 0.000000 0.000000
-0.031924 -0.006523 0.000000
-0.006523 -0.024799 0.000000
0.000000 0.000000 0.000000
-0.008459 -0.013579 0.000000
-0.013579 -0.017745 0.000000
0.000000 0.000000 0.000000
0.000266 -0.007831 0.000000
-0.007831 -0.000616 0.000000
0.000000 0.000000 0.000000
-0.003765 -0.003969 0.000000
-0.003969 -0.011874 0.000000
0.000000 0.000000 0.000000
-0.003359 -0.000598 0.000000
-0.000598 -0.014981 0.000000
0.000000 0.000000 0.000000
0.004904 -0.002324 0.000000
-0.002324 -0.011888 0.000000
0.000000 0.000000 0.000000
-0.000802 0.004185 0.000000
0.004185 0.008164 0.000000
0.000000 0.000000 0.000000
0.001920 -0.002975 0.000000
-0.002975 0.001899 0.000000
0.000000 0.000000 0.000000
-0.001213 -0.000821 0.000000
-0.000821 -0.003998 0.000000
0.000000 0.000000 0.000000
-0.017155 0.008645 0.000000
0.008645 -0.010056 0.000000
0.000000 0.000000 0.000000
0.008665 0.029593 0.000000
0.029593 0.020382 0.000000
0.000000 0.000000 0.000000
-0.015541 0.001476 0.000000
0.001476 -0.013428 0.000000
0.000000 0.000000 0.000000
-0.015638 -0.012037 0.000000
-0.012037 -0.047051 0.000000
0.000000 0.000000 0.000000
-0.002471 -0.002064 0.000000
-0.002064 -0.000665 0.000000
0.000000 0.000000 0.000000
-0.003565 0.004515 0.000000
0.004515 0.006975 0.000000
0.000000 0.000000 0.000000
-0.007870 0.000685 0.000000
0.000685 -0.001141 0.000000
0.000000 0.000000 0.000000
0.000056 0.002503 0.000000
0.002503 0.002037 0.000000
0.000000 0.000000 0.000000
-0.008728 -0.005080 0.000000
-0.005080 -0.003160 0.000000
0.000000 0.000000 0.000000
0.013570 -0.001441 0.000000
-0.001441 -0.008877 0.000000
0.000000 0.000000 0.000000
0.028437 -0.006585 0.000000
-0.006585 -0.000967 0.000000
0.000000 0.000000 0.000000
0.004645 -0.000162 0.000000
-0.000162 0.003879 0.000000
0.000000 0.000000 0.000000
-0.010788 -0.020162 0.000000
-0.020162 0.008109 0.000000
0.000000 0.000000 0.000000
-0.004470 -0.001207 0.000000
-0.001207 -0.013024 0.000000
0.000000 0.000000 0.000000
0.019007 0.010185 0.000000
0.010185 0.015525 0.000000
0.000000 0.000000 0.000000
-0.003912 0.003859 0.000000
0.003859 -0.000317 0.000000
0.000000 0.000000 0.000000
0.009773 -0.002323 0.000000
-0.002323 0.003671 0.000000
0.000000 0.000000 0.000000
-0.008510 0.011513 0.000000
0.011513 0.007637 0.000000
0.000000 0.000000 0.000000
-0.022049 0.003064 0.000000
0.003064 -0.007900 0.000000
0.000000 0.000000 0.000000
0.016618 0.010227 0.000000
0.010227 -0.009863 0.000000
0.000000 0.000000 0.000000
-0.024848 -0.001186 0.000000
-0.001186 -0.027523 0.000000
0.000000 0.000000 0.000000
0.014866 -0.026501 0.000000
-0.026501 -0.008434 0.000000
0.000000 0.000000 0.000000
0.004602 -0.012077 0.000000
-0.012077 0.013364 0.000000
0.000000 0.000000 0.000000
0.007651 -0.007926 0.000000
-0.007926 0.018879 0.000000
0.000000 0.000000 0.000000
-0.003202 -0.009942 0.000000
-0.009942 0.014940 0.000000
0.000000 0.000000 0.000000
-0.022116 0.000288 0.000000
0.000288 0.013655 0.000000
0.000000 0.000000 0.000000
-0.020726 0.007165 0.000000
0.007165 0.001857 0.000000
0.000000 0.000000 0.000000
-0.007291 -0.002061 0.000000
-0.002061 -0.002737 0.000000
0.000000 0.000000 0.000000
0.017968 0.012043 0.000000
0.012043 0.024082 0.000000
0.000000 0.000000 0.000000
-0.016827 0.005131 0.000000
0.005131 0.003983 0.000000
0.000000 0.000000 0.000000
0.021444 -0.010682 0.000000
-0.010682 0.002647 0.000000
0.000000 0.000000 0.000000
-0.014859 0.008913 0.000000
0.008913 -0.010717 0.000000
0.000000 0.000000 0.000000
-0.015424 0.004292 0.000000
0.004292 -0.003603 0.000000
0.000000 0.000000 0.000000
-0.013213 0.003267 0.000000
0.003267 0.009870 0.000000
0.000000 0.000000 0.000000
0.012212 -0.004256 0.000000
-0.004256 0.002051 0.000000
0.000000 0.000000 0.000000
-0.010834 -0.005973 0.000000
-0.005973 0.000428 0.000000
0.000000 0.000000 0.000000
0.012880 0.000681 0.000000
0.000681 0.012075 0.000000
0.000000 0.000000 0.000000
0.000179 -0.007912 0.000000
-0.007912 0.004189 0.000000
0.000000 0.000000 0.000000
0.002628 0.006356 0.000000
0.006356 -0.004241 0.000000
0.000000 0.000000 0.000000
0.003002 0.010560 0.000000
0.010560 0.002642 0.000000
0.000000 0.000000 0.000000
-0.000713 0.001360 0.000000
0.001360 0.003169 0.000000
0.000000 0.000000 0.000000
-0.004375 0.008019 0.000000
0.008019 0.000464 0.000000
0.000000 0.000000 0.000000
-0.007472 -0.001163 0.000000
-0.001163 -0.006360 0.000000
0.000000 0.000000 0.000000
-0.012912 -0.004468 0.000000
-0.004468 0.014329 0.000000
0.000000 0.000000 0.000000
-0.015270 0.000939 0.000000
0.000939 -0.030555 0.000000
0.000000 0.000000 0.000000
0.013777 -0.007221 0.000000
-0.007221 0.010927 0.000000
0.000000 0.000000 0.000000
0.010578 -0.013435 0.000000
-0.013435 0.015364 0.000000
0.000000 0.000000 0.000000
-0.017307 -0.027636 0.000000
-0.027636 -0.006432 0.000000
0.000000 0.000000 0.000000
0.008044 0.002336 0.000000
0.002336 0.007879 0.000000
0.000000 0.000000 0.000000
-0.014055 0.014442 0.000000
0.014442 0.017224 0.000000
0.000000 0.000000 0.000000
0.009257 0.006993 0.000000
0.006993 -0.002187 0.000000
0.000000 0.000000 0.000000
0.001486 0.004655 0.000000
0.004655 0.002886 0.000000
0.000000 0.000000 0.000000
-0.002595 -0.007805 0.000000
-0.007805 0.002925 0.000000
0.000000 0.000000 0.000000
0.006503 0.008920 0.000000
0.008920 -0.011544 0.000000
0.000000 0.000000 0.000000
-0.012252 0.005690 0.000000
0.005690 0.001548 0.000000
0.000000 0.000000 0.000000
0.006501 0.012648 0.000000
0.012648 -0.000254 0.000000
0.000000 0.000000 0.000000
-0.007685 0.010502 0.000000
0.010502 -0.011771 0.000000
0.000000 0.000000 0.000000
0.019755 0.005055 0.000000
0.005055 0.031753 0.000000
0.000000 0.000000 0.000000
0.013814 0.005635 0.000000
0.005635 -0.007537 0.000000
0.000000 0.000000 0.000000
-0.009529 -0.000280 0.000000
-0.000280 0.023591 0.000000
0.000000 0.000000 0.000000
0.015804 -0.000704 0.000000
-0.000704 0.004306 0.000000
0.000000 0.000000 0.000000
-0.056905 -0.011387 0.000000
-0.011387 -0.003679 0.000000
0.000000 0.000000 0.000000
0.009840 -0.003969 0.000000
-0.003969 0.003137 0.000000
0.000000 0.000000 0.000000
-0.002947 -0.008390 0.000000
-0.008390 0.000551 0.000000
0.000000 0.000000 0.000000
0.018344 0.004025 0.000000
0.004025 0.004524 0.000000
0.000000 0.000000 0.000000
-0.004354 -0.016131 0.000000
-0.016131 -0.011626 0.000000
0.000000 0.000000 0.000000
-0.006167 -0.009968 0.000000
-0.009968 -0.019745 0.000000
0.000000 0.000000 0.000000
-0.004511 -0.017645 0.000000
-0.017645 -0.004440 0.000000
0.000000 0.000000 0.000000
0.012814 -0.018148 0.000000
-0.018148 0.017127 0.000000
0.000000 0.000000 0.000000
0.007106 0.012761 0.000000
0.012761 -0.045649 0.000000
0.000000 0.000000 0.000000
-0.001377 -0.008699 0.000000
-0.008699 -0.002991 0.000000
0.000000 0.000000 0.000000
0.010169 -0.000432 0.000000
-0.000432 0.028593 0.000000
0.000000 0.000000 0.000000
0.032271 0.020536 0.000000
0.020536 0.024985 0.000000
0.000000 0.000000 0.000000
0.003656 0.003006 0.000000
0.003006 -0.013813 0.000000
0.000000 0.000000 0.000000
-0.004652 -0.029096 0.000000
-0.029096 -0.004940 0.000000
0.000000 0.000000 0.000000
0.015629 0.013032 0.000000
0.013032 0.022170 0.000000
0.000000 0.000000 0.000000
0.019475 0.011914 0.000000
0.011914 0.000767 0.000000
0.000000 0.000000 0.000000
0.005325 0.004368 0.000000
0.004368 0.011394 0.000000
0.000000 0.000000 0.000000
-0.000088 -0.010297 0.000000
-0.010297 -0.020449 0.000000
0.000000 0.000000 0.000000
-0.008306 -0.000859 0.000000
-0.000859 -0.030324 0.000000
0.000000 0.000000 0.000000
0.003105 0.000903 0.000000
0.000903 -0.028582 0.000000
0.000000 0.000000 0.000000
0.010979 0.006392 0.000000
0.006392 0.004206 0.000000
0.000000 0.000000 0.000000
-0.003610 0.006129 0.000000
0.006129 -0.011570 0.000000
0.000000 0.000000 0.000000
0.005742 -0.008402 0.000000
-0.008402 0.008657 0.000000
0.000000 0.000000 0.000000
-0.034201 0.008999 0.000000
0.008999 -0.020508 0.000000
0.000000 0.000000 0.000000
0.003646 0.012464 0.000000
0.012464 -0.000068 0.000000
0.000000 0.000000 0.000000
0.008306 -0.004641 0.000000
-0.004641 -0.004304 0.000000
0.000000 0.000000 0.000000
-0.021646 -0.002743 0.000000
-0.002743 -0.022066 0.000000
0.000000 0.000000 0.000000
-0.013388 0.000574 0.000000
0.000574 -0.016834 0.000000
0.000000 0.000000 0.000000
0.012634 -0.001118 0.000000
-0.001118 0.016365 0.000000
0.000000 0.000000 0.000000
0.010751 -0.007694 0.000000
-0.007694 0.009994 0.000000
0.000000 0.000000 0.000000
-0.017729 0.001899 0.000000
0.001899 -0.013646 0.000000
0.000000 0.000000 0.000000
0.011772 -0.001039 0.000000
-0.001039 0.016560 0.000000
0.000000 0.000000 0.000000
0.022748 0.000360 0.000000
0.000360 0.007577 0.000000
0.000000 0.000000 0.000000
0.000592 0.008119 0.000000
0.008119 0.011726 0.000000
0.000000 0.000000 0.000000
0.014137 -0.002320 0.000000
-0.002320 0.021577 0.000000
0.000000 0.000000 0.000000
-0.005709 0.002893 0.000000
0.002893 -0.010002 0.000000
0.000000 0.000000 0.000000
0.006044 0.001890 0.000000
0.001890 0.014464 0.000000
0.000000 0.000000 0.000000
-0.023626 -0.002815 0.000000
-0.002815 0.013287 0.000000
0.000000 0.000000 0.000000
0.001501 0.006992 0.000000
0.006992 -0.003296 0.000000
0.000000 0.000000 0.000000
0.017708 0.018951 0.000000
0.018951 0.004308 0.000000
0.000000 0.000000 0.000000
-0.004253 0.001255 0.000000
0.001255 0.018963 0.000000
0.000000 0.000000 0.000000
-0.000187 0.003208 0.000000
0.003208 0.005195 0.000000
0.000000 0.000000 0.000000
0.011756 0.005906 0.000000
0.005906 0.017779 0.000000
0.000000 0.000000 0.000000
-0.026074 0.004646 0.000000
0.004646 0.007783 0.000000
0.000000 0.000000 0.000000
0.000599 0.002975 0.000000
0.002975 0.005542 0.000000
0.000000 0.000000 0.000000
-0.004103 -0.002402 0.000000
-0.002402 0.003022 0.000000
0.000000 0.000000 0.000000
-0.035476 0.004691 0.000000
0.004691 0.005439 0.000000
0.000000 0.000000 0.000000
-0.001355 0.008142 0.000000
0.008142 -0.006766 0.000000
0.000000 0.000000 0.000000
0.016320 0.012292 0.000000
0.012292 0.014980 0.000000
0.000000 0.000000 0.000000
0.015887 0.001037 0.000000
0.001037 -0.022502 0.000000
0.000000 0.000000 0.000000
0.004543 0.006213 0.000000
0.006213 -0.008632 0.000000
0.000000 0.000000 0.000000
0.004042 -0.004084 0.000000
-0.004084 0.003615 0.000000
0.000000 0.000000 0.000000
0.014800 -0.006942 0.000000
-0.006942 0.005880 0.000000
0.000000 0.000000 0.000000
0.004475 -0.004685 0.000000
-0.004685 0.004482 0.000000
0.000000 0.000000 0.000000
0.003815 0.003306 0.000000
0.003306 -0.002656 0.000000
0.000000 0.000000 0.000000
0.004651 -0.010352 0.000000
-0.010352 0.005732 0.000000
0.000000 0.000000 0.000000
0.002798 0.002736 0.000000
0.002736 -0.006628 0.000000
0.000000 0.000000 0.000000
0.018264 0.004326 0.000000
0.004326 -0.008849 0.000000
0.000000 0.000000 0.000000
0.006114 -0.006829 0.000000
-0.006829 0.001017 0.000000
0.000000 0.000000 0.000000
-0.016110 0.002494 0.000000
0.002494 -0.006591 0.000000
0.000000 0.000000 0.000000
-0.029199 -0.006673 0.000000
-0.006673 -0.028367 0.000000
0.000000 0.000000 0.000000
0.001038 -0.005832 0.000000
-0.005832 0.004050 0.000000
0.000000 0.000000 0.000000
0.013660 0.004222 0.000000
0.004222 0.019261 0.000000
0.000000 0.000000 0.000000
-0.010500 0.008755 0.000000
0.008755 -0.007785 0.000000
0.000000 0.000000 0.000000
-0.029520 0.006602 0.000000
0.006602 -0.031188 0.000000
0.000000 0.000000 0.000000
-0.017686 -0.008512 0.000000
-0.008512 -0.026959 0.000000
0.000000 0.000000 0.000000
0.007028 0.006902 0.000000
0.006902 0.008758 0.000000
0.000000 0.000000 0.000000
0.011446 0.008135 0.000000
0.008135 0.028895 0.000000
0.000000 0.000000 0.000000
0.032526 -0.021766 0.000000
-0.021766 -0.010574 0.000000
0.000000 0.000000 0.000000
-0.008606 0.016699 0.000000
0.016699 0.004954 0.000000
0.000000 0.000000 0.000000
-0.012696 0.015047 0.000000
0.015047 0.015828 0.000000
0.000000 0.000000 0.000000
-0.003582 0.012745 0.000000
0.012745 -0.022417 0.000000
0.000000 0.000000 0.000000
-0.006616 0.002485 0.000000
0.002485 0.012361 0.000000
0.000000 0.000000 0.000000
-0.003923 0.000167 0.000000
0.000167 -0.004132 0.000000
0.000000 0.000000 0.000000
-0.002254 -0.018942 0.000000
-0.018942 -0.019179 0.000000
0.000000 0.000000 0.000000
-0.003716 0.007380 0.000000
0.007380 0.002121 0.000000
0.000000 0.000000 0.000000
0.004708 0.004745 0.000000
0.004745 0.004791 0.000000
0.000000 0.000000 0.000000
0.014546 0.011319 0.000000
0.011319 0.014299 0.000000
0.000000 0.000000 0.000000
0.008995 -0.003990 0.000000
-0.003990 -0.001400 0.000000
0.000000 0.000000 0.000000
-0.003553 0.000350 0.000000
0.000350 -0.002659 0.000000
0.000000 0.000000 0.000000
-0.011429 -0.010301 0.000000
-0.010301 0.021736 0.000000
0.000000 0.000000 0.000000
-0.028439 -0.009332 0.000000
-0.009332 -0.024704 0.000000
0.000000 0.000000 0.000000
-0.016726 0.004002 0.000000
0.004002 -0.038413 0.000000
0.000000 0.000000 0.000000
-0.017238 -0.010492 0.000000
-0.010492 -0.000236 0.000000
0.000000 0.000000 0.000000
0.015175 0.012643 0.000000
0.012643 -0.011688 0.000000
0.000000 0.000000 0.000000
-0.003999 0.004671 0.000000
0.004671 0.000284 0.000000
0.000000 0.000000 0.000000
-0.007968 0.007905 0.000000
0.007905 -0.013655 0.000000
0.000000 0.000000 0.000000
-0.004740 0.005956 0.000000
0.005956 -0.013734 0.000000
0.000000 0.000000 0.000000
0.022647 0.001035 0.000000
0.001035 0.034530 0.000000
0.000000 0.000000 0.000000
-0.008537 -0.003490 0.000000
-0.003490 -0.031766 0.000000
0.000000 0.000000 0.000000
-0.042687 0.010342 0.000000
0.010342 0.023875 0.000000
0.000000 0.000000 0.000000
-0.063184 0.006079 0.000000
0.006079 -0.042809 0.000000
0.000000 0.000000 0.000000
0.013217 -0.001373 0.000000
-0.001373 0.006325 0.000000
0.000000 0.000000 0.000000
0.035258 0.022633 0.000000
0.022633 -0.002676 0.000000
0.000000 0.000000 0.000000
0.007583 0.002063 0.000000
0.002063 0.032144 0.000000
0.000000 0.000000 0.000000
0.043589 0.018406 0.000000
0.018406 0.021979 0.000000
0.000000 0.000000 0.000000
0.036498 -0.009349 0.000000
-0.009349 0.024948 0.000000
0.000000 0.000000 0.000000
-0.005592 -0.007126 0.000000
-0.007126 -0.017686 0.000000
0.000000 0.000000 0.000000
0.004585 -0.002149 0.000000
-0.002149 0.026158 0.000000
0.000000 0.000000 0.000000
-0.006100 -0.001311 0.000000
-0.001311 -0.009540 0.000000
0.000000 0.000000 0.000000
-0.012240 -0.002659 0.000000
-0.002659 0.023134 0.000000
0.000000 0.000000 0.000000
0.011622 0.007308 0.000000
0.007308 -0.011344 0.000000
0.000000 0.000000 0.000000
0.000471 0.006345 0.000000
0.006345 -0.010167 0.000000
0.000000 0.000000 0.000000
-0.011426 0.008646 0.000000
0.008646 -0.018454 0.000000
0.000000 0.000000 0.000000
0.000739 0.001634 0.000000
0.001634 0.007499 0.000000
0.000000 0.000000 0.000000
0.004898 0.005047 0.000000
0.005047 -0.012786 0.000000
0.000000 0.000000 0.000000
-0.002569 -0.002185 0.000000
-0.002185 -0.002586 0.000000
0.000000 0.000000 0.000000
0.011615 -0.007943 0.000000
-0.007943 -0.014111 0.000000
0.000000 0.000000 0.000000
0.006455 0.001610 0.000000
0.001610 0.014234 0.000000
0.000000 0.000000 0.000000
0.017035 -0.004591 0.000000
-0.004591 0.009557 0.000000
0.000000 0.000000 0.000000
0.004753 -0.006032 0.000000
-0.006032 0.016221 0.000000
0.000000 0.000000 0.000000
-0.003370 0.001249 0.000000
0.001249 0.001011 0.000000
0.000000 0.000000 0.000000
0.009247 -0.008813 0.000000
-0.008813 0.008209 0.000000
0.000000 0.000000 0.000000
-0.000710 0.023672 0.000000
0.023672 -0.004390 0.000000
0.000000 0.000000 0.000000
0.011600 0.020564 0.000000
0.020564 -0.005342 0.000000
0.000000 0.000000 0.000000
0.001114 -0.006289 0.000000
-0.006289 -0.023678 0.000000
0.000000 0.000000 0.000000
-0.002695 0.012081 0.000000
0.012081 0.000740 0.000000
0.000000 0.000000 0.000000
0.001172 -0.016386 0.000000
-0.016386 -0.022329 0.000000
0.000000 0.000000 0.000000
-0.001722 -0.013120 0.000000
-0.013120 0.006192 0.000000
0.000000 0.000000 0.000000
0.002070 -0.001021 0.000000
-0.001021 0.017464 0.000000
0.000000 0.000000 0.000000
-0.012676 -0.008313 0.000000
-0.008313 -0.014402 0.000000
0.000000 0.000000 0.000000
-0.003764 0.001471 0.000000
0.001471 -0.008402 0.000000
0.000000 0.000000 0.000000
0.002160 -0.002134 0.000000
-0.002134 0.005449 0.000000
0.000000 0.000000 0.000000
-0.014663 -0.007182 0.000000
-0.007182 -0.004228 0.000000
0.000000 0.000000 0.000000
-0.004699 -0.012234 0.000000
-0.012234 -0.016628 0.000000
0.000000 0.000000 0.000000
-0.007868 -0.001156 0.000000
-0.001156 -0.008401 0.000000
0.000000 0.000000 0.000000
0.009839 0.002171 0.000000
0.002171 -0.015225 0.000000
0.000000 0.000000 0.000000
-0.003165 0.015254 0.000000
0.015254 0.005874 0.000000
0.000000 0.000000 0.000000
-0.005542 0.000445 0.000000
0.000445 -0.003626 0.000000
0.000000 0.000000 0.000000
-0.016425 0.014299 0.000000
0.014299 0.032658 0.000000
0.000000 0.000000 0.000000
0.000762 0.008547 0.000000
0.008547 -0.002425 0.000000
0.000000 0.000000 0.000000
-0.018656 0.007130 0.000000
0.007130 0.005052 0.000000
0.000000 0.000000 0.000000
-0.004503 0.001225 0.000000
0.001225 -0.017185 0.000000
0.000000 0.000000 0.000000
-0.020234 -0.003346 0.000000
-0.003346 -0.023925 0.000000
0.000000 0.000000 0.000000
-0.003678 -0.000087 0.000000
-0.000087 -0.005975 0.000000
0.000000 0.000000 0.000000
-0.004012 0.000130 0.000000
0.000130 -0.006606 0.000000
0.000000 0.000000 0.000000
-0.015279 -0.012479 0.000000
-0.012479 -0.018279 0.000000
0.000000 0.000000 0.000000
0.011564 0.000482 0.000000
0.000482 0.012259 0.000000
0.000000 0.000000 0.000000
-0.003719 0.000140 0.000000
0.000140 -0.004417 0.000000
0.000000 0.000000 0.000000
-0.023249 -0.012909 0.000000
-0.012909 -0.007219 0.000000
0.000000 0.000000 0.000000
0.009333 -0.009837 0.000000
-0.009837 0.001989 0.000000
0.000000 0.000000 0.000000
0.006231 0.007710 0.000000
0.007710 -0.019657 0.000000
0.000000 0.000000 0.000000
0.015504 0.019412 0.000000
0.019412 0.005600 0.000000
0.000000 0.000000 0.000000
-0.003500 0.000063 0.000000
0.000063 0.001631 0.000000
0.000000 0.000000 0.000000
0.003155 -0.002471 0.000000
-0.002471 0.004748 0.000000
0.000000 0.000000 0.000000
0.004189 0.002092 0.000000
0.002092 0.007023 0.000000
0.000000 0.000000 0.000000
0.002403 0.004770 0.000000
0.004770 -0.005453 0.000000
0.000000 0.000000 0.000000
-0.001527 -0.003183 0.000000
-0.003183 0.004991 0.000000
0.000000 0.000000 0.000000
0.004602 -0.000093 0.000000
-0.000093 0.013165 0.000000
0.000000 0.000000 0.000000
-0.004103 -0.000106 0.000000
-0.000106 -0.006103 0.000000
0.000000 0.000000 0.000000
-0.007475 -0.000487 0.000000
-0.000487 -0.008937 0.000000
0.000000 0.000000 0.000000
0.003693 -0.003827 0.000000
-0.003827 -0.012526 0.000000
0.000000 0.000000 0.000000
-0.016084 -0.008234 0.000000
-0.008234 -0.030816 0.000000
0.000000 0.000000 0.000000
-0.019638 -0.011729 0.000000
-0.011729 0.013148 0.000000
0.000000 0.000000 0.000000
-0.019815 -0.004290 0.000000
-0.004290 -0.002150 0.000000
0.000000 0.000000 0.000000
0.014823 0.021321 0.000000
0.021321 -0.009485 0.000000
0.000000 0.000000 0.000000
-0.013870 0.023626 0.000000
0.023626 0.004321 0.000000
0.000000 0.000000 0.000000
0.006942 -0.005730 0.000000
-0.005730 0.010814 0.000000
0.000000 0.000000 0.000000
-0.003862 0.002614 0.000000
0.002614 0.002010 0.000000
0.000000 0.000000 0.000000
-0.012195 0.002457 0.000000
0.002457 -0.014742 0.000000
0.000000 0.000000 0.000000
-0.014594 -0.000697 0.000000
-0.000697 -0.000744 0.000000
0.000000 0.000000 0.000000
-0.008886 -0.005220 0.000000
-0.005220 -0.013310 0.000000
0.000000 0.000000 0.000000
0.002991 0.000750 0.000000
0.000750 0.005507 0.000000
0.000000 0.000000 0.000000
0.009479 0.004551 0.000000
0.004551 0.004500 0.000000
0.000000 0.000000 0.000000
0.013287 -0.006244 0.000000
-0.006244 0.018195 0.000000
0.000000 0.000000 0.000000
0.003945 -0.000072 0.000000
-0.000072 -0.010248 0.000000
0.000000 0.000000 0.000000
0.003009 -0.003698 0.000000
-0.003698 0.013904 0.000000
0.000000 0.000000 0.000000
0.002378 0.005333 0.000000
0.005333 0.007378 0.000000
0.000000 0.000000 0.000000
0.008310 0.002122 0.000000
0.002122 0.007638 0.000000
0.000000 0.000000 0.000000
-0.013414 0.009750 0.000000
0.009750 -0.004297 0.000000
0.000000 0.000000 0.000000
0.007181 0.001511 0.000000
0.001511 0.017557 0.000000
0.000000 0.000000 0.000000
0.010943 -0.008293 0.000000
-0.008293 0.018368 0.000000
0.000000 0.000000 0.000000
0.001697 0.004947 0.000000
0.004947 0.004913 0.000000
0.000000 0.000000 0.000000
-0.024449 -0.021193 0.000000
-0.021193 0.031118 0.000000
0.000000 0.000000 0.000000
0.015546 -0.005942 0.000000
-0.005942 -0.003291 0.000000
0.000000 0.000000 0.000000
-0.000631 0.001441 0.000000
0.001441 0.009815 0.000000
0.000000 0.000000 0.000000
-0.041584 -0.009197 0.000000
-0.009197 0.046788 0.000000
0.000000 0.000000 0.000000
0.003778 0.000130 0.000000
0.000130 -0.002193 0.000000
0.000000 0.000000 0.000000
-0.009591 -0.001568 0.000000
-0.001568 -0.004477 0.000000
0.000000 0.000000 0.000000
-0.013277 -0.002557 0.000000
-0.002557 -0.004035 0.000000
0.000000 0.000000 0.000000
-0.003759 0.000089 0.000000
0.000089 -0.000700 0.000000
0.000000 0.000000 0.000000
0.016235 -0.003764 0.000000
-0.003764 0.002602 0.000000
0.000000 0.000000 0.000000
-0.009928 0.002741 0.000000
0.002741 -0.010159 0.000000
0.000000 0.000000 0.000000
-0.010984 0.019999 0.000000
0.019999 -0.017440 0.000000
0.000000 0.000000 0.000000
-0.015076 0.016070 0.000000
0.016070 -0.034263 0.000000
0.000000 0.000000 0.000000
0.003445 -0.016777 0.000000
-0.016777 -0.000728 0.000000
0.000000 0.000000 0.000000
-0.004489 -0.000883 0.000000
-0.000883 0.001085 0.000000
0.000000 0.000000 0.000000
-0.002617 -0.010735 0.000000
-0.010735 0.003182 0.000000
0.000000 0.000000 0.000000
0.003735 -0.000257 0.000000
-0.000257 0.004208 0.000000
0.000000 0.000000 0.000000
0.004184 -0.000932 0.000000
-0.000932 0.004208 0.000000
0.000000 0.000000 0.000000
-0.012254 -0.001301 0.000000
-0.001301 -0.022588 0.000000
0.000000 0.000000 0.000000
-0.008471 -0.001087 0.000000
-0.001087 -0.005438 0.000000
0.000000 0.000000 0.000000
-0.020348 0.028238 0.000000
0.028238 0.012816 0.000000
0.000000 0.000000 0.000000
-0.028611 0.019900 0.000000
0.019900 -0.006928 0.000000
0.000000 0.000000 0.000000
-0.014253 0.013703 0.000000
0.013703 -0.018525 0.000000
0.000000 0.000000 0.000000
0.026160 -0.009886 0.000000
-0.009886 0.001743 0.000000
0.000000 0.000000 0.000000
0.025379 -0.008937 0.000000
-0.008937 -0.009243 0.000000
0.000000 0.000000 0.000000
-0.003025 -0.015623 0.000000
-0.015623 -0.002905 0.000000
0.000000 0.000000 0.000000
-0.027349 -0.005550 0.000000
-0.005550 -0.014618 0.000000
0.000000 0.000000 0.000000
-0.014673 -0.009700 0.000000
-0.009700 0.002350 0.000000
0.000000 0.000000 0.000000
0.004529 -0.004736 0.000000
-0.004736 -0.011285 0.000000
0.000000 0.000000 0.000000
0.006494 -0.002509 0.000000
-0.002509 -0.001944 0.000000
0.000000 0.000000 0.000000
0.004482 -0.004319 0.000000
-0.004319 0.014846 0.000000
0.000000 0.000000 0.000000
0.012551 -0.039343 0.000000
-0.039343 -0.001607 0.000000
0.000000 0.000000 0.000000
-0.001028 -0.004011 0.000000
-0.004011 -0.011999 0.000000
0.000000 0.000000 0.000000
-0.001690 0.003964 0.000000
0.003964 0.000267 0.000000
0.000000 0.000000 0.000000
-0.008590 0.001699 0.000000
0.001699 -0.033765 0.000000
0.000000 0.000000 0.000000
-0.012808 -0.002615 0.000000
-0.002615 -0.029383 0.000000
0.000000 0.000000 0.000000
0.003110 0.004187 0.000000
0.004187 -0.005529 0.000000
0.000000 0.000000 0.000000
0.001142 0.006893 0.000000
0.006893 0.017998 0.000000
0.000000 0.000000 0.000000
-0.007659 0.004205 0.000000
0.004205 -0.008058 0.000000
0.000000 0.000000 0.000000
-0.001383 -0.006935 0.000000
-0.006935 -0.017966 0.000000
0.000000 0.000000 0.000000
0.018776 -0.003650 0.000000
-0.003650 -0.016730 0.000000
0.000000 0.000000 0.000000
0.000532 -0.000130 0.000000
-0.000130 0.000719 0.000000
0.000000 0.000000 0.000000
0.004023 -0.001776 0.000000
-0.001776 -0.015827 0.000000
0.000000 0.000000 0.000000
0.013316 0.004666 0.000000
0.004666 0.027256 0.000000
0.000000 0.000000 0.000000
-0.003396 0.002247 0.000000
0.002247 -0.001709 0.000000
0.000000 0.000000 0.000000
-0.051911 0.005117 0.000000
0.005117 -0.023272 0.000000
0.000000 0.000000 0.000000
-0.010307 -0.014319 0.000000
-0.014319 -0.000853 0.000000
0.000000 0.000000 0.000000
-0.008908 0.016529 0.000000
0.016529 -0.022966 0.000000
0.000000 0.000000 0.000000
-0.007023 -0.003515 0.000000
-0.003515 -0.016000 0.000000
0.000000 0.000000 0.000000
-0.042033 0.014462 0.000000
0.014462 -0.006032 0.000000
0.000000 0.000000 0.000000
-0.008343 0.010310 0.000000
0.010310 -0.001709 0.000000
0.000000 0.000000 0.000000
-0.000642 0.006027 0.000000
0.006027 -0.024608 0.000000
0.000000 0.000000 0.000000
0.008628 0.010948 0.000000
0.010948 0.000121 0.000000
0.000000 0.000000 0.000000
0.004587 0.012670 0.000000
0.012670 -0.013580 0.000000
0.000000 0.000000 0.000000
-0.001307 0.003963 0.000000
0.003963 -0.002575 0.000000
0.000000 0.000000 0.000000
-0.001333 -0.001706 0.000000
-0.001706 -0.000619 0.000000
0.000000 0.000000 0.000000
-0.009361 -0.003992 0.000000
-0.003992 -0.010850 0.000000
0.000000 0.000000 0.000000
0.010422 -0.006139 0.000000
-0.006139 -0.010844 0.000000
0.000000 0.000000 0.000000
-0.007696 0.003864 0.000000
0.003864 -0.019842 0.000000
0.000000 0.000000 0.000000
-0.013672 -0.010302 0.000000
-0.010302 -0.006294 0.000000
0.000000 0.000000 0.000000
-0.003458 -0.000126 0.000000
-0.000126 -0.012457 0.000000
0.000000 0.000000 0.000000
-0.004289 -0.008552 0.000000
-0.008552 -0.023610 0.000000
0.000000 0.000000 0.000000
-0.000793 -0.000271 0.000000
-0.000271 0.003823 0.000000
0.000000 0.000000 0.000000
-0.005911 0.002659 0.000000
0.002659 -0.009210 0.000000
0.000000 0.000000 0.000000
-0.008953 -0.001864 0.000000
-0.001864 0.012788 0.000000
0.000000 0.000000 0.000000
-0.029819 0.013006 0.000000
0.013006 -0.011484 0.000000
0.000000 0.000000 0.000000
-0.014199 0.006550 0.000000
0.006550 -0.005503 0.000000
0.000000 0.000000 0.000000
-0.015115 0.003389 0.000000
0.003389 -0.011287 0.000000
0.000000 0.000000 0.000000
-0.002904 0.001954 0.000000
0.001954 -0.018936 0.000000
0.000000 0.000000 0.000000
-0.000385 -0.001902 0.000000
-0.001902 0.007738 0.000000
0.000000 0.000000 0.000000
-0.013623 0.003846 0.000000
0.003846 -0.020626 0.000000
0.000000 0.000000 0.000000
-0.002214 -0.003940 0.000000
-0.003940 -0.004681 0.000000
0.000000 0.000000 0.000000
-0.000571 -0.002657 0.000000
-0.002657 0.013482 0.000000
0.000000 0.000000 0.000000
-0.008515 0.002559 0.000000
0.002559 -0.000710 0.000000
0.000000 0.000000 0.000000
-0.001522 -0.003328 0.000000
-0.003328 0.002010 0.000000
0.000000 0.000000 0.000000
0.005670 0.001599 0.000000
0.001599 0.005090 0.000000
0.000000 0.000000 0.000000
0.004318 -0.002943 0.000000
-0.002943 0.007242 0.000000
0.000000 0.000000 0.000000
-0.002709 0.000261 0.000000
0.000261 0.008305 0.000000
0.000000 0.000000 0.000000
-0.002502 0.002494 0.000000
0.002494 0.004353 0.000000
0.000000 0.000000 0.000000
0.002583 -0.000109 0.000000
-0.000109 -0.001077 0.000000
0.000000 0.000000 0.000000
0.010924 0.001479 0.000000
0.001479 -0.012490 0.000000
0.000000 0.000000 0.000000
0.002540 -0.015587 0.000000
-0.015587 -0.019938 0.000000
0.000000 0.000000 0.000000
0.010359 0.006063 0.000000
0.006063 0.004672 0.000000
0.000000 0.000000 0.000000
0.002776 0.000147 0.000000
0.000147 0.003411 0.000000
0.000000 0.000000 0.000000
0.000440 0.003753 0.000000
0.003753 -0.012428 0.000000
0.000000 0.000000 0.000000
0.004179 -0.000232 0.000000
-0.000232 -0.003452 0.000000
0.000000 0.000000 0.000000
0.016252 0.012296 0.000000
0.012296 0.018538 0.000000
0.000000 0.000000 0.000000
0.001339 -0.003053 0.000000
-0.003053 0.021041 0.000000
0.000000 0.000000 0.000000
0.005039 0.011747 0.000000
0.011747 0.000472 0.000000
0.000000 0.000000 0.000000
-0.008020 0.002290 0.000000
0.002290 -0.005795 0.000000
0.000000 0.000000 0.000000
-0.000307 0.034523 0.000000
0.034523 -0.007850 0.000000
0.000000 0.000000 0.000000
0.006783 0.009779 0.000000
0.009779 0.032671 0.000000
0.000000 0.000000 0.000000
0.005661 -0.002796 0.000000
-0.002796 0.005584 0.000000
0.000000 0.000000 0.000000
-0.002929 -0.005038 0.000000
-0.005038 0.004155 0.000000
0.000000 0.000000 0.000000
0.001032 -0.005470 0.000000
-0.005470 0.007142 0.000000
0.000000 0.000000 0.000000
0.005552 -0.004732 0.000000
-0.004732 0.002963 0.000000
0.000000 0.000000 0.000000
-0.003133 -0.001543 0.000000
-0.001543 0.004747 0.000000
0.000000 0.000000 0.000000
-0.005943 0.000322 0.000000
0.000322 0.025279 0.000000
0.000000 0.000000 0.000000
0.001299 -0.001729 0.000000
-0.001729 0.005606 0.000000
0.000000 0.000000 0.000000
0.002745 -0.001870 0.000000
-0.001870 -0.000252 0.000000
0.000000 0.000000 0.000000
0.006803 0.007875 0.000000
0.007875 0.020900 0.000000
0.000000 0.000000 0.000000
0.002153 -0.000068 0.000000
-0.000068 0.025454 0.000000
0.000000 0.000000 0.000000
0.005181 -0.003742 0.000000
-0.003742 0.023051 0.000000
0.000000 0.000000 0.000000
0.010860 -0.000592 0.000000
-0.000592 0.034219 0.000000
0.000000 0.000000 0.000000
-0.004024 -0.001711 0.000000
-0.001711 0.006611 0.000000
0.000000 0.000000 0.000000
-0.004574 0.003595 0.000000
0.003595 -0.001314 0.000000
0.000000 0.000000 0.000000
0.026333 -0.046307 0.000000
-0.046307 0.009056 0.000000
0.000000 0.000000 0.000000
0.040041 0.008265 0.000000
0.008265 -0.012685 0.000000
0.000000 0.000000 0.000000
-0.009462 -0.006033 0.000000
-0.006033 0.001304 0.000000
0.000000 0.000000 0.000000
-0.010348 -0.006763 0.000000
-0.006763 0.004633 0.000000
0.000000 0.000000 0.000000
-0.009442 -0.001948 0.000000
-0.001948 0.001935 0.000000
0.000000 0.000000 0.000000
-0.011724 -0.003410 0.000000
-0.003410 0.005988 0.000000
0.000000 0.000000 0.000000
-0.000316 -0.000572 0.000000
-0.000572 -0.011877 0.000000
0.000000 0.000000 0.000000
0.008234 -0.006923 0.000000
-0.006923 0.006080 0.000000
0.000000 0.000000 0.000000
0.004337 -0.001212 0.000000
-0.001212 -0.020571 0.000000
0.000000 0.000000 0.000000
-0.024655 0.001911 0.000000
0.001911 0.025421 0.000000
0.000000 0.000000 0.000000
-0.017889 -0.001865 0.000000
-0.001865 0.006054 0.000000
0.000000 0.000000 0.000000
-0.003067 -0.005329 0.000000
-0.005329 0.011059 0.000000
0.000000 0.000000 0.000000
-0.005976 0.000671 0.000000
0.000671 -0.008317 0.000000
0.000000 0.000000 0.000000
0.004953 0.001917 0.000000
0.001917 -0.004816 0.000000
0.000000 0.000000 0.000000
-0.014537 0.005683 0.000000
0.005683 0.022326 0.000000
0.000000 0.000000 0.000000
-0.016749 0.005206 0.000000
0.005206 -0.009878 0.000000
0.000000 0.000000 0.000000
0.001486 0.002305 0.000000
0.002305 -0.022418 0.000000
0.000000 0.000000 0.000000
-0.009193 -0.002882 0.000000
-0.002882 -0.023585 0.000000
0.000000 0.000000 0.000000
0.001848 0.008406 0.000000
0.008406 -0.003709 0.000000
0.000000 0.000000 0.000000
0.000768 0.001732 0.000000
0.001732 -0.012307 0.000000
0.000000 0.000000 0.000000
0.007721 -0.006020 0.000000
-0.006020 0.017220 0.000000
0.000000 0.000000 0.000000
0.015287 0.000142 0.000000
0.000142 0.014852 0.000000
0.000000 0.000000 0.000000
-0.016090 -0.004043 0.000000
-0.004043 -0.019292 0.000000
0.000000 0.000000 0.000000
-0.020987 -0.001969 0.000000
-0.001969 -0.017368 0.000000
0.000000 0.000000 0.000000
0.016112 0.016780 0.000000
0.016780 -0.005985 0.000000
0.000000 0.000000 0.000000
0.011731 0.011541 0.000000
0.011541 -0.012426 0.000000
0.000000 0.000000 0.000000
0.014472 -0.008506 0.000000
-0.008506 -0.000288 0.000000
0.000000 0.000000 0.000000
0.005137 -0.000038 0.000000
-0.000038 -0.001014 0.000000
0.000000 0.000000 0.000000
0.005988 -0.012660 0.000000
-0.012660 0.001089 0.000000
0.000000 0.000000 0.000000
-0.011431 -0.001379 0.000000
-0.001379 -0.006543 0.000000
0.000000 0.000000 0.000000
0.029001 -0.002152 0.000000
-0.002152 -0.022528 0.000000
0.000000 0.000000 0.000000
0.002745 -0.005712 0.000000
-0.005712 -0.030232 0.000000
0.000000 0.000000 0.000000
-0.054743 0.001144 0.000000
0.001144 -0.015872 0.000000
0.000000 0.000000 0.000000
-0.037765 0.009052 0.000000
0.009052 0.036014 0.000000
0.000000 0.000000 0.000000
0.005069 0.000874 0.000000
0.000874 -0.003232 0.000000
0.000000 0.000000 0.000000
-0.000078 -0.000119 0.000000
-0.000119 -0.005139 0.000000
0.000000 0.000000 0.000000
-0.003913 0.003785 0.000000
0.003785 -0.021252 0.000000
0.000000 0.000000 0.000000
-0.006476 -0.007283 0.000000
-0.007283 -0.001234 0.000000
0.000000 0.000000 0.000000
0.009642 0.008089 0.000000
0.008089 -0.003142 0.000000
0.000000 0.000000 0.000000
0.009012 -0.005101 0.000000
-0.005101 -0.001058 0.000000
0.000000 0.000000 0.000000
0.010070 0.000135 0.000000
0.000135 -0.018363 0.000000
0.000000 0.000000 0.000000
0.015827 0.004102 0.000000
0.004102 0.021999 0.000000
0.000000 0.000000 0.000000
-0.000813 -0.004151 0.000000
-0.004151 -0.023072 0.000000
0.000000 0.000000 0.000000
-0.001130 -0.003378 0.000000
-0.003378 -0.016197 0.000000
0.000000 0.000000 0.000000
-0.006092 0.001288 0.000000
0.001288 -0.018785 0.000000
0.000000 0.000000 0.000000
-0.002576 -0.006624 0.000000
-0.006624 0.016349 0.000000
0.000000 0.000000 0.000000
0.001718 0.002421 0.000000
0.002421 -0.019512 0.000000
0.000000 0.000000 0.000000
-0.002744 -0.000552 0.000000
-0.000552 -0.022703 0.000000
0.000000 0.000000 0.000000
0.001996 0.005336 0.000000
0.005336 0.016103 0.000000
0.000000 0.000000 0.000000
-0.011147 -0.011065 0.000000
-0.011065 0.013233 0.000000
0.000000 0.000000 0.000000
-0.011412 0.001422 0.000000
0.001422 0.010600 0.000000
0.000000 0.000000 0.000000
-0.012861 0.005590 0.000000
0.005590 -0.023272 0.000000
0.000000 0.000000 0.000000
0.002173 -0.003019 0.000000
-0.003019 0.014258 0.000000
0.000000 0.000000 0.000000
-0.005306 -0.017989 0.000000
-0.017989 0.011661 0.000000
0.000000 0.000000 0.000000
-0.012540 0.000634 0.000000
0.000634 0.004806 0.000000
0.000000 0.000000 0.000000
0.024151 -0.004111 0.000000
-0.004111 -0.028358 0.000000
0.000000 0.000000 0.000000
0.006354 0.003546 0.000000
0.003546 -0.001642 0.000000
0.000000 0.000000 0.000000
0.000359 0.002944 0.000000
0.002944 -0.003552 0.000000
0.000000 0.000000 0.000000
0.014432 0.004354 0.000000
0.004354 0.000308 0.000000
0.000000 0.000000 0.000000
-0.004485 0.002160 0.000000
0.002160 -0.005593 0.000000
0.000000 0.000000 0.000000
-0.003276 -0.003264 0.000000
-0.003264 -0.016367 0.000000
0.000000 0.000000 0.000000
-0.006835 0.000092 0.000000
0.000092 -0.020235 0.000000
0.000000 0.000000 0.000000
0.002544 -0.004167 0.000000
-0.004167 -0.000629 0.000000
0.000000 0.000000 0.000000
0.008400 -0.003328 0.000000
-0.003328 -0.024382 0.000000
0.000000 0.000000 0.000000
-0.000684 0.007072 0.000000
0.007072 0.008651 0.000000
0.000000 0.000000 0.000000
-0.016092 -0.014065 0.000000
-0.014065 -0.007613 0.000000
0.000000 0.000000 0.000000
-0.014282 0.001469 0.000000
0.001469 -0.015493 0.000000
0.000000 0.000000 0.000000
-0.006589 0.011312 0.000000
0.011312 0.012657 0.000000
0.000000 0.000000 0.000000
0.000260 -0.006023 0.000000
-0.006023 -0.018545 0.000000
0.000000 0.000000 0.000000
-0.001334 0.000037 0.000000
0.000037 0.004466 0.000000
0.000000 0.000000 0.000000
-0.008644 0.005915 0.000000
0.005915 -0.015241 0.000000
0.000000 0.000000 0.000000
-0.011237 0.002357 0.000000
0.002357 -0.012526 0.000000
0.000000 0.000000 0.000000
-0.004248 -0.003506 0.000000
-0.003506 -0.034499 0.000000
0.000000 0.000000 0.000000
-0.003788 0.007608 0.000000
0.007608 0.028302 0.000000
0.000000 0.000000 0.000000
-0.004061 0.004581 0.000000
0.004581 -0.009119 0.000000
0.000000 0.000000 0.000000
0.006449 -0.004526 0.000000
-0.004526 -0.016778 0.000000
0.000000 0.000000 0.000000
0.004685 0.003400 0.000000
0.003400 0.021441 0.000000
0.000000 0.000000 0.000000
-0.003450 0.002459 0.000000
0.002459 -0.012541 0.000000
0.000000 0.000000 0.000000
0.011002 -0.003534 0.000000
-0.003534 -0.016779 0.000000
0.000000 0.000000 0.000000
0.021995 0.002566 0.000000
0.002566 0.022583 0.000000
0.000000 0.000000 0.000000
-0.022756 0.003688 0.000000
0.003688 0.009177 0.000000
0.000000 0.000000 0.000000
0.027980 0.001750 0.000000
0.001750 -0.013413 0.000000
0.000000 0.000000 0.000000
0.003139 -0.009270 0.000000
-0.009270 0.010291 0.000000
0.000000 0.000000 0.000000
0.018246 0.000434 0.000000
0.000434 0.025778 0.000000
0.000000 0.000000 0.000000
0.024984 -0.009789 0.000000
-0.009789 0.013421 0.000000
0.000000 0.000000 0.000000
-0.024622 -0.001733 0.000000
-0.001733 -0.002747 0.000000
0.000000 0.000000 0.000000
-0.006632 -0.008157 0.000000
-0.008157 -0.000829 0.000000
0.000000 0.000000 0.000000
0.009611 -0.009954 0.000000
-0.009954 -0.004704 0.000000
0.000000 0.000000 0.000000
0.020844 -0.002699 0.000000
-0.002699 0.008071 0.000000
0.000000 0.000000 0.000000
-0.004969 0.001351 0.000000
0.001351 -0.018209 0.000000
0.000000 0.000000 0.000000
0.024304 0.007505 0.000000
0.007505 -0.022299 0.000000
0.000000 0.000000 0.000000
-0.001886 -0.012243 0.000000
-0.012243 0.015898 0.000000
0.000000 0.000000 0.000000
-0.006690 0.010750 0.000000
0.010750 -0.017904 0.000000
0.000000 0.000000 0.000000
0.007761 -0.000063 0.000000
-0.000063 0.020784 0.000000
0.000000 0.000000 0.000000
-0.006167 0.003365 0.000000
0.003365 0.000873 0.000000
0.000000 0.000000 0.000000
-0.016687 0.010708 0.000000
0.010708 -0.034173 0.000000
0.000000 0.000000 0.000000
-0.005993 -0.005416 0.000000
-0.005416 0.023741 0.000000
0.000000 0.000000 0.000000
-0.020777 0.004382 0.000000
0.004382 -0.002927 0.000000
0.000000 0.000000 0.000000
0.000938 0.002466 0.000000
0.002466 -0.022170 0.000000
0.000000 0.000000 0.000000
0.000469 0.000073 0.000000
0.000073 -0.003608 0.000000
0.000000 0.000000 0.000000
0.004815 -0.004993 0.000000
-0.004993 0.007404 0.000000
0.000000 0.000000 0.000000
-0.002708 0.000477 0.000000
0.000477 -0.012425 0.000000
0.000000 0.000000 0.000000
-0.012815 -0.000739 0.000000
-0.000739 0.005603 0.000000
0.000000 0.000000 0.000000
-0.004223 0.002552 0.000000
0.002552 -0.014102 0.000000
0.000000 0.000000 0.000000
0.007237 -0.005578 0.000000
-0.005578 -0.005136 0.000000
0.000000 0.000000 0.000000
0.011143 -0.013839 0.000000
-0.013839 0.029165 0.000000
0.000000 0.000000 0.000000
-0.021401 -0.002439 0.000000
-0.002439 -0.026045 0.000000
0.000000 0.000000 0.000000
-0.054310 0.000906 0.000000
0.000906 0.021593 0.000000
0.000000 0.000000 0.000000
0.019510 -0.003961 0.000000
-0.003961 -0.004689 0.000000
0.000000 0.000000 0.000000
-0.048682 0.007816 0.000000
0.007816 -0.028816 0.000000
0.000000 0.000000 0.000000
0.010627 -0.010530 0.000000
-0.010530 -0.006983 0.000000
0.000000 0.000000 0.000000
0.005010 0.003804 0.000000
0.003804 -0.006524 0.000000
0.000000 0.000000 0.000000
0.005378 0.008632 0.000000
0.008632 -0.019959 0.000000
0.000000 0.000000 0.000000
-0.007471 -0.006891 0.000000
-0.006891 -0.037327 0.000000
0.000000 0.000000 0.000000
0.015517 0.005540 0.000000
0.005540 0.002552 0.000000
0.000000 0.000000 0.000000
-0.002390 -0.007786 0.000000
-0.007786 -0.003564 0.000000
0.000000 0.000000 0.000000
-0.003029 0.000877 0.000000
0.000877 0.005158 0.000000
0.000000 0.000000 0.000000
0.004469 -0.006277 0.000000
-0.006277 0.001614 0.000000
0.000000 0.000000 0.000000
0.018458 -0.001242 0.000000
-0.001242 0.035331 0.000000
0.000000 0.000000 0.000000
0.036056 -0.017530 0.000000
-0.017530 0.041107 0.000000
0.000000 0.000000 0.000000
-0.002719 0.007004 0.000000
0.007004 0.011715 0.000000
0.000000 0.000000 0.000000
-0.060120 0.028823 0.000000
0.028823 -0.059317 0.000000
0.000000 0.000000 0.000000
-0.020210 -0.001245 0.000000
-0.001245 0.063676 0.000000
0.000000 0.000000 0.000000
-0.041943 -0.026248 0.000000
-0.026248 0.000016 0.000000
0.000000 0.000000 0.000000
-0.056434 0.001963 0.000000
0.001963 -0.014182 0.000000
0.000000 0.000000 0.000000
-0.012271 -0.005084 0.000000
-0.005084 -0.008405 0.000000
0.000000 0.000000 0.000000
-0.002228 -0.012468 0.000000
-0.012468 0.000096 0.000000
0.000000 0.000000 0.000000
-0.012453 -0.005310 0.000000
-0.005310 -0.001931 0.000000
0.000000 0.000000 0.000000
-0.010173 -0.008975 0.000000
-0.008975 0.008222 0.000000
0.000000 0.000000 0.000000
-0.013610 0.014342 0.000000
0.014342 -0.009974 0.000000
0.000000 0.000000 0.000000
-0.006567 0.003270 0.000000
0.003270 0.007536 0.000000
0.000000 0.000000 0.000000
-0.011593 -0.000276 0.000000
-0.000276 0.008745 0.000000
0.000000 0.000000 0.000000
0.018352 -0.002407 0.000000
-0.002407 0.019803 0.000000
0.000000 0.000000 0.000000
0.012010 0.006419 0.000000
0.006419 0.011171 0.000000
0.000000 0.000000 0.000000
-0.002018 -0.004087 0.000000
-0.004087 0.001192 0.000000
0.000000 0.000000 0.000000
-0.026704 0.011955 0.000000
0.011955 -0.038926 0.000000
0.000000 0.000000 0.000000
-0.003295 0.002626 0.000000
0.002626 -0.011856 0.000000
0.000000 0.000000 0.000000
0.031604 0.003004 0.000000
0.003004 0.017799 0.000000
0.000000 0.000000 0.000000
-0.047969 0.010507 0.000000
0.010507 -0.026952 0.000000
0.000000 0.000000 0.000000
0.009366 -0.000474 0.000000
-0.000474 -0.020474 0.000000
0.000000 0.000000 0.000000
-0.031912 -0.008667 0.000000
-0.008667 -0.022489 0.000000
0.000000 0.000000 0.000000
0.014033 0.011153 0.000000
0.011153 0.005916 0.000000
0.000000 0.000000 0.000000
-0.003893 -0.017455 0.000000
-0.017455 -0.008336 0.000000
0.000000 0.000000 0.000000
-0.003072 0.001984 0.000000
0.001984 -0.012621 0.000000
0.000000 0.000000 0.000000
0.041054 -0.018061 0.000000
-0.018061 0.046180 0.000000
0.000000 0.000000 0.000000
-0.018884 -0.002253 0.000000
-0.002253 -0.011607 0.000000
0.000000 0.000000 0.000000
-0.000334 0.001042 0.000000
0.001042 0.034289 0.000000
0.000000 0.000000 0.000000
0.007905 -0.002591 0.000000
-0.002591 0.011719 0.000000
0.000000 0.000000 0.000000
-0.004386 -0.005180 0.000000
-0.005180 0.007074 0.000000
0.000000 0.000000 0.000000
0.023811 -0.011453 0.000000
-0.011453 0.004653 0.000000
0.000000 0.000000 0.000000
-0.000889 -0.004657 0.000000
-0.004657 0.001723 0.000000
0.000000 0.000000 0.000000
-0.002812 -0.012908 0.000000
-0.012908 -0.006765 0.000000
0.000000 0.000000 0.000000
0.016089 0.017845 0.000000
0.017845 0.000247 0.000000
0.000000 0.000000 0.000000
-0.003922 0.002117 0.000000
0.002117 -0.012284 0.000000
0.000000 0.000000 0.000000
0.023623 0.007426 0.000000
0.007426 0.023607 0.000000
0.000000 0.000000 0.000000
-0.001239 0.003876 0.000000
0.003876 -0.006816 0.000000
0.000000 0.000000 0.000000
0.044592 0.008026 0.000000
0.008026 0.005703 0.000000
0.000000 0.000000 0.000000
0.017190 0.001822 0.000000
0.001822 0.013792 0.000000
0.000000 0.000000 0.000000
-0.005730 -0.003255 0.000000
-0.003255 0.008444 0.000000
0.000000 0.000000 0.000000
0.013325 0.005424 0.000000
0.005424 -0.023976 0.000000
0.000000 0.000000 0.000000
-0.031728 -0.006047 0.000000
-0.006047 0.016415 0.000000
0.000000 0.000000 0.000000
-0.001179 -0.002085 0.000000
-0.002085 -0.004000 0.000000
0.000000 0.000000 0.000000
0.000450 0.013095 0.000000
0.013095 0.003940 0.000000
0.000000 0.000000 0.000000
-0.002255 0.011959 0.000000
0.011959 0.003191 0.000000
0.000000 0.000000 0.000000
-0.008838 -0.007107 0.000000
-0.007107 -0.005740 0.000000
0.000000 0.000000 0.000000
-0.020591 -0.015914 0.000000
-0.015914 -0.011026 0.000000
0.000000 0.000000 0.000000
-0.030457 -0.004285 0.000000
-0.004285 -0.024566 0.000000
0.000000 0.000000 0.000000
-0.011789 -0.009216 0.000000
-0.009216 -0.010627 0.000000
0.000000 0.000000 0.000000
-0.012497 -0.006806 0.000000
-0.006806 -0.000703 0.000000
0.000000 0.000000 0.000000
0.026395 0.001329 0.000000
0.001329 -0.006728 0.000000
0.000000 0.000000 0.000000
-0.005312 0.006008 0.000000
0.006008 -0.017508 0.000000
0.000000 0.000000 0.000000
-0.005856 -0.002184 0.000000
-0.002184 -0.004788 0.000000
0.000000 0.000000 0.000000
-0.004200 -0.002332 0.000000
-0.002332 -0.001277 0.000000
0.000000 0.000000 0.000000
0.007788 0.002890 0.000000
0.002890 -0.020655 0.000000
0.000000 0.000000 0.000000
-0.009704 0.007894 0.000000
0.007894 -0.027910 0.000000
0.000000 0.000000 0.000000
0.011731 0.002627 0.000000
0.002627 0.006251 0.000000
0.000000 0.000000 0.000000
-0.010553 -0.000204 0.000000
-0.000204 -0.007117 0.000000
0.000000 0.000000 0.000000
0.021595 -0.010267 0.000000
-0.010267 -0.006759 0.000000
0.000000 0.000000 0.000000
0.000000 -0.013911 0.000000
-0.013911 0.000691 0.000000
0.000000 0.000000 0.000000
-0.002019 0.010487 0.000000
0.010487 0.003688 0.000000
0.000000 0.000000 0.000000
0.005082 -0.015788 0.000000
-0.015788 -0.004633 0.000000
0.000000 0.000000 0.000000
0.006147 -0.014618 0.000000
-0.014618 -0.001703 0.000000
0.000000 0.000000 0.000000
-0.013800 -0.003572 0.000000
-0.003572 -0.033656 0.000000
0.000000 0.000000 0.000000
-0.009105 -0.003240 0.000000
-0.003240 -0.015895 0.000000
0.000000 0.000000 0.000000
-0.016813 -0.012747 0.000000
-0.012747 -0.006343 0.000000
0.000000 0.000000 0.000000
-0.006316 -0.002666 0.000000
-0.002666 -0.000777 0.000000
0.000000 0.000000 0.000000
-0.018485 -0.001121 0.000000
-0.001121 0.005783 0.000000
0.000000 0.000000 0.000000
-0.010845 0.003683 0.000000
0.003683 0.014816 0.000000
0.000000 0.000000 0.000000
0.004134 -0.000951 0.000000
-0.000951 -0.001287 0.000000
0.000000 0.000000 0.000000
0.011240 0.002041 0.000000
0.002041 0.022549 0.000000
0.000000 0.000000 0.000000
0.012551 -0.008794 0.000000
-0.008794 0.009246 0.000000
0.000000 0.000000 0.000000
0.017837 -0.010862 0.000000
-0.010862 0.008874 0.000000
0.000000 0.000000 0.000000
0.017200 -0.000143 0.000000
-0.000143 0.005929 0.000000
0.000000 0.000000 0.000000
0.057019 -0.003538 0.000000
-0.003538 0.038522 0.000000
0.000000 0.000000 0.000000
0.016065 -0.018536 0.000000
-0.018536 0.022843 0.000000
0.000000 0.000000 0.000000
-0.079509 -0.006622 0.000000
-0.006622 0.035668 0.000000
0.000000 0.000000 0.000000
-0.051096 -0.025565 0.000000
-0.025565 -0.031714 0.000000
0.000000 0.000000 0.000000
0.005100 -0.004028 0.000000
-0.004028 0.015310 0.000000
0.000000 0.000000 0.000000
-0.001013 -0.000460 0.000000
-0.000460 -0.000857 0.000000
0.000000 0.000000 0.000000
-0.002452 -0.005423 0.000000
-0.005423 -0.008438 0.000000
0.000000 0.000000 0.000000
-0.000986 -0.007787 0.000000
-0.007787 -0.003835 0.000000
0.000000 0.000000 0.000000
-0.007135 0.003791 0.000000
0.003791 0.004621 0.000000
0.000000 0.000000 0.000000
0.016769 0.006259 0.000000
0.006259 -0.003076 0.000000
0.000000 0.000000 0.000000
0.009510 0.000699 0.000000
0.000699 -0.000983 0.000000
0.000000 0.000000 0.000000
0.013722 -0.003313 0.000000
-0.003313 0.009545 0.000000
0.000000 0.000000 0.000000
0.011241 0.003135 0.000000
0.003135 -0.004884 0.000000
0.000000 0.000000 0.000000
-0.008380 -0.001526 0.000000
-0.001526 0.015790 0.000000
0.000000 0.000000 0.000000
0.002819 -0.006770 0.000000
-0.006770 -0.007657 0.000000
0.000000 0.000000 0.000000
0.008381 -0.016694 0.000000
-0.016694 -0.025841 0.000000
0.000000 0.000000 0.000000
0.019256 -0.010994 0.000000
-0.010994 0.007149 0.000000
0.000000 0.000000 0.000000
-0.023063 0.003080 0.000000
0.003080 -0.004040 0.000000
0.000000 0.000000 0.000000
-0.020953 0.003273 0.000000
0.003273 -0.006244 0.000000
0.000000 0.000000 0.000000
-0.002535 0.005709 0.000000
0.005709 0.029045 0.000000
0.000000 0.000000 0.000000
-0.005626 0.009530 0.000000
0.009530 0.007244 0.000000
0.000000 0.000000 0.000000
-0.002139 -0.005163 0.000000
-0.005163 0.018014 0.000000
0.000000 0.000000 0.000000
-0.026513 0.003990 0.000000
0.003990 0.034236 0.000000
0.000000 0.000000 0.000000
-0.023329 0.006610 0.000000
0.006610 0.008843 0.000000
0.000000 0.000000 0.000000
0.035122 0.003312 0.000000
0.003312 -0.009497 0.000000
0.000000 0.000000 0.000000
-0.013176 0.001359 0.000000
0.001359 -0.010559 0.000000
0.000000 0.000000 0.000000
0.006945 -0.000369 0.000000
-0.000369 0.003224 0.000000
0.000000 0.000000 0.000000
-0.006772 -0.006017 0.000000
-0.006017 0.002858 0.000000
0.000000 0.000000 0.000000
0.001753 -0.003607 0.000000
-0.003607 0.007422 0.000000
0.000000 0.000000 0.000000
-0.038864 -0.023364 0.000000
-0.023364 0.000603 0.000000
0.000000 0.000000 0.000000
0.000515 -0.002224 0.000000
-0.002224 -0.000695 0.000000
0.000000 0.000000 0.000000
-0.022752 -0.022926 0.000000
-0.022926 -0.027299 0.000000
0.000000 0.000000 0.000000
0.019470 0.008754 0.000000
0.008754 0.027468 0.000000
0.000000 0.000000 0.000000
0.000452 -0.006222 0.000000
-0.006222 -0.030459 0.000000
0.000000 0.000000 0.000000
0.018491 0.000937 0.000000
0.000937 -0.021389 0.000000
0.000000 0.000000 0.000000
0.004002 0.009342 0.000000
0.009342 0.023977 0.000000
0.000000 0.000000 0.000000
0.004055 0.001973 0.000000
0.001973 -0.010078 0.000000
0.000000 0.000000 0.000000
0.001673 0.005265 0.000000
0.005265 0.002451 0.000000
0.000000 0.000000 0.000000
0.014627 0.007568 0.000000
0.007568 0.022322 0.000000
0.000000 0.000000 0.000000
0.009940 -0.000692 0.000000
-0.000692 -0.022853 0.000000
0.000000 0.000000 0.000000
0.015775 -0.011775 0.000000
-0.011775 -0.002438 0.000000
0.000000 0.000000 0.000000
0.002710 -0.003467 0.000000
-0.003467 0.001737 0.000000
0.000000 0.000000 0.000000
0.003190 0.001340 0.000000
0.001340 -0.002701 0.000000
0.000000 0.000000 0.000000
-0.004605 0.001809 0.000000
0.001809 -0.000996 0.000000
0.000000 0.000000 0.000000
0.004013 0.002187 0.000000
0.002187 0.028511 0.000000
0.000000 0.000000 0.000000
0.000032 -0.001007 0.000000
-0.001007 0.011099 0.000000
0.000000 0.000000 0.000000
0.003113 -0.004598 0.000000
-0.004598 0.021674 0.000000
0.000000 0.000000 0.000000
0.013503 0.002036 0.000000
0.002036 0.037357 0.000000
0.000000 0.000000 0.000000
-0.007402 -0.005767 0.000000
-0.005767 -0.027333 0.000000
0.000000 0.000000 0.000000
0.001436 0.002507 0.000000
0.002507 -0.004938 0.000000
0.000000 0.000000 0.000000
-0.018715 0.006198 0.000000
0.006198 -0.021908 0.000000
0.000000 0.000000 0.000000
0.016227 -0.001335 0.000000
-0.001335 -0.016984 0.000000
0.000000 0.000000 0.000000
-0.024753 0.010200 0.000000
0.010200 -0.015919 0.000000
0.000000 0.000000 0.000000
0.006562 -0.003955 0.000000
-0.003955 0.011072 0.000000
0.000000 0.000000 0.000000
-0.003549 -0.000862 0.000000
-0.000862 0.006344 0.000000
0.000000 0.000000 0.000000
0.017235 -0.005182 0.000000
-0.005182 0.005987 0.000000
0.000000 0.000000 0.000000
0.009326 -0.003500 0.000000
-0.003500 0.012961 0.000000
0.000000 0.000000 0.000000
0.013149 -0.000496 0.000000
-0.000496 0.019922 0.000000
0.000000 0.000000 0.000000
-0.010217 -0.003161 0.000000
-0.003161 -0.006547 0.000000
0.000000 0.000000 0.000000
-0.004264 -0.005839 0.000000
-0.005839 0.030033 0.000000
0.000000 0.000000 0.000000
0.022006 -0.001182 0.000000
-0.001182 0.012521 0.000000
0.000000 0.000000 0.000000
-0.004357 -0.007636 0.000000
-0.007636 -0.010209 0.000000
0.000000 0.000000 0.000000
0.005887 -0.000380 0.000000
-0.000380 0.006479 0.000000
0.000000 0.000000 0.000000
-0.004026 0.005238 0.000000
0.005238 -0.007183 0.000000
0.000000 0.000000 0.000000
-0.009828 0.006819 0.000000
0.006819 0.022585 0.000000
0.000000 0.000000 0.000000
-0.005701 -0.006913 0.000000
-0.006913 -0.016958 0.000000
0.000000 0.000000 0.000000
0.017372 0.000184 0.000000
0.000184 -0.031625 0.000000
0.000000 0.000000 0.000000
0.001301 -0.004034 0.000000
-0.004034 0.010716 0.000000
0.000000 0.000000 0.000000
-0.011674 -0.005489 0.000000
-0.005489 -0.019399 0.000000
0.000000 0.000000 0.000000
0.020858 -0.002187 0.000000
-0.002187 0.027027 0.000000
0.000000 0.000000 0.000000
0.030565 0.027164 0.000000
0.027164 0.009649 0.000000
0.000000 0.000000 0.000000
-0.002907 -0.001002 0.000000
-0.001002 0.005096 0.000000
0.000000 0.000000 0.000000
-0.009673 -0.003037 0.000000
-0.003037 -0.012638 0.000000
0.000000 0.000000 0.000000
0.001378 0.006394 0.000000
0.006394 0.016706 0.000000
0.000000 0.000000 0.000000
-0.007918 -0.013657 0.000000
-0.013657 -0.001072 0.000000
0.000000 0.000000 0.000000
-0.014270 0.002436 0.000000
0.002436 -0.012403 0.000000
0.000000 0.000000 0.000000
-0.013431 0.002206 0.000000
0.002206 -0.008991 0.000000
0.000000 0.000000 0.000000
0.004482 0.013280 0.000000
0.013280 -0.008836 0.000000
0.000000 0.000000 0.000000
-0.000632 0.003146 0.000000
0.003146 -0.003555 0.000000
0.000000 0.000000 0.000000
0.005289 0.003811 0.000000
0.003811 0.021169 0.000000
0.000000 0.000000 0.000000
0.015493 0.008940 0.000000
0.008940 -0.009514 0.000000
0.000000 0.000000 0.000000
0.004836 0.005573 0.000000
0.005573 -0.014720 0.000000
0.000000 0.000000 0.000000
-0.000949 -0.000929 0.000000
-0.000929 0.003250 0.000000
0.000000 0.000000 0.000000
0.006654 0.003073 0.000000
0.003073 0.022421 0.000000
0.000000 0.000000 0.000000
0.002146 -0.000295 0.000000
-0.000295 -0.003410 0.000000
0.000000 0.000000 0.000000
-0.028837 -0.005834 0.000000
-0.005834 0.003913 0.000000
0.000000 0.000000 0.000000
-0.002175 0.003051 0.000000
0.003051 -0.010661 0.000000
0.000000 0.000000 0.000000
0.019611 -0.002479 0.000000
-0.002479 -0.017229 0.000000
0.000000 0.000000 0.000000
-0.009028 0.005271 0.000000
0.005271 -0.008064 0.000000
0.000000 0.000000 0.000000
0.003126 0.000124 0.000000
0.000124 -0.004108 0.000000
0.000000 0.000000 0.000000
0.016207 -0.006066 0.000000
-0.006066 0.007186 0.000000
0.000000 0.000000 0.000000
0.032938 0.004108 0.000000
0.004108 -0.007215 0.000000
0.000000 0.000000 0.000000
-0.016703 0.006246 0.000000
0.006246 -0.019053 0.000000
0.000000 0.000000 0.000000
0.000738 0.009049 0.000000
0.009049 -0.009904 0.000000
0.000000 0.000000 0.000000
0.004793 0.000388 0.000000
0.000388 0.007646 0.000000
0.000000 0.000000 0.000000
-0.017198 0.006931 0.000000
0.006931 -0.015239 0.000000
0.000000 0.000000 0.000000
-0.036270 0.006247 0.000000
0.006247 -0.028277 0.000000
0.000000 0.000000 0.000000
0.010065 0.004715 0.000000
0.004715 -0.012777 0.000000
0.000000 0.000000 0.000000
-0.010914 -0.009455 0.000000
-0.009455 0.006082 0.000000
0.000000 0.000000 0.000000
0.013594 -0.013633 0.000000
-0.013633 0.024542 0.000000
0.000000 0.000000 0.000000
0.003941 -0.006430 0.000000
-0.006430 -0.012598 0.000000
0.000000 0.000000 0.000000
-0.011276 0.001385 0.000000
0.001385 -0.020580 0.000000
0.000000 0.000000 0.000000
0.009191 -0.001222 0.000000
-0.001222 0.012627 0.000000
0.000000 0.000000 0.000000
-0.003307 0.002318 0.000000
0.002318 0.006932 0.000000
0.000000 0.000000 0.000000
0.013425 -0.010134 0.000000
-0.010134 -0.018563 0.000000
0.000000 0.000000 0.000000
0.007151 -0.027994 0.000000
-0.027994 0.006841 0.000000
0.000000 0.000000 0.000000
0.002443 0.001193 0.000000
0.001193 -0.040020 0.000000
0.000000 0.000000 0.000000
0.031518 0.008535 0.000000
0.008535 -0.014604 0.000000
0.000000 0.000000 0.000000
-0.008417 -0.000281 0.000000
-0.000281 0.002532 0.000000
0.000000 0.000000 0.000000
0.014369 -0.013832 0.000000
-0.013832 -0.036900 0.000000
0.000000 0.000000 0.000000
0.018962 -0.009085 0.000000
-0.009085 0.007351 0.000000
0.000000 0.000000 0.000000
0.008874 0.008320 0.000000
0.008320 0.002538 0.000000
0.000000 0.000000 0.000000
0.008284 0.003768 0.000000
0.003768 0.003432 0.000000
0.000000 0.000000 0.000000
-0.000657 -0.001674 0.000000
-0.001674 -0.003213 0.000000
0.000000 0.000000 0.000000
0.018147 -0.001829 0.000000
-0.001829 0.008857 0.000000
0.000000 0.000000 0.000000
0.001567 0.002123 0.000000
0.002123 0.005804 0.000000
0.000000 0.000000 0.000000
0.007343 0.000486 0.000000
0.000486 0.005208 0.000000
0.000000 0.000000 0.000000
0.005559 0.005991 0.000000
0.005991 0.008927 0.000000
0.000000 0.000000 0.000000
0.017037 0.005398 0.000000
0.005398 0.011081 0.000000
0.000000 0.000000 0.000000
-0.000996 -0.007874 0.000000
-0.007874 -0.013686 0.000000
0.000000 0.000000 0.000000
0.006210 0.001924 0.000000
0.001924 -0.001558 0.000000
0.000000 0.000000 0.000000
0.001033 -0.006017 0.000000
-0.006017 -0.014461 0.000000
0.000000 0.000000 0.000000
0.006258 0.004367 0.000000
0.004367 -0.005628 0.000000
0.000000 0.000000 0.000000
-0.002841 0.004650 0.000000
0.004650 -0.022254 0.000000
0.000000 0.000000 0.000000
0.004001 0.004561 0.000000
0.004561 0.004333 0.000000
0.000000 0.000000 0.000000
0.009083 -0.005107 0.000000
-0.005107 -0.005244 0.000000
0.000000 0.000000 0.000000
-0.000119 -0.000822 0.000000
-0.000822 -0.003000 0.000000
0.000000 0.000000 0.000000
-0.024921 -0.002698 0.000000
-0.002698 -0.007715 0.000000
0.000000 0.000000 0.000000
-0.014213 -0.005124 0.000000
-0.005124 0.009006 0.000000
0.000000 0.000000 0.000000
-0.001105 0.008204 0.000000
0.008204 -0.006814 0.000000
0.000000 0.000000 0.000000
0.004431 0.001873 0.000000
0.001873 -0.010415 0.000000
0.000000 0.000000 0.000000
0.010309 0.003538 0.000000
0.003538 0.008027 0.000000
0.000000 0.000000 0.000000
0.001894 -0.001703 0.000000
-0.001703 -0.001539 0.000000
0.000000 0.000000 0.000000
-0.023240 0.005156 0.000000
0.005156 0.001483 0.000000
0.000000 0.000000 0.000000
-0.009846 -0.006135 0.000000
-0.006135 -0.043094 0.000000
0.000000 0.000000 0.000000
0.004554 0.004533 0.000000
0.004533 0.002995 0.000000
0.000000 0.000000 0.000000
0.002103 0.004037 0.000000
0.004037 0.002197 0.000000
0.000000 0.000000 0.000000
-0.019902 0.002809 0.000000
0.002809 0.004370 0.000000
0.000000 0.000000 0.000000
0.000197 0.002214 0.000000
0.002214 -0.001097 0.000000
0.000000 0.000000 0.000000
0.004975 0.000285 0.000000
0.000285 0.014062 0.000000
0.000000 0.000000 0.000000
-0.022459 0.011190 0.000000
0.011190 -0.005344 0.000000
0.000000 0.000000 0.000000
-0.004351 0.007667 0.000000
0.007667 0.025280 0.000000
0.000000 0.000000 0.000000
-0.005396 0.001552 0.000000
0.001552 -0.001614 0.000000
0.000000 0.000000 0.000000
-0.004943 -0.000419 0.000000
-0.000419 -0.018842 0.000000
0.000000 0.000000 0.000000
-0.001190 0.001140 0.000000
0.001140 0.015871 0.000000
0.000000 0.000000 0.000000
0.009870 -0.007302 0.000000
-0.007302 0.021734 0.000000
0.000000 0.000000 0.000000
-0.004832 0.010673 0.000000
0.010673 0.007825 0.000000
0.000000 0.000000 0.000000
0.007203 0.002607 0.000000
0.002607 0.008625 0.000000
0.000000 0.000000 0.000000
-0.006158 -0.014466 0.000000
-0.014466 0.014876 0.000000
0.000000 0.000000 0.000000
0.021477 -0.017375 0.000000
-0.017375 0.008946 0.000000
0.000000 0.000000 0.000000
0.023226 -0.016341 0.000000
-0.016341 0.011012 0.000000
0.000000 0.000000 0.000000
-0.025285 0.002466 0.000000
0.002466 -0.003204 0.000000
0.000000 0.000000 0.000000
0.016684 0.000698 0.000000
0.000698 0.003351 0.000000
0.000000 0.000000 0.000000
0.005364 0.003475 0.000000
0.003475 0.000052 0.000000
0.000000 0.000000 0.000000
0.005194 -0.002393 0.000000
-0.002393 0.000091 0.000000
0.000000 0.000000 0.000000
-0.007740 -0.004955 0.000000
-0.004955 -0.021149 0.000000
0.000000 0.000000 0.000000
0.027112 0.006756 0.000000
0.006756 0.038863 0.000000
0.000000 0.000000 0.000000
-0.010667 0.003456 0.000000
0.003456 -0.004167 0.000000
0.000000 0.000000 0.000000
0.008582 0.002738 0.000000
0.002738 0.013550 0.000000
0.000000 0.000000 0.000000
-0.023217 0.000157 0.000000
0.000157 -0.018986 0.000000
0.000000 0.000000 0.000000
0.009349 -0.002639 0.000000
-0.002639 0.013890 0.000000
0.000000 0.000000 0.000000
-0.002293 -0.002066 0.000000
-0.002066 -0.010347 0.000000
0.000000 0.000000 0.000000
-0.001646 -0.004108 0.000000
-0.004108 -0.007999 0.000000
0.000000 0.000000 0.000000
-0.005790 -0.000482 0.000000
-0.000482 -0.024411 0.000000
0.000000 0.000000 0.000000
-0.008424 -0.001725 0.000000
-0.001725 -0.023219 0.000000
0.000000 0.000000 0.000000
-0.000631 -0.006436 0.000000
-0.006436 -0.008772 0.000000
0.000000 0.000000 0.000000
0.026964 0.005923 0.000000
0.005923 0.000408 0.000000
0.000000 0.000000 0.000000
0.000329 0.000959 0.000000
0.000959 0.010690 0.000000
0.000000 0.000000 0.000000
0.025044 0.005056 0.000000
0.005056 -0.006284 0.000000
0.000000 0.000000 0.000000
0.005467 0.001083 0.000000
0.001083 0.002987 0.000000
0.000000 0.000000 0.000000
-0.010294 -0.000844 0.000000
-0.000844 -0.011995 0.000000
0.000000 0.000000 0.000000
-0.003046 0.000062 0.000000
0.000062 -0.008057 0.000000
0.000000 0.000000 0.000000
-0.022381 -0.008697 0.000000
-0.008697 0.005351 0.000000
0.000000 0.000000 0.000000
-0.017552 -0.007167 0.000000
-0.007167 -0.020492 0.000000
0.000000 0.000000 0.000000
-0.006796 -0.009072 0.000000
-0.009072 -0.004063 0.000000
0.000000 0.000000 0.000000
-0.015291 -0.016547 0.000000
-0.016547 0.005810 0.000000
0.000000 0.000000 0.000000
-0.000254 -0.003066 0.000000
-0.003066 0.000004 0.000000
0.000000 0.000000 0.000000
0.003349 -0.000301 0.000000
-0.000301 0.003814 0.000000
0.000000 0.000000 0.000000
-0.005566 0.009833 0.000000
0.009833 0.010754 0.000000
0.000000 0.000000 0.000000
-0.030012 -0.007076 0.000000
-0.007076 -0.015282 0.000000
0.000000 0.000000 0.000000
-0.000045 0.000600 0.000000
0.000600 0.004499 0.000000
0.000000 0.000000 0.000000
-0.001999 0.018300 0.000000
0.018300 0.011355 0.000000
0.000000 0.000000 0.000000
0.002802 -0.001101 0.000000
-0.001101 0.007409 0.000000
0.000000 0.000000 0.000000
0.000615 0.015946 0.000000
0.015946 -0.005171 0.000000
0.000000 0.000000 0.000000
0.005962 -0.005280 0.000000
-0.005280 0.008707 0.000000
0.000000 0.000000 0.000000
0.006005 0.019800 0.000000
0.019800 -0.010185 0.000000
0.000000 0.000000 0.000000
0.001681 0.000155 0.000000
0.000155 0.004383 0.000000
0.000000 0.000000 0.000000
0.024486 -0.030464 0.000000
-0.030464 0.048004 0.000000
0.000000 0.000000 0.000000
0.003410 -0.001833 0.000000
-0.001833 0.011985 0.000000
0.000000 0.000000 0.000000
0.022607 0.008638 0.000000
0.008638 0.016597 0.000000
0.000000 0.000000 0.000000
0.033918 0.014808 0.000000
0.014808 0.022089 0.000000
0.000000 0.000000 0.000000
0.000368 -0.001473 0.000000
-0.001473 -0.002030 0.000000
0.000000 0.000000 0.000000
0.014864 -0.019242 0.000000
-0.019242 0.030168 0.000000
0.000000 0.000000 0.000000
-0.012120 0.002667 0.000000
0.002667 -0.015965 0.000000
0.000000 0.000000 0.000000
0.004693 0.005399 0.000000
0.005399 -0.001288 0.000000
0.000000 0.000000 0.000000
-0.007381 -0.000706 0.000000
-0.000706 -0.010466 0.000000
0.000000 0.000000 0.000000
-0.001787 0.004431 0.000000
0.004431 -0.003441 0.000000
0.000000 0.000000 0.000000
-0.032808 0.023008 0.000000
0.023008 -0.084680 0.000000
0.000000 0.000000 0.000000
-0.029476 0.004840 0.000000
0.004840 -0.009152 0.000000
0.000000 0.000000 0.000000
-0.027956 -0.012113 0.000000
-0.012113 -0.013682 0.000000
0.000000 0.000000 0.000000
-0.011441 0.013394 0.000000
0.013394 -0.005477 0.000000
0.000000 0.000000 0.000000
-0.004842 0.004696 0.000000
0.004696 -0.004444 0.000000
0.000000 0.000000 0.000000
-0.010680 0.004799 0.000000
0.004799 -0.024571 0.000000
0.000000 0.000000 0.000000
-0.010131 0.015819 0.000000
0.015819 -0.101879 0.000000
0.000000 0.000000 0.000000
0.014646 -0.017101 0.000000
-0.017101 0.006147 0.000000
0.000000 0.000000 0.000000
0.001779 -0.001900 0.000000
-0.001900 -0.009593 0.000000
0.000000 0.000000 0.000000
0.012671 -0.015543 0.000000
-0.015543 0.010099 0.000000
0.000000 0.000000 0.000000
-0.005304 0.007177 0.000000
0.007177 -0.006946 0.000000
0.000000 0.000000 0.000000
0.007874 0.006168 0.000000
0.006168 0.005626 0.000000
0.000000 0.000000 0.000000
-0.004406 0.010230 0.000000
0.010230 -0.010722 0.000000
0.000000 0.000000 0.000000
0.002511 0.008385 0.000000
0.008385 0.007405 0.000000
0.000000 0.000000 0.000000
0.005814 0.001331 0.000000
0.001331 -0.010522 0.000000
0.000000 0.000000 0.000000
0.022098 -0.002596 0.000000
-0.002596 0.004268 0.000000
0.000000 0.000000 0.000000
0.009414 -0.001371 0.000000
-0.001371 -0.002785 0.000000
0.000000 0.000000 0.000000
0.008758 0.002624 0.000000
0.002624 0.011278 0.000000
0.000000 0.000000 0.000000
-0.005094 0.004227 0.000000
0.004227 0.005556 0.000000
0.000000 0.000000 0.000000
-0.009561 0.003060 0.000000
0.003060 -0.023694 0.000000
0.000000 0.000000 0.000000
-0.008717 0.001356 0.000000
0.001356 0.002948 0.000000
0.000000 0.000000 0.000000
-0.013166 0.004739 0.000000
0.004739 -0.019054 0.000000
0.000000 0.000000 0.000000
-0.005990 0.006335 0.000000
0.006335 0.023910 0.000000
0.000000 0.000000 0.000000
0.012026 0.002043 0.000000
0.002043 0.015290 0.000000
0.000000 0.000000 0.000000
0.005880 0.001030 0.000000
0.001030 0.006576 0.000000
0.000000 0.000000 0.000000
0.006248 0.002705 0.000000
0.002705 0.008587 0.000000
0.000000 0.000000 0.000000
0.004865 -0.000249 0.000000
-0.000249 -0.002846 0.000000
0.000000 0.000000 0.000000
0.001458 -0.003448 0.000000
-0.003448 -0.003179 0.000000
0.000000 0.000000 0.000000
0.018314 0.001137 0.000000
0.001137 0.010784 0.000000
0.000000 0.000000 0.000000
0.001957 -0.001606 0.000000
-0.001606 0.007275 0.000000
0.000000 0.000000 0.000000
-0.000314 -0.008544 0.000000
-0.008544 -0.001911 0.000000
0.000000 0.000000 0.000000
0.006338 -0.006595 0.000000
-0.006595 0.005935 0.000000
0.000000 0.000000 0.000000
-0.004440 0.005971 0.000000
0.005971 -0.021777 0.000000
0.000000 0.000000 0.000000
0.007874 -0.002574 0.000000
-0.002574 -0.005034 0.000000
0.000000 0.000000 0.000000
0.009373 0.006016 0.000000
0.006016 -0.021686 0.000000
0.000000 0.000000 0.000000
-0.004437 -0.000750 0.000000
-0.000750 -0.013162 0.000000
0.000000 0.000000 0.000000
0.037744 0.002382 0.000000
0.002382 0.003054 0.000000
0.000000 0.000000 0.000000
-0.010068 -0.011892 0.000000
-0.011892 -0.008332 0.000000
0.000000 0.000000 0.000000
0.026578 0.022688 0.000000
0.022688 -0.002472 0.000000
0.000000 0.000000 0.000000
-0.025227 -0.003731 0.000000
-0.003731 -0.023473 0.000000
0.000000 0.000000 0.000000
0.020100 0.007784 0.000000
0.007784 0.017245 0.000000
0.000000 0.000000 0.000000
-0.010342 0.003424 0.000000
0.003424 -0.014931 0.000000
0.000000 0.000000 0.000000
-0.006812 0.002455 0.000000
0.002455 -0.021533 0.000000
0.000000 0.000000 0.000000
-0.001216 -0.001063 0.000000
-0.001063 0.013389 0.000000
0.000000 0.000000 0.000000
-0.002626 0.001601 0.000000
0.001601 0.006793 0.000000
0.000000 0.000000 0.000000
0.009821 -0.001876 0.000000
-0.001876 0.007417 0.000000
0.000000 0.000000 0.000000
0.004214 -0.001135 0.000000
-0.001135 0.000790 0.000000
0.000000 0.000000 0.000000
0.004800 -0.000076 0.000000
-0.000076 0.011418 0.000000
0.000000 0.000000 0.000000
0.000236 -0.000339 0.000000
-0.000339 0.000435 0.000000
0.000000 0.000000 0.000000
0.016181 0.015055 0.000000
0.015055 -0.019067 0.000000
0.000000 0.000000 0.000000
-0.016236 0.001418 0.000000
0.001418 0.014613 0.000000
0.000000 0.000000 0.000000
0.011377 0.001443 0.000000
0.001443 0.005487 0.000000
0.000000 0.000000 0.000000
-0.009989 0.002007 0.000000
0.002007 -0.041655 0.000000
0.000000 0.000000 0.000000
0.008508 -0.000355 0.000000
-0.000355 0.017794 0.000000
0.000000 0.000000 0.000000
0.010283 0.000308 0.000000
0.000308 0.039866 0.000000
0.000000 0.000000 0.000000
-0.011783 -0.010455 0.000000
-0.010455 0.000238 0.000000
0.000000 0.000000 0.000000
-0.001236 -0.002882 0.000000
-0.002882 -0.011145 0.000000
0.000000 0.000000 0.000000
-0.003610 0.003810 0.000000
0.003810 -0.005230 0.000000
0.000000 0.000000 0.000000
0.002747 0.006325 0.000000
0.006325 -0.004364 0.000000
0.000000 0.000000 0.000000
0.027295 -0.004625 0.000000
-0.004625 0.055809 0.000000
0.000000 0.000000 0.000000
-0.005541 0.003792 0.000000
0.003792 0.023548 0.000000
0.000000 0.000000 0.000000
0.016765 -0.001036 0.000000
-0.001036 0.036890 0.000000
0.000000 0.000000 0.000000
-0.014538 -0.000659 0.000000
-0.000659 -0.004704 0.000000
0.000000 0.000000 0.000000
0.002648 -0.007412 0.000000
-0.007412 0.007248 0.000000
0.000000 0.000000 0.000000
-0.005560 -0.006207 0.000000
-0.006207 0.046265 0.000000
0.000000 0.000000 0.000000
-0.009869 -0.006979 0.000000
-0.006979 0.021214 0.000000
0.000000 0.000000 0.000000
-0.002633 0.001246 0.000000
0.001246 -0.000338 0.000000
0.000000 0.000000 0.000000
0.001755 0.003741 0.000000
0.003741 0.004546 0.000000
0.000000 0.000000 0.000000
-0.011133 -0.000377 0.000000
-0.000377 0.001886 0.000000
0.000000 0.000000 0.000000
-0.022053 -0.001577 0.000000
-0.001577 -0.040040 0.000000
0.000000 0.000000 0.000000
0.001225 0.001150 0.000000
0.001150 -0.024430 0.000000
0.000000 0.000000 0.000000
0.003330 -0.002349 0.000000
-0.002349 0.008171 0.000000
0.000000 0.000000 0.000000
-0.005250 0.005521 0.000000
0.005521 -0.016420 0.000000
0.000000 0.000000 0.000000
0.005426 -0.004696 0.000000
-0.004696 -0.000811 0.000000
0.000000 0.000000 0.000000
0.013259 -0.003433 0.000000
-0.003433 0.012410 0.000000
0.000000 0.000000 0.000000
0.009513 -0.003282 0.000000
-0.003282 0.012024 0.000000
0.000000 0.000000 0.000000
0.001569 -0.009620 0.000000
-0.009620 -0.007696 0.000000
0.000000 0.000000 0.000000
0.010407 -0.003382 0.000000
-0.003382 0.001606 0.000000
0.000000 0.000000 0.000000
-0.009372 0.000374 0.000000
0.000374 0.016453 0.000000
0.000000 0.000000 0.000000
-0.000379 -0.010413 0.000000
-0.010413 -0.002517 0.000000
0.000000 0.000000 0.000000
-0.003072 -0.013243 0.000000
-0.013243 0.016014 0.000000
0.000000 0.000000 0.000000
-0.004158 0.014294 0.000000
0.014294 0.010842 0.000000
0.000000 0.000000 0.000000
0.014481 0.002609 0.000000
0.002609 0.013664 0.000000
0.000000 0.000000 0.000000
-0.000005 -0.004146 0.000000
-0.004146 -0.014453 0.000000
0.000000 0.000000 0.000000
-0.007833 -0.004785 0.000000
-0.004785 -0.013805 0.000000
0.000000 0.000000 0.000000
0.006939 -0.003009 0.000000
-0.003009 0.004452 0.000000
0.000000 0.000000 0.000000
0.017616 -0.001377 0.000000
-0.001377 0.000122 0.000000
0.000000 0.000000 0.000000
0.003638 0.013068 0.000000
0.013068 0.017609 0.000000
0.000000 0.000000 0.000000
-0.001155 0.001948 0.000000
0.001948 -0.009089 0.000000
0.000000 0.000000 0.000000
0.014001 0.002408 0.000000
0.002408 0.013638 0.000000
0.000000 0.000000 0.000000
-0.006738 -0.003343 0.000000
-0.003343 -0.000641 0.000000
0.000000 0.000000 0.000000
-0.006374 -0.000790 0.000000
-0.000790 -0.010423 0.000000
0.000000 0.000000 0.000000
-0.009444 0.001518 0.000000
0.001518 0.004270 0.000000
0.000000 0.000000 0.000000
-0.016158 -0.023778 0.000000
-0.023778 0.002579 0.000000
0.000000 0.000000 0.000000
-0.003271 0.000485 0.000000
0.000485 -0.012204 0.000000
0.000000 0.000000 0.000000
0.000419 -0.003227 0.000000
-0.003227 -0.011147 0.000000
0.000000 0.000000 0.000000
-0.000947 0.004486 0.000000
0.004486 0.005561 0.000000
0.000000 0.000000 0.000000
0.000465 0.003532 0.000000
0.003532 -0.005711 0.000000
0.000000 0.000000 0.000000
-0.008200 0.000580 0.000000
0.000580 -0.008277 0.000000
0.000000 0.000000 0.000000
0.002592 -0.000908 0.000000
-0.000908 -0.034446 0.000000
0.000000 0.000000 0.000000
-0.013991 -0.004956 0.000000
-0.004956 -0.018906 0.000000
0.000000 0.000000 0.000000
-0.008789 0.004956 0.000000
0.004956 -0.033070 0.000000
0.000000 0.000000 0.000000
0.005934 -0.003401 0.000000
-0.003401 0.005850 0.000000
0.000000 0.000000 0.000000
0.002508 -0.002479 0.000000
-0.002479 -0.007487 0.000000
0.000000 0.000000 0.000000
-0.003476 -0.007523 0.000000
-0.007523 -0.032702 0.000000
0.000000 0.000000 0.000000
0.015679 -0.006787 0.000000
-0.006787 -0.005851 0.000000
0.000000 0.000000 0.000000
-0.007183 0.000285 0.000000
0.000285 -0.011473 0.000000
0.000000 0.000000 0.000000
-0.021711 0.027689 0.000000
0.027689 0.000066 0.000000
0.000000 0.000000 0.000000
-0.006822 -0.000576 0.000000
-0.000576 -0.020516 0.000000
0.000000 0.000000 0.000000
0.004045 -0.002730 0.000000
-0.002730 0.012020 0.000000
0.000000 0.000000 0.000000
-0.008962 -0.000250 0.000000
-0.000250 -0.006046 0.000000
0.000000 0.000000 0.000000
0.012612 -0.004927 0.000000
-0.004927 -0.003321 0.000000
0.000000 0.000000 0.000000
0.022338 -0.001203 0.000000
-0.001203 -0.002598 0.000000
0.000000 0.000000 0.000000
-0.001161 0.007617 0.000000
0.007617 0.021731 0.000000
0.000000 0.000000 0.000000
-0.002708 0.004280 0.000000
0.004280 0.004717 0.000000
0.000000 0.000000 0.000000
0.002034 -0.004794 0.000000
-0.004794 0.006855 0.000000
0.000000 0.000000 0.000000
-0.007720 -0.002131 0.000000
-0.002131 -0.024459 0.000000
0.000000 0.000000 0.000000
-0.009315 0.003962 0.000000
0.003962 -0.006244 0.000000
0.000000 0.000000 0.000000
0.000197 0.003747 0.000000
0.003747 0.000543 0.000000
0.000000 0.000000 0.000000
0.005215 0.000768 0.000000
0.000768 -0.002579 0.000000
0.000000 0.000000 0.000000
0.005644 -0.011491 0.000000
-0.011491 -0.004266 0.000000
0.000000 0.000000 0.000000
-0.055066 -0.005645 0.000000
-0.005645 -0.010184 0.000000
0.000000 0.000000 0.000000
-0.046300 -0.012478 0.000000
-0.012478 -0.004045 0.000000
0.000000 0.000000 0.000000
-0.001120 0.000350 0.000000
0.000350 0.001875 0.000000
0.000000 0.000000 0.000000
0.002478 -0.002612 0.000000
-0.002612 -0.005562 0.000000
0.000000 0.000000 0.000000
-0.001925 0.001485 0.000000
0.001485 -0.006966 0.000000
0.000000 0.000000 0.000000
-0.003863 0.032174 0.000000
0.032174 -0.014749 0.000000
0.000000 0.000000 0.000000
-0.000614 0.003293 0.000000
0.003293 0.002572 0.000000
0.000000 0.000000 0.000000
0.006742 0.011163 0.000000
0.011163 0.007807 0.000000
0.000000 0.000000 0.000000
0.008388 0.010191 0.000000
0.010191 0.012746 0.000000
0.000000 0.000000 0.000000
0.027018 0.016631 0.000000
0.016631 -0.004091 0.000000
0.000000 0.000000 0.000000
0.014174 0.020381 0.000000
0.020381 0.004145 0.000000
0.000000 0.000000 0.000000
0.024712 0.005106 0.000000
0.005106 -0.009352 0.000000
0.000000 0.000000 0.000000
-0.031714 0.025270 0.000000
0.025270 -0.001707 0.000000
0.000000 0.000000 0.000000
0.002390 0.000410 0.000000
0.000410 0.003990 0.000000
0.000000 0.000000 0.000000
-0.027955 -0.004879 0.000000
-0.004879 -0.000484 0.000000
0.000000 0.000000 0.000000
-0.000698 0.006146 0.000000
0.006146 0.001812 0.000000
0.000000 0.000000 0.000000
-0.028113 -0.008856 0.000000
-0.008856 -0.024709 0.000000
0.000000 0.000000 0.000000
0.006645 -0.006159 0.000000
-0.006159 -0.004875 0.000000
0.000000 0.000000 0.000000
-0.024651 -0.004131 0.000000
-0.004131 -0.035681 0.000000
0.000000 0.000000 0.000000
0.005000 -0.015098 0.000000
-0.015098 -0.000781 0.000000
0.000000 0.000000 0.000000
-0.020082 0.011184 0.000000
0.011184 -0.014309 0.000000
0.000000 0.000000 0.000000
0.006904 0.004087 0.000000
0.004087 -0.002599 0.000000
0.000000 0.000000 0.000000
-0.015917 -0.015281 0.000000
-0.015281 -0.016987 0.000000
0.000000 0.000000 0.000000
0.007409 -0.015695 0.000000
-0.015695 -0.000927 0.000000
0.000000 0.000000 0.000000
-0.022742 -0.010849 0.000000
-0.010849 -0.030994 0.000000
0.000000 0.000000 0.000000
0.001735 -0.009865 0.000000
-0.009865 -0.006715 0.000000
0.000000 0.000000 0.000000
0.009613 0.000427 0.000000
0.000427 0.010147 0.000000
0.000000 0.000000 0.000000
-0.002292 0.006241 0.000000
0.006241 0.005364 0.000000
0.000000 0.000000 0.000000
-0.016084 0.011330 0.000000
0.011330 -0.014690 0.000000
0.000000 0.000000 0.000000
-0.010400 0.003400 0.000000
0.003400 0.005055 0.000000
0.000000 0.000000 0.000000
0.005583 0.002137 0.000000
0.002137 0.017197 0.000000
0.000000 0.000000 0.000000
0.001541 -0.000026 0.000000
-0.000026 -0.010895 0.000000
0.000000 0.000000 0.000000
0.001497 0.000840 0.000000
0.000840 0.004387 0.000000
0.000000 0.000000 0.000000
0.000893 0.000386 0.000000
0.000386 -0.012811 0.000000
0.000000 0.000000 0.000000
-0.006427 0.009268 0.000000
0.009268 -0.005704 0.000000
0.000000 0.000000 0.000000
0.032646 -0.013396 0.000000
-0.013396 -0.032047 0.000000
0.000000 0.000000 0.000000
0.001591 -0.006528 0.000000
-0.006528 0.003184 0.000000
0.000000 0.000000 0.000000
0.036096 -0.007342 0.000000
-0.007342 -0.011832 0.000000
0.000000 0.000000 0.000000
0.011266 -0.008207 0.000000
-0.008207 -0.000890 0.000000
0.000000 0.000000 0.000000
-0.013774 0.001084 0.000000
0.001084 -0.003931 0.000000
0.000000 0.000000 0.000000
0.000510 -0.008406 0.000000
-0.008406 -0.013383 0.000000
0.000000 0.000000 0.000000
-0.008435 0.005551 0.000000
0.005551 -0.001214 0.000000
0.000000 0.000000 0.000000
0.001441 0.011092 0.000000
0.011092 -0.014214 0.000000
0.000000 0.000000 0.000000
0.004985 -0.008496 0.000000
-0.008496 -0.007358 0.000000
0.000000 0.000000 0.000000
-0.009625 -0.003397 0.000000
-0.003397 -0.015342 0.000000
0.000000 0.000000 0.000000
-0.002155 -0.019272 0.000000
-0.019272 -0.028927 0.000000
0.000000 0.000000 0.000000
0.008686 0.008544 0.000000
0.008544 0.009543 0.000000
0.000000 0.000000 0.000000
0.011853 0.004144 0.000000
0.004144 0.008141 0.000000
0.000000 0.000000 0.000000
0.015318 0.001713 0.000000
0.001713 0.004953 0.000000
0.000000 0.000000 0.000000
-0.014727 -0.005849 0.000000
-0.005849 0.001218 0.000000
0.000000 0.000000 0.000000
-0.004219 -0.020263 0.000000
-0.020263 -0.002699 0.000000
0.000000 0.000000 0.000000
-0.001869 0.003164 0.000000
0.003164 0.009882 0.000000
0.000000 0.000000 0.000000
-0.000603 -0.000447 0.000000
-0.000447 0.013124 0.000000
0.000000 0.000000 0.000000
-0.012857 -0.007740 0.000000
-0.007740 0.007033 0.000000
0.000000 0.000000 0.000000
0.001458 -0.000093 0.000000
-0.000093 0.010445 0.000000
0.000000 0.000000 0.000000
-0.008913 0.000709 0.000000
0.000709 -0.024026 0.000000
0.000000 0.000000 0.000000
0.001605 -0.006999 0.000000
-0.006999 -0.001872 0.000000
0.000000 0.000000 0.000000
-0.007733 -0.006509 0.000000
-0.006509 -0.004643 0.000000
0.000000 0.000000 0.000000
-0.028876 -0.013272 0.000000
-0.013272 -0.050776 0.000000
0.000000 0.000000 0.000000
-0.022509 -0.006923 0.000000
-0.006923 -0.005163 0.000000
0.000000 0.000000 0.000000
0.007084 -0.005293 0.000000
-0.005293 0.013085 0.000000
0.000000 0.000000 0.000000
0.005036 -0.001455 0.000000
-0.001455 0.015254 0.000000
0.000000 0.000000 0.000000
0.014457 0.013252 0.000000
0.013252 0.003061 0.000000
0.000000 0.000000 0.000000
-0.005408 0.006600 0.000000
0.006600 -0.006257 0.000000
0.000000 0.000000 0.000000
-0.003589 -0.006301 0.000000
-0.006301 0.000596 0.000000
0.000000 0.000000 0.000000
-0.008911 -0.002874 0.000000
-0.002874 -0.011861 0.000000
0.000000 0.000000 0.000000
-0.004593 0.014082 0.000000
0.014082 0.024668 0.000000
0.000000 0.000000 0.000000
0.002617 0.001034 0.000000
0.001034 0.026770 0.000000
0.000000 0.000000 0.000000
-0.020275 0.004846 0.000000
0.004846 -0.003313 0.000000
0.000000 0.000000 0.000000
-0.030560 0.017764 0.000000
0.017764 -0.037413 0.000000
0.000000 0.000000 0.000000
0.004732 0.002847 0.000000
0.002847 0.015763 0.000000
0.000000 0.000000 0.000000
-0.008601 0.005504 0.000000
0.005504 -0.028224 0.000000
0.000000 0.000000 0.000000
0.007243 0.009713 0.000000
0.009713 0.004377 0.000000
0.000000 0.000000 0.000000
0.005772 -0.003780 0.000000
-0.003780 -0.009788 0.000000
0.000000 0.000000 0.000000
-0.005243 0.008007 0.000000
0.008007 0.000536 0.000000
0.000000 0.000000 0.000000
0.022402 0.001894 0.000000
0.001894 -0.000909 0.000000
0.000000 0.000000 0.000000
-0.011016 -0.004429 0.000000
-0.004429 0.022406 0.000000
0.000000 0.000000 0.000000
0.002502 -0.007104 0.000000
-0.007104 0.003762 0.000000
0.000000 0.000000 0.000000
-0.021203 -0.003945 0.000000
-0.003945 -0.001453 0.000000
0.000000 0.000000 0.000000
0.039834 -0.032052 0.000000
-0.032052 0.024664 0.000000
0.000000 0.000000 0.000000
-0.004716 0.001653 0.000000
0.001653 -0.034284 0.000000
0.000000 0.000000 0.000000
-0.018360 -0.009017 0.000000
-0.009017 0.002580 0.000000
0.000000 0.000000 0.000000
0.016930 0.016091 0.000000
0.016091 0.007868 0.000000
0.000000 0.000000 0.000000
0.004050 -0.003570 0.000000
-0.003570 0.016850 0.000000
0.000000 0.000000 0.000000
0.007719 0.008149 0.000000
0.008149 0.000811 0.000000
0.000000 0.000000 0.000000
-0.011042 -0.007327 0.000000
-0.007327 0.005024 0.000000
0.000000 0.000000 0.000000
0.013468 0.004864 0.000000
0.004864 -0.010003 0.000000
0.000000 0.000000 0.000000
-0.034506 0.021736 0.000000
0.021736 -0.022254 0.000000
0.000000 0.000000 0.000000
-0.004821 -0.001516 0.000000
-0.001516 -0.020145 0.000000
0.000000 0.000000 0.000000
-0.012149 0.036464 0.000000
0.036464 0.005229 0.000000
0.000000 0.000000 0.000000
-0.012755 -0.007002 0.000000
-0.007002 -0.023460 0.000000
0.000000 0.000000 0.000000
0.007958 -0.005350 0.000000
-0.005350 0.005211 0.000000
0.000000 0.000000 0.000000
0.020024 0.005164 0.000000
0.005164 0.002139 0.000000
0.000000 0.000000 0.000000
0.004479 -0.007253 0.000000
-0.007253 0.006266 0.000000
0.000000 0.000000 0.000000
-0.012915 -0.013641 0.000000
-0.013641 0.000431 0.000000
0.000000 0.000000 0.000000
-0.000944 0.003531 0.000000
0.003531 0.000538 0.000000
0.000000 0.000000 0.000000
-0.008913 -0.000542 0.000000
-0.000542 -0.022239 0.000000
0.000000 0.000000 0.000000
0.017637 -0.050043 0.000000
-0.050043 0.006683 0.000000
0.000000 0.000000 0.000000
0.018135 -0.006423 0.000000
-0.006423 0.013485 0.000000
0.000000 0.000000 0.000000
0.004177 0.006153 0.000000
0.006153 0.008338 0.000000
0.000000 0.000000 0.000000
0.016017 0.003991 0.000000
0.003991 0.013641 0.000000
0.000000 0.000000 0.000000
0.015850 0.006868 0.000000
0.006868 0.012332 0.000000
0.000000 0.000000 0.000000
0.018839 0.026041 0.000000
0.026041 -0.009296 0.000000
0.000000 0.000000 0.000000
0.001088 -0.024359 0.000000
-0.024359 -0.007517 0.000000
0.000000 0.000000 0.000000
-0.001644 -0.013356 0.000000
-0.013356 -0.015524 0.000000
0.000000 0.000000 0.000000
0.016337 0.006678 0.000000
0.006678 -0.010071 0.000000
0.000000 0.000000 0.000000
-0.015211 0.001803 0.000000
0.001803 0.000680 0.000000
0.000000 0.000000 0.000000
0.014220 0.011265 0.000000
0.011265 -0.000665 0.000000
0.000000 0.000000 0.000000
0.004411 -0.000448 0.000000
-0.000448 0.018711 0.000000
0.000000 0.000000 0.000000
-0.010641 0.001096 0.000000
0.001096 -0.031962 0.000000
0.000000 0.000000 0.000000
-0.001822 0.000976 0.000000
0.000976 -0.003407 0.000000
0.000000 0.000000 0.000000
0.003473 0.000037 0.000000
0.000037 -0.001923 0.000000
0.000000 0.000000 0.000000
0.010478 -0.001996 0.000000
-0.001996 0.000529 0.000000
0.000000 0.000000 0.000000
0.008106 0.003092 0.000000
0.003092 0.008560 0.000000
0.000000 0.000000 0.000000
0.000711 0.006491 0.000000
0.006491 -0.039890 0.000000
0.000000 0.000000 0.000000
0.012764 0.004359 0.000000
0.004359 -0.016620 0.000000
0.000000 0.000000 0.000000
-0.000487 0.009414 0.000000
0.009414 -0.000845 0.000000
0.000000 0.000000 0.000000
-0.017695 -0.013424 0.000000
-0.013424 0.000058 0.000000
0.000000 0.000000 0.000000
-0.000739 0.001650 0.000000
0.001650 -0.003349 0.000000
0.000000 0.000000 0.000000
-0.026138 -0.004810 0.000000
-0.004810 0.018153 0.000000
0.000000 0.000000 0.000000
0.000032 -0.000378 0.000000
-0.000378 0.004044 0.000000
0.000000 0.000000 0.000000
0.000791 -0.005834 0.000000
-0.005834 0.004077 0.000000
0.000000 0.000000 0.000000
0.002577 0.001623 0.000000
0.001623 0.009568 0.000000
0.000000 0.000000 0.000000
-0.007784 0.002518 0.000000
0.002518 -0.024882 0.000000
0.000000 0.000000 0.000000
0.012715 -0.013483 0.000000
-0.013483 -0.019597 0.000000
0.000000 0.000000 0.000000
0.018983 -0.007125 0.000000
-0.007125 0.002019 0.000000
0.000000 0.000000 0.000000
-0.012372 -0.002444 0.000000
-0.002444 -0.008269 0.000000
0.000000 0.000000 0.000000
-0.003614 0.004270 0.000000
0.004270 0.002688 0.000000
0.000000 0.000000 0.000000
-0.012846 -0.010442 0.000000
-0.010442 -0.012541 0.000000
0.000000 0.000000 0.000000
0.000272 0.000305 0.000000
0.000305 0.011454 0.000000
0.000000 0.000000 0.000000
-0.016142 -0.001977 0.000000
-0.001977 -0.017465 0.000000
0.000000 0.000000 0.000000
-0.000561 -0.003461 0.000000
-0.003461 -0.015817 0.000000
0.000000 0.000000 0.000000
-0.007404 0.000008 0.000000
0.000008 -0.006894 0.000000
0.000000 0.000000 0.000000
-0.014755 -0.007564 0.000000
-0.007564 -0.005955 0.000000
0.000000 0.000000 0.000000
-0.009428 0.005875 0.000000
0.005875 -0.036191 0.000000
0.000000 0.000000 0.000000
-0.000005 -0.001370 0.000000
-0.001370 0.000708 0.000000
0.000000 0.000000 0.000000
0.001306 -0.004929 0.000000
-0.004929 -0.000108 0.000000
0.000000 0.000000 0.000000
-0.000236 0.001050 0.000000
0.001050 0.000656 0.000000
0.000000 0.000000 0.000000
0.004336 -0.003970 0.000000
-0.003970 0.005352 0.000000
0.000000 0.000000 0.000000
0.008136 -0.009732 0.000000
-0.009732 0.013119 0.000000
0.000000 0.000000 0.000000
-0.011785 -0.014013 0.000000
-0.014013 0.001621 0.000000
0.000000 0.000000 0.000000
-0.005499 -0.008226 0.000000
-0.008226 -0.011320 0.000000
0.000000 0.000000 0.000000
0.002174 0.000428 0.000000
0.000428 0.006074 0.000000
0.000000 0.000000 0.000000
-0.000995 -0.002029 0.000000
-0.002029 0.006032 0.000000
0.000000 0.000000 0.000000
0.003181 -0.024810 0.000000
-0.024810 -0.006968 0.000000
0.000000 0.000000 0.000000
-0.003158 -0.013259 0.000000
-0.013259 0.000289 0.000000
0.000000 0.000000 0.000000
-0.008935 -0.014511 0.000000
-0.014511 -0.021343 0.000000
0.000000 0.000000 0.000000
-0.006244 -0.000792 0.000000
-0.000792 -0.006065 0.000000
0.000000 0.000000 0.000000
0.002182 -0.002848 0.000000
-0.002848 -0.003427 0.000000
0.000000 0.000000 0.000000
-0.006579 0.005754 0.000000
0.005754 -0.007172 0.000000
0.000000 0.000000 0.000000
0.016428 0.012159 0.000000
0.012159 0.023291 0.000000
0.000000 0.000000 0.000000
-0.003206 -0.003054 0.000000
-0.003054 0.017652 0.000000
0.000000 0.000000 0.000000
0.035233 -0.007034 0.000000
-0.007034 0.048856 0.000000
0.000000 0.000000 0.000000
-0.000689 -0.000764 0.000000
-0.000764 0.007733 0.000000
0.000000 0.000000 0.000000
-0.010315 -0.001485 0.000000
-0.001485 -0.024321 0.000000
0.000000 0.000000 0.000000
-0.010784 0.004757 0.000000
0.004757 -0.008751 0.000000
0.000000 0.000000 0.000000
-0.037520 -0.023395 0.000000
-0.023395 -0.012071 0.000000
0.000000 0.000000 0.000000
-0.024843 -0.016664 0.000000
-0.016664 0.029503 0.000000
0.000000 0.000000 0.000000
-0.004790 -0.003591 0.000000
-0.003591 -0.010513 0.000000
0.000000 0.000000 0.000000
0.001323 0.001827 0.000000
0.001827 0.000178 0.000000
0.000000 0.000000 0.000000
-0.015732 -0.013495 0.000000
-0.013495 -0.012231 0.000000
0.000000 0.000000 0.000000
-0.009226 -0.003246 0.000000
-0.003246 -0.021871 0.000000
0.000000 0.000000 0.000000
-0.008919 -0.022007 0.000000
-0.022007 0.001503 0.000000
0.000000 0.000000 0.000000
-0.016199 -0.000637 0.000000
-0.000637 -0.026614 0.000000
0.000000 0.000000 0.000000
-0.002661 0.004026 0.000000
0.004026 -0.006815 0.000000
0.000000 0.000000 0.000000
-0.000258 -0.003181 0.000000
-0.003181 -0.021465 0.000000
0.000000 0.000000 0.000000
-0.019870 -0.008096 0.000000
-0.008096 -0.019100 0.000000
0.000000 0.000000 0.000000
-0.001916 0.011246 0.000000
0.011246 0.003514 0.000000
0.000000 0.000000 0.000000
0.005699 0.006508 0.000000
0.006508 -0.001495 0.000000
0.000000 0.000000 0.000000
0.013791 -0.003998 0.000000
-0.003998 0.003250 0.000000
0.000000 0.000000 0.000000
-0.024844 -0.010467 0.000000
-0.010467 -0.009396 0.000000
0.000000 0.000000 0.000000
-0.002527 -0.018495 0.000000
-0.018495 0.000508 0.000000
0.000000 0.000000 0.000000
0.004931 -0.003352 0.000000
-0.003352 -0.001783 0.000000
0.000000 0.000000 0.000000
0.008883 0.004304 0.000000
0.004304 0.013429 0.000000
0.000000 0.000000 0.000000
-0.000245 0.003466 0.000000
0.003466 -0.008538 0.000000
0.000000 0.000000 0.000000
-0.000807 0.002851 0.000000
0.002851 -0.008755 0.000000
0.000000 0.000000 0.000000
-0.003224 0.006693 0.000000
0.006693 -0.012458 0.000000
0.000000 0.000000 0.000000
-0.013108 -0.006101 0.000000
-0.006101 -0.020070 0.000000
0.000000 0.000000 0.000000
0.006547 0.007963 0.000000
0.007963 0.017890 0.000000
0.000000 0.000000 0.000000
0.009342 -0.004031 0.000000
-0.004031 0.002003 0.000000
0.000000 0.000000 0.000000
0.039899 -0.032505 0.000000
-0.032505 0.019325 0.000000
0.000000 0.000000 0.000000
0.011423 0.000521 0.000000
0.000521 0.010544 0.000000
0.000000 0.000000 0.000000
0.001418 0.003989 0.000000
0.003989 0.001991 0.000000
0.000000 0.000000 0.000000
-0.013566 -0.010330 0.000000
-0.010330 -0.000374 0.000000
0.000000 0.000000 0.000000
-0.003612 0.007846 0.000000
0.007846 0.025804 0.000000
0.000000 0.000000 0.000000
-0.002720 -0.000796 0.000000
-0.000796 0.011172 0.000000
0.000000 0.000000 0.000000
-0.003073 0.000493 0.000000
0.000493 -0.013709 0.000000
0.000000 0.000000 0.000000
0.004152 -0.001599 0.000000
-0.001599 0.005733 0.000000
0.000000 0.000000 0.000000
-0.009719 -0.002452 0.000000
-0.002452 0.018120 0.000000
0.000000 0.000000 0.000000
0.006396 0.004202 0.000000
0.004202 0.023570 0.000000
0.000000 0.000000 0.000000
-0.034507 -0.027338 0.000000
-0.027338 -0.024353 0.000000
0.000000 0.000000 0.000000
-0.026923 -0.052716 0.000000
-0.052716 -0.007157 0.000000
0.000000 0.000000 0.000000
0.000603 -0.005969 0.000000
-0.005969 -0.005254 0.000000
0.000000 0.000000 0.000000
0.001702 -0.003395 0.000000
-0.003395 -0.025020 0.000000
0.000000 0.000000 0.000000
0.033242 -0.004558 0.000000
-0.004558 -0.023729 0.000000
0.000000 0.000000 0.000000
0.023308 -0.019727 0.000000
-0.019727 0.035110 0.000000
0.000000 0.000000 0.000000
-0.003036 -0.003736 0.000000
-0.003736 0.018844 0.000000
0.000000 0.000000 0.000000
-0.013723 -0.000727 0.000000
-0.000727 -0.032270 0.000000
0.000000 0.000000 0.000000
-0.004372 -0.008035 0.000000
-0.008035 -0.011461 0.000000
0.000000 0.000000 0.000000
-0.008329 0.004663 0.000000
0.004663 -0.020945 0.000000
0.000000 0.000000 0.000000
-0.008160 0.007384 0.000000
0.007384 -0.014839 0.000000
0.000000 0.000000 0.000000
0.000700 -0.010924 0.000000
-0.010924 -0.020550 0.000000
0.000000 0.000000 0.000000
-0.020469 -0.008847 0.000000
-0.008847 0.014722 0.000000
0.000000 0.000000 0.000000
0.012171 0.004766 0.000000
0.004766 0.017685 0.000000
0.000000 0.000000 0.000000
-0.001692 -0.007068 0.000000
-0.007068 -0.014573 0.000000
0.000000 0.000000 0.000000
-0.004750 -0.005117 0.000000
-0.005117 -0.020530 0.000000
0.000000 0.000000 0.000000
-0.002820 -0.001952 0.000000
-0.001952 -0.025289 0.000000
0.000000 0.000000 0.000000
-0.003586 -0.003926 0.000000
-0.003926 -0.006480 0.000000
0.000000 0.000000 0.000000
0.001838 -0.005527 0.000000
-0.005527 0.011915 0.000000
0.000000 0.000000 0.000000
0.004775 -0.005067 0.000000
-0.005067 0.011615 0.000000
0.000000 0.000000 0.000000
-0.006559 -0.002382 0.000000
-0.002382 0.008274 0.000000
0.000000 0.000000 0.000000
-0.005542 -0.002081 0.000000
-0.002081 0.002165 0.000000
0.000000 0.000000 0.000000
0.042269 0.017488 0.000000
0.017488 -0.005109 0.000000
0.000000 0.000000 0.000000
0.076002 0.004330 0.000000
0.004330 0.001461 0.000000
0.000000 0.000000 0.000000
0.039872 -0.006049 0.000000
-0.006049 0.021958 0.000000
0.000000 0.000000 0.000000
0.035022 -0.002355 0.000000
-0.002355 0.031658 0.000000
0.000000 0.000000 0.000000
-0.024462 -0.012309 0.000000
-0.012309 -0.017246 0.000000
0.000000 0.000000 0.000000
0.008965 0.005061 0.000000
0.005061 0.001101 0.000000
0.000000 0.000000 0.000000
-0.022354 0.009077 0.000000
0.009077 -0.031117 0.000000
0.000000 0.000000 0.000000
-0.006548 0.009690 0.000000
0.009690 0.000724 0.000000
0.000000 0.000000 0.000000
0.002808 -0.002490 0.000000
-0.002490 0.020600 0.000000
0.000000 0.000000 0.000000
-0.006460 0.004429 0.000000
0.004429 -0.021426 0.000000
0.000000 0.000000 0.000000
-0.006491 0.004029 0.000000
0.004029 -0.023225 0.000000
0.000000 0.000000 0.000000
0.005130 0.015210 0.000000
0.015210 0.008923 0.000000
0.000000 0.000000 0.000000
0.018504 -0.000505 0.000000
-0.000505 0.012052 0.000000
0.000000 0.000000 0.000000
-0.009989 0.005042 0.000000
0.005042 -0.016411 0.000000
0.000000 0.000000 0.000000
-0.005713 0.001834 0.000000
0.001834 -0.009385 0.000000
0.000000 0.000000 0.000000
-0.000373 -0.006254 0.000000
-0.006254 -0.002124 0.000000
0.000000 0.000000 0.000000
0.009288 0.000908 0.000000
0.000908 0.002850 0.000000
0.000000 0.000000 0.000000
-0.008670 -0.014477 0.000000
-0.014477 -0.013929 0.000000
0.000000 0.000000 0.000000
-0.016691 0.015795 0.000000
0.015795 -0.023004 0.000000
0.000000 0.000000 0.000000
-0.004200 0.004571 0.000000
0.004571 0.004746 0.000000
0.000000 0.000000 0.000000
-0.005005 -0.004165 0.000000
-0.004165 -0.004984 0.000000
0.000000 0.000000 0.000000
0.011530 0.016310 0.000000
0.016310 0.028387 0.000000
0.000000 0.000000 0.000000
-0.001125 0.004824 0.000000
0.004824 -0.003312 0.000000
0.000000 0.000000 0.000000
-0.008584 -0.003182 0.000000
-0.003182 -0.020523 0.000000
0.000000 0.000000 0.000000
0.007928 -0.010256 0.000000
-0.010256 0.019049 0.000000
0.000000 0.000000 0.000000
0.028043 -0.039661 0.000000
-0.039661 0.016803 0.000000
0.000000 0.000000 0.000000
0.009547 0.003195 0.000000
0.003195 0.000001 0.000000
0.000000 0.000000 0.000000
0.016536 0.004298 0.000000
0.004298 -0.012151 0.000000
0.000000 0.000000 0.000000
0.020325 0.002820 0.000000
0.002820 -0.000656 0.000000
0.000000 0.000000 0.000000
-0.007647 -0.002314 0.000000
-0.002314 0.004125 0.000000
0.000000 0.000000 0.000000
-0.004215 0.000251 0.000000
0.000251 0.004518 0.000000
0.000000 0.000000 0.000000
-0.003245 -0.000591 0.000000
-0.000591 0.006824 0.000000
0.000000 0.000000 0.000000
0.005504 0.002781 0.000000
0.002781 -0.001062 0.000000
0.000000 0.000000 0.000000
-0.041419 0.001751 0.000000
0.001751 0.002730 0.000000
0.000000 0.000000 0.000000
0.002520 0.004603 0.000000
0.004603 0.016139 0.000000
0.000000 0.000000 0.000000
-0.001969 -0.016715 0.000000
-0.016715 0.015287 0.000000
0.000000 0.000000 0.000000
-0.001046 0.002662 0.000000
0.002662 0.002233 0.000000
0.000000 0.000000 0.000000
-0.001473 -0.003033 0.000000
-0.003033 -0.001071 0.000000
0.000000 0.000000 0.000000
-0.010792 0.008890 0.000000
0.008890 -0.015304 0.000000
0.000000 0.000000 0.000000
0.003172 0.002565 0.000000
0.002565 0.011629 0.000000
0.000000 0.000000 0.000000
0.014167 -0.007080 0.000000
-0.007080 0.014192 0.000000
0.000000 0.000000 0.000000
-0.031430 -0.007991 0.000000
-0.007991 0.000413 0.000000
0.000000 0.000000 0.000000
0.002986 -0.000720 0.000000
-0.000720 0.023535 0.000000
0.000000 0.000000 0.000000
-0.016936 0.015640 0.000000
0.015640 -0.015612 0.000000
0.000000 0.000000 0.000000
-0.009484 0.010916 0.000000
0.010916 -0.017525 0.000000
0.000000 0.000000 0.000000
0.008941 0.000847 0.000000
0.000847 0.003575 0.000000
0.000000 0.000000 0.000000
0.004636 0.005223 0.000000
0.005223 -0.004864 0.000000
0.000000 0.000000 0.000000
-0.007096 0.003669 0.000000
0.003669 -0.007172 0.000000
0.000000 0.000000 0.000000
0.002003 -0.000145 0.000000
-0.000145 0.008018 0.000000
0.000000 0.000000 0.000000
-0.006459 0.005167 0.000000
0.005167 -0.014517 0.000000
0.000000 0.000000 0.000000
0.007307 0.012217 0.000000
0.012217 -0.011674 0.000000
0.000000 0.000000 0.000000
-0.017013 -0.003787 0.000000
-0.003787 -0.006383 0.000000
0.000000 0.000000 0.000000
0.029894 0.005947 0.000000
0.005947 0.001498 0.000000
0.000000 0.000000 0.000000
-0.003883 0.002625 0.000000
0.002625 -0.000084 0.000000
0.000000 0.000000 0.000000
-0.001923 -0.000196 0.000000
-0.000196 -0.000848 0.000000
0.000000 0.000000 0.000000
-0.016680 -0.003513 0.000000
-0.003513 -0.005972 0.000000
0.000000 0.000000 0.000000
-0.006806 -0.010244 0.000000
-0.010244 -0.018460 0.000000
0.000000 0.000000 0.000000
0.001872 -0.001269 0.000000
-0.001269 0.000848 0.000000
0.000000 0.000000 0.000000
-0.003890 0.005119 0.000000
0.005119 0.002319 0.000000
0.000000 0.000000 0.000000
-0.010031 0.000716 0.000000
0.000716 -0.017129 0.000000
0.000000 0.000000 0.000000
-0.018439 0.000782 0.000000
0.000782 0.018521 0.000000
0.000000 0.000000 0.000000
-0.004744 0.005063 0.000000
0.005063 0.023324 0.000000
0.000000 0.000000 0.000000
0.005805 0.012663 0.000000
0.012663 0.024201 0.000000
0.000000 0.000000 0.000000
-0.001265 0.017358 0.000000
0.017358 -0.005337 0.000000
0.000000 0.000000 0.000000
-0.017784 -0.000458 0.000000
-0.000458 0.032106 0.000000
0.000000 0.000000 0.000000
-0.010555 -0.012213 0.000000
-0.012213 0.014559 0.000000
0.000000 0.000000 0.000000
-0.007106 0.015375 0.000000
0.015375 -0.025748 0.000000
0.000000 0.000000 0.000000
0.012682 -0.010000 0.000000
-0.010000 0.007505 0.000000
0.000000 0.000000 0.000000
-0.005655 0.001934 0.000000
0.001934 -0.023568 0.000000
0.000000 0.000000 0.000000
0.005049 -0.006639 0.000000
-0.006639 0.007696 0.000000
0.000000 0.000000 0.000000
0.007495 -0.013928 0.000000
-0.013928 0.015996 0.000000
0.000000 0.000000 0.000000
-0.000748 0.001367 0.000000
0.001367 0.052825 0.000000
0.000000 0.000000 0.000000
0.003644 -0.017535 0.000000
-0.017535 -0.008399 0.000000
0.000000 0.000000 0.000000
-0.000980 -0.003923 0.000000
-0.003923 -0.007085 0.000000
0.000000 0.000000 0.000000
0.011507 0.004447 0.000000
0.004447 0.023273 0.000000
0.000000 0.000000 0.000000
-0.000289 0.007236 0.000000
0.007236 0.019370 0.000000
0.000000 0.000000 0.000000
0.005647 -0.003201 0.000000
-0.003201 0.009708 0.000000
0.000000 0.000000 0.000000
0.007811 0.003143 0.000000
0.003143 0.008054 0.000000
0.000000 0.000000 0.000000
0.002775 -0.005085 0.000000
-0.005085 -0.010774 0.000000
0.000000 0.000000 0.000000
-0.002665 0.002180 0.000000
0.002180 0.001468 0.000000
0.000000 0.000000 0.000000
0.016757 0.012757 0.000000
0.012757 -0.026245 0.000000
0.000000 0.000000 0.000000
0.021135 0.005506 0.000000
0.005506 0.016887 0.000000
0.000000 0.000000 0.000000
-0.008300 0.000018 0.000000
0.000018 -0.008700 0.000000
0.000000 0.000000 0.000000
0.006698 0.001578 0.000000
0.001578 -0.004717 0.000000
0.000000 0.000000 0.000000
-0.010146 0.004474 0.000000
0.004474 -0.002118 0.000000
0.000000 0.000000 0.000000
-0.005248 0.006752 0.000000
0.006752 0.000674 0.000000
0.000000 0.000000 0.000000
-0.009547 0.002009 0.000000
0.002009 -0.003061 0.000000
0.000000 0.000000 0.000000
-0.018832 0.004065 0.000000
0.004065 -0.040502 0.000000
0.000000 0.000000 0.000000
-0.029897 -0.005024 0.000000
-0.005024 -0.010782 0.000000
0.000000 0.000000 0.000000
-0.040233 -0.007496 0.000000
-0.007496 -0.023284 0.000000
0.000000 0.000000 0.000000
-0.026765 -0.010632 0.000000
-0.010632 0.024025 0.000000
0.000000 0.000000 0.000000
-0.000668 -0.014821 0.000000
-0.014821 -0.014561 0.000000
0.000000 0.000000 0.000000
-0.001918 -0.006120 0.000000
-0.006120 -0.008992 0.000000
0.000000 0.000000 0.000000
-0.006524 0.000057 0.000000
0.000057 -0.004874 0.000000
0.000000 0.000000 0.000000
0.004397 -0.000021 0.000000
-0.000021 -0.002308 0.000000
0.000000 0.000000 0.000000
-0.023816 -0.008461 0.000000
-0.008461 0.012928 0.000000
0.000000 0.000000 0.000000
0.000089 0.011921 0.000000
0.011921 0.003215 0.000000
0.000000 0.000000 0.000000
-0.037724 0.014655 0.000000
0.014655 -0.045513 0.000000
0.000000 0.000000 0.000000
0.005576 0.010342 0.000000
0.010342 0.021649 0.000000
0.000000 0.000000 0.000000
-0.027053 0.018343 0.000000
0.018343 0.002596 0.000000
0.000000 0.000000 0.000000
-0.008510 -0.003539 0.000000
-0.003539 -0.007361 0.000000
0.000000 0.000000 0.000000
-0.013936 -0.014870 0.000000
-0.014870 -0.001240 0.000000
0.000000 0.000000 0.000000
-0.010929 -0.005491 0.000000
-0.005491 -0.013568 0.000000
0.000000 0.000000 0.000000
-0.015382 -0.001974 0.000000
-0.001974 -0.025307 0.000000
0.000000 0.000000 0.000000
0.019124 0.008983 0.000000
0.008983 -0.010078 0.000000
0.000000 0.000000 0.000000
-0.005077 -0.021173 0.000000
-0.021173 -0.006960 0.000000
0.000000 0.000000 0.000000
0.028077 0.011629 0.000000
0.011629 -0.004147 0.000000
0.000000 0.000000 0.000000
-0.001879 0.002785 0.000000
0.002785 0.007865 0.000000
0.000000 0.000000 0.000000
-0.025266 0.002338 0.000000
0.002338 -0.026939 0.000000
0.000000 0.000000 0.000000
-0.002256 0.004558 0.000000
0.004558 -0.020787 0.000000
0.000000 0.000000 0.000000
-0.016453 -0.009402 0.000000
-0.009402 0.025111 0.000000
0.000000 0.000000 0.000000
0.002221 0.000245 0.000000
0.000245 -0.007013 0.000000
0.000000 0.000000 0.000000
0.003493 -0.000360 0.000000
-0.000360 -0.006450 0.000000
0.000000 0.000000 0.000000
-0.001089 -0.000638 0.000000
-0.000638 -0.005562 0.000000
0.000000 0.000000 0.000000
-0.009376 -0.048746 0.000000
-0.048746 0.019960 0.000000
0.000000 0.000000 0.000000
-0.001846 -0.026519 0.000000
-0.026519 0.020465 0.000000
0.000000 0.000000 0.000000
0.031357 -0.038491 0.000000
-0.038491 0.007168 0.000000
0.000000 0.000000 0.000000
0.000133 0.002490 0.000000
0.002490 -0.002113 0.000000
0.000000 0.000000 0.000000
0.009119 0.005094 0.000000
0.005094 0.031374 0.000000
0.000000 0.000000 0.000000
-0.001271 0.000602 0.000000
0.000602 0.012419 0.000000
0.000000 0.000000 0.000000
0.005539 -0.003033 0.000000
-0.003033 0.001154 0.000000
0.000000 0.000000 0.000000
-0.021715 0.005582 0.000000
0.005582 -0.015648 0.000000
0.000000 0.000000 0.000000
0.004089 0.014626 0.000000
0.014626 0.005602 0.000000
0.000000 0.000000 0.000000
0.006034 0.001695 0.000000
0.001695 0.007522 0.000000
0.000000 0.000000 0.000000
-0.004779 0.000347 0.000000
0.000347 0.004016 0.000000
0.000000 0.000000 0.000000
-0.014622 0.008669 0.000000
0.008669 -0.006456 0.000000
0.000000 0.000000 0.000000
0.004449 -0.004855 0.000000
-0.004855 0.046486 0.000000
0.000000 0.000000 0.000000
-0.005711 0.005375 0.000000
0.005375 -0.017053 0.000000
0.000000 0.000000 0.000000
0.003136 -0.027936 0.000000
-0.027936 -0.008258 0.000000
0.000000 0.000000 0.000000
0.002049 -0.002695 0.000000
-0.002695 0.015534 0.000000
0.000000 0.000000 0.000000
0.020561 -0.002055 0.000000
-0.002055 0.025955 0.000000
0.000000 0.000000 0.000000
-0.006995 0.001523 0.000000
0.001523 -0.006779 0.000000
0.000000 0.000000 0.000000
-0.011976 0.006459 0.000000
0.006459 -0.013630 0.000000
0.000000 0.000000 0.000000
-0.004587 0.000964 0.000000
0.000964 -0.005921 0.000000
0.000000 0.000000 0.000000
0.005251 0.005817 0.000000
0.005817 -0.004927 0.000000
0.000000 0.000000 0.000000
-0.011629 -0.003406 0.000000
-0.003406 -0.007107 0.000000
0.000000 0.000000 0.000000
0.008572 -0.001678 0.000000
-0.001678 0.006077 0.000000
0.000000 0.000000 0.000000
0.013829 -0.000645 0.000000
-0.000645 0.023250 0.000000
0.000000 0.000000 0.000000
-0.004239 -0.007113 0.000000
-0.007113 -0.011199 0.000000
0.000000 0.000000 0.000000
-0.001641 -0.005520 0.000000
-0.005520 0.002809 0.000000
0.000000 0.000000 0.000000
0.018335 -0.007022 0.000000
-0.007022 0.015208 0.000000
0.000000 0.000000 0.000000
-0.014068 0.004107 0.000000
0.004107 -0.011513 0.000000
0.000000 0.000000 0.000000
0.009774 0.008443 0.000000
0.008443 0.012529 0.000000
0.000000 0.000000 0.000000
0.019080 0.004829 0.000000
0.004829 0.018173 0.000000
0.000000 0.000000 0.000000
-0.006478 -0.007048 0.000000
-0.007048 0.001611 0.000000
0.000000 0.000000 0.000000
0.000640 0.000398 0.000000
0.000398 0.001995 0.000000
0.000000 0.000000 0.000000
-0.004882 -0.000460 0.000000
-0.000460 0.006130 0.000000
0.000000 0.000000 0.000000
-0.006170 -0.006541 0.000000
-0.006541 -0.006981 0.000000
0.000000 0.000000 0.000000
0.008519 -0.002702 0.000000
-0.002702 -0.020002 0.000000
0.000000 0.000000 0.000000
0.024031 -0.001155 0.000000
-0.001155 -0.016953 0.000000
0.000000 0.000000 0.000000
0.006419 0.002884 0.000000
0.002884 -0.001756 0.000000
0.000000 0.000000 0.000000
-0.002403 0.001154 0.000000
0.001154 -0.004963 0.000000
0.000000 0.000000 0.000000
0.016325 0.004952 0.000000
0.004952 0.028485 0.000000
0.000000 0.000000 0.000000
-0.007118 -0.000677 0.000000
-0.000677 -0.001408 0.000000
0.000000 0.000000 0.000000
0.012702 0.010106 0.000000
0.010106 0.018793 0.000000
0.000000 0.000000 0.000000
0.019183 -0.000974 0.000000
-0.000974 -0.000906 0.000000
0.000000 0.000000 0.000000
-0.001070 0.014576 0.000000
0.014576 0.020566 0.000000
0.000000 0.000000 0.000000
0.008591 0.009205 0.000000
0.009205 -0.023739 0.000000
0.000000 0.000000 0.000000
0.009921 0.000670 0.000000
0.000670 0.008322 0.000000
0.000000 0.000000 0.000000
-0.006010 0.009659 0.000000
0.009659 -0.008931 0.000000
0.000000 0.000000 0.000000
-0.001077 -0.000646 0.000000
-0.000646 0.000359 0.000000
0.000000 0.000000 0.000000
-0.002015 -0.004299 0.000000
-0.004299 -0.008286 0.000000
0.000000 0.000000 0.000000
-0.005065 -0.003405 0.000000
-0.003405 -0.008831 0.000000
0.000000 0.000000 0.000000
-0.001981 0.009765 0.000000
0.009765 -0.026942 0.000000
0.000000 0.000000 0.000000
0.021645 -0.024563 0.000000
-0.024563 -0.007437 0.000000
0.000000 0.000000 0.000000
0.024034 -0.014677 0.000000
-0.014677 0.019681 0.000000
0.000000 0.000000 0.000000
0.019698 -0.023108 0.000000
-0.023108 -0.010020 0.000000
0.000000 0.000000 0.000000
-0.002419 0.005794 0.000000
0.005794 -0.003071 0.000000
0.000000 0.000000 0.000000
0.002566 0.033448 0.000000
0.033448 -0.014947 0.000000
0.000000 0.000000 0.000000
-0.028165 0.003025 0.000000
0.003025 -0.029283 0.000000
0.000000 0.000000 0.000000
0.003122 0.001128 0.000000
0.001128 0.008295 0.000000
0.000000 0.000000 0.000000
-0.005100 -0.005298 0.000000
-0.005298 -0.022467 0.000000
0.000000 0.000000 0.000000
0.059364 -0.010358 0.000000
-0.010358 -0.036451 0.000000
0.000000 0.000000 0.000000
0.002911 -0.000327 0.000000
-0.000327 0.000277 0.000000
0.000000 0.000000 0.000000
0.002829 -0.003130 0.000000
-0.003130 -0.005477 0.000000
0.000000 0.000000 0.000000
0.010484 0.011854 0.000000
0.011854 0.022943 0.000000
0.000000 0.000000 0.000000
0.006556 -0.005496 0.000000
-0.005496 0.004599 0.000000
0.000000 0.000000 0.000000
-0.000220 -0.001109 0.000000
-0.001109 0.008576 0.000000
0.000000 0.000000 0.000000
0.007298 0.003303 0.000000
0.003303 0.009372 0.000000
0.000000 0.000000 0.000000
0.008271 -0.004652 0.000000
-0.004652 0.004978 0.000000
0.000000 0.000000 0.000000
0.007238 0.009603 0.000000
0.009603 0.017274 0.000000
0.000000 0.000000 0.000000
-0.000821 0.005758 0.000000
0.005758 0.013676 0.000000
0.000000 0.000000 0.000000
-0.007927 0.009139 0.000000
0.009139 0.012844 0.000000
0.000000 0.000000 0.000000
0.009499 0.002406 0.000000
0.002406 0.018375 0.000000
0.000000 0.000000 0.000000
0.007398 -0.003466 0.000000
-0.003466 0.023995 0.000000
0.000000 0.000000 0.000000
-0.013150 0.005781 0.000000
0.005781 -0.007024 0.000000
0.000000 0.000000 0.000000
-0.021468 0.029064 0.000000
0.029064 -0.042519 0.000000
0.000000 0.000000 0.000000
-0.009099 0.020173 0.000000
0.020173 0.014440 0.000000
0.000000 0.000000 0.000000
-0.002845 -0.008526 0.000000
-0.008526 -0.005198 0.000000
0.000000 0.000000 0.000000
-0.010667 -0.002039 0.000000
-0.002039 0.003510 0.000000
0.000000 0.000000 0.000000
-0.003411 -0.008917 0.000000
-0.008917 0.004022 0.000000
0.000000 0.000000 0.000000
-0.002431 -0.008974 0.000000
-0.008974 -0.006260 0.000000
0.000000 0.000000 0.000000
-0.007860 0.005095 0.000000
0.005095 0.004219 0.000000
0.000000 0.000000 0.000000
-0.007849 0.012426 0.000000
0.012426 -0.009753 0.000000
0.000000 0.000000 0.000000
0.010001 -0.004417 0.000000
-0.004417 0.010095 0.000000
0.000000 0.000000 0.000000
0.008855 0.002218 0.000000
0.002218 -0.020565 0.000000
0.000000 0.000000 0.000000
-0.034520 0.038267 0.000000
0.038267 0.014853 0.000000
0.000000 0.000000 0.000000
0.010658 0.000693 0.000000
0.000693 -0.018426 0.000000
0.000000 0.000000 0.000000
-0.033809 -0.010265 0.000000
-0.010265 -0.063099 0.000000
0.000000 0.000000 0.000000
-0.022228 -0.003032 0.000000
-0.003032 0.002286 0.000000
0.000000 0.000000 0.000000
-0.039739 0.014322 0.000000
0.014322 -0.026445 0.000000
0.000000 0.000000 0.000000
0.008889 -0.003950 0.000000
-0.003950 0.010799 0.000000
0.000000 0.000000 0.000000
-0.036025 -0.011649 0.000000
-0.011649 -0.014163 0.000000
0.000000 0.000000 0.000000
0.000310 0.002177 0.000000
0.002177 0.012978 0.000000
0.000000 0.000000 0.000000
-0.000811 0.002878 0.000000
0.002878 0.009911 0.000000
0.000000 0.000000 0.000000
-0.003425 -0.029213 0.000000
-0.029213 -0.003171 0.000000
0.000000 0.000000 0.000000
0.000414 0.001927 0.000000
0.001927 -0.003819 0.000000
0.000000 0.000000 0.000000
0.001788 0.004567 0.000000
0.004567 0.000955 0.000000
0.000000 0.000000 0.000000
-0.001522 0.003385 0.000000
0.003385 0.006545 0.000000
0.000000 0.000000 0.000000
-0.006700 -0.004241 0.000000
-0.004241 -0.012221 0.000000
0.000000 0.000000 0.000000
0.017895 -0.004447 0.000000
-0.004447 0.012255 0.000000
0.000000 0.000000 0.000000
0.004713 -0.008120 0.000000
-0.008120 -0.000815 0.000000
0.000000 0.000000 0.000000
-0.002299 -0.007741 0.000000
-0.007741 -0.000414 0.000000
0.000000 0.000000 0.000000
0.016179 0.003326 0.000000
0.003326 0.014080 0.000000
0.000000 0.000000 0.000000
-0.007966 0.006688 0.000000
0.006688 0.002986 0.000000
0.000000 0.000000 0.000000
0.002501 -0.009796 0.000000
-0.009796 -0.008768 0.000000
0.000000 0.000000 0.000000
-0.019166 -0.002216 0.000000
-0.002216 -0.019000 0.000000
0.000000 0.000000 0.000000
0.005862 0.007143 0.000000
0.007143 0.018256 0.000000
0.000000 0.000000 0.000000
-0.032337 0.000323 0.000000
0.000323 -0.031781 0.000000
0.000000 0.000000 0.000000
-0.014289 -0.007308 0.000000
-0.007308 0.032156 0.000000
0.000000 0.000000 0.000000
-0.004069 0.000677 0.000000
0.000677 -0.015663 0.000000
0.000000 0.000000 0.000000
-0.014426 -0.005942 0.000000
-0.005942 -0.033369 0.000000
0.000000 0.000000 0.000000
-0.005044 -0.010393 0.000000
-0.010393 -0.000063 0.000000
0.000000 0.000000 0.000000
-0.015612 -0.004951 0.000000
-0.004951 -0.036623 0.000000
0.000000 0.000000 0.000000
-0.002177 0.004819 0.000000
0.004819 -0.012747 0.000000
0.000000 0.000000 0.000000
0.005540 -0.008205 0.000000
-0.008205 0.010768 0.000000
0.000000 0.000000 0.000000
0.005043 0.005732 0.000000
0.005732 -0.042896 0.000000
0.000000 0.000000 0.000000
0.004712 -0.009850 0.000000
-0.009850 0.006892 0.000000
0.000000 0.000000 0.000000
-0.010565 0.013775 0.000000
0.013775 -0.023515 0.000000
0.000000 0.000000 0.000000
-0.004612 0.012854 0.000000
0.012854 -0.002498 0.000000
0.000000 0.000000 0.000000
0.043161 -0.009604 0.000000
-0.009604 0.024965 0.000000
0.000000 0.000000 0.000000
-0.026319 0.004233 0.000000
0.004233 -0.016700 0.000000
0.000000 0.000000 0.000000
-0.005778 0.011650 0.000000
0.011650 -0.008318 0.000000
0.000000 0.000000 0.000000
-0.012308 0.009944 0.000000
0.009944 -0.002598 0.000000
0.000000 0.000000 0.000000
-0.006892 0.005867 0.000000
0.005867 0.010857 0.000000
0.000000 0.000000 0.000000
-0.004349 -0.003584 0.000000
-0.003584 -0.002182 0.000000
0.000000 0.000000 0.000000
-0.010843 0.016723 0.000000
0.016723 -0.008665 0.000000
0.000000 0.000000 0.000000
-0.011322 0.013724 0.000000
0.013724 -0.014023 0.000000
0.000000 0.000000 0.000000
-0.000789 -0.003438 0.000000
-0.003438 -0.002858 0.000000
0.000000 0.000000 0.000000
-0.002857 -0.003100 0.000000
-0.003100 -0.001130 0.000000
0.000000 0.000000 0.000000
-0.032270 0.006337 0.000000
0.006337 -0.017911 0.000000
0.000000 0.000000 0.000000
-0.024461 0.012785 0.000000
0.012785 0.018986 0.000000
0.000000 0.000000 0.000000
-0.058912 0.031051 0.000000
0.031051 -0.010792 0.000000
0.000000 0.000000 0.000000
-0.002865 -0.007045 0.000000
-0.007045 -0.007781 0.000000
0.000000 0.000000 0.000000
-0.002879 -0.002668 0.000000
-0.002668 0.008061 0.000000
0.000000 0.000000 0.000000
-0.013588 -0.000254 0.000000
-0.000254 -0.024608 0.000000
0.000000 0.000000 0.000000
0.020806 0.023252 0.000000
0.023252 0.009513 0.000000
0.000000 0.000000 0.000000
0.020775 0.019086 0.000000
0.019086 -0.005545 0.000000
0.000000 0.000000 0.000000
0.021041 -0.004596 0.000000
-0.004596 0.019154 0.000000
0.000000 0.000000 0.000000
0.008721 0.018370 0.000000
0.018370 0.006874 0.000000
0.000000 0.000000 0.000000
0.003542 -0.010266 0.000000
-0.010266 0.003023 0.000000
0.000000 0.000000 0.000000
0.017609 0.001760 0.000000
0.001760 0.015256 0.000000
0.000000 0.000000 0.000000
-0.007374 -0.009050 0.000000
-0.009050 0.001585 0.000000
0.000000 0.000000 0.000000
-0.002298 -0.004574 0.000000
-0.004574 -0.017140 0.000000
0.000000 0.000000 0.000000
0.006913 0.000680 0.000000
0.000680 0.024795 0.000000
0.000000 0.000000 0.000000
0.009939 0.002069 0.000000
0.002069 0.027073 0.000000
0.000000 0.000000 0.000000
-0.004048 0.003624 0.000000
0.003624 -0.015212 0.000000
0.000000 0.000000 0.000000
-0.008673 0.008778 0.000000
0.008778 -0.010195 0.000000
0.000000 0.000000 0.000000
-0.003821 0.003419 0.000000
0.003419 0.019317 0.000000
0.000000 0.000000 0.000000
-0.005265 0.000124 0.000000
0.000124 -0.014051 0.000000
0.000000 0.000000 0.000000
-0.000605 -0.009076 0.000000
-0.009076 0.007812 0.000000
0.000000 0.000000 0.000000
0.008204 -0.005328 0.000000
-0.005328 0.012684 0.000000
0.000000 0.000000 0.000000
0.004482 0.000025 0.000000
0.000025 -0.002083 0.000000
0.000000 0.000000 0.000000
-0.006297 -0.003211 0.000000
-0.003211 -0.018488 0.000000
0.000000 0.000000 0.000000
-0.004569 -0.002312 0.000000
-0.002312 -0.007392 0.000000
0.000000 0.000000 0.000000
0.002330 0.007135 0.000000
0.007135 0.023686 0.000000
0.000000 0.000000 0.000000
0.007010 -0.006830 0.000000
-0.006830 0.019540 0.000000
0.000000 0.000000 0.000000
-0.002851 0.000637 0.000000
0.000637 0.018237 0.000000
0.000000 0.000000 0.000000
-0.014759 -0.011241 0.000000
-0.011241 -0.018384 0.000000
0.000000 0.000000 0.000000
-0.005309 0.005973 0.000000
0.005973 0.004485 0.000000
0.000000 0.000000 0.000000
0.028026 -0.014364 0.000000
-0.014364 -0.005309 0.000000
0.000000 0.000000 0.000000
-0.007283 0.006450 0.000000
0.006450 0.006662 0.000000
0.000000 0.000000 0.000000
0.008362 0.002728 0.000000
0.002728 0.006776 0.000000
0.000000 0.000000 0.000000
0.009874 -0.011116 0.000000
-0.011116 0.005828 0.000000
0.000000 0.000000 0.000000
0.004651 0.003891 0.000000
0.003891 -0.021022 0.000000
0.000000 0.000000 0.000000
-0.039483 -0.007220 0.000000
-0.007220 0.003891 0.000000
0.000000 0.000000 0.000000
-0.032021 -0.008993 0.000000
-0.008993 0.028280 0.000000
0.000000 0.000000 0.000000
-0.005052 0.014796 0.000000
0.014796 -0.006391 0.000000
0.000000 0.000000 0.000000
-0.003413 0.015159 0.000000
0.015159 -0.007226 0.000000
0.000000 0.000000 0.000000
-0.000954 0.001599 0.000000
0.001599 -0.003581 0.000000
0.000000 0.000000 0.000000
0.005967 -0.005946 0.000000
-0.005946 0.009638 0.000000
0.000000 0.000000 0.000000
0.007803 -0.004659 0.000000
-0.004659 0.014857 0.000000
0.000000 0.000000 0.000000
0.012080 -0.007379 0.000000
-0.007379 0.029467 0.000000
0.000000 0.000000 0.000000
0.010500 -0.003182 0.000000
-0.003182 0.013244 0.000000
0.000000 0.000000 0.000000
-0.007370 -0.005287 0.000000
-0.005287 -0.015855 0.000000
0.000000 0.000000 0.000000
0.050492 0.017757 0.000000
0.017757 0.019998 0.000000
0.000000 0.000000 0.000000
0.007345 -0.002320 0.000000
-0.002320 0.014957 0.000000
0.000000 0.000000 0.000000
-0.015796 0.013323 0.000000
0.013323 -0.017846 0.000000
0.000000 0.000000 0.000000
-0.013168 0.011935 0.000000
0.011935 -0.016157 0.000000
0.000000 0.000000 0.000000
-0.008266 -0.013678 0.000000
-0.013678 0.008177 0.000000
0.000000 0.000000 0.000000
-0.012463 0.035910 0.000000
0.035910 -0.015389 0.000000
0.000000 0.000000 0.000000
0.009051 0.001657 0.000000
0.001657 -0.006742 0.000000
0.000000 0.000000 0.000000
-0.010949 0.015482 0.000000
0.015482 -0.010966 0.000000
0.000000 0.000000 0.000000
0.005293 0.008825 0.000000
0.008825 0.008532 0.000000
0.000000 0.000000 0.000000
0.005005 -0.004082 0.000000
-0.004082 0.015265 0.000000
0.000000 0.000000 0.000000
0.002845 0.007005 0.000000
0.007005 0.009906 0.000000
0.000000 0.000000 0.000000
-0.014885 -0.020185 0.000000
-0.020185 -0.025358 0.000000
0.000000 0.000000 0.000000
0.001873 -0.010959 0.000000
-0.010959 0.003652 0.000000
0.000000 0.000000 0.000000
0.000341 -0.000501 0.000000
-0.000501 -0.005370 0.000000
0.000000 0.000000 0.000000
0.008675 0.007581 0.000000
0.007581 0.006726 0.000000
0.000000 0.000000 0.000000
0.018978 0.001203 0.000000
0.001203 0.000098 0.000000
0.000000 0.000000 0.000000
0.002721 0.001464 0.000000
0.001464 0.016008 0.000000
0.000000 0.000000 0.000000
0.010288 0.006751 0.000000
0.006751 0.009583 0.000000
0.000000 0.000000 0.000000
0.012942 0.002189 0.000000
0.002189 0.029384 0.000000
0.000000 0.000000 0.000000
0.005629 0.004367 0.000000
0.004367 0.006224 0.000000
0.000000 0.000000 0.000000
0.012517 0.009184 0.000000
0.009184 0.010766 0.000000
0.000000 0.000000 0.000000
0.001012 -0.004070 0.000000
-0.004070 -0.006340 0.000000
0.000000 0.000000 0.000000
0.014029 -0.012018 0.000000
-0.012018 -0.002314 0.000000
0.000000 0.000000 0.000000
-0.008215 -0.002379 0.000000
-0.002379 -0.009648 0.000000
0.000000 0.000000 0.000000
-0.004097 -0.009803 0.000000
-0.009803 -0.019297 0.000000
0.000000 0.000000 0.000000
0.002779 -0.002273 0.000000
-0.002273 -0.015741 0.000000
0.000000 0.000000 0.000000
-0.006405 -0.009460 0.000000
-0.009460 -0.018909 0.000000
0.000000 0.000000 0.000000
0.008107 -0.007318 0.000000
-0.007318 -0.029677 0.000000
0.000000 0.000000 0.000000
0.000933 0.004766 0.000000
0.004766 -0.041026 0.000000
0.000000 0.000000 0.000000
-0.001040 0.000544 0.000000
0.000544 0.017355 0.000000
0.000000 0.000000 0.000000
0.011865 0.020152 0.000000
0.020152 -0.002111 0.000000
0.000000 0.000000 0.000000
0.001341 0.007623 0.000000
0.007623 -0.034372 0.000000
0.000000 0.000000 0.000000
-0.039603 -0.005176 0.000000
-0.005176 0.033124 0.000000
0.000000 0.000000 0.000000
-0.015663 -0.008742 0.000000
-0.008742 -0.005736 0.000000
0.000000 0.000000 0.000000
0.009768 0.002453 0.000000
0.002453 0.019597 0.000000
0.000000 0.000000 0.000000
-0.018337 -0.011852 0.000000
-0.011852 -0.006321 0.000000
0.000000 0.000000 0.000000
0.005445 -0.000616 0.000000
-0.000616 0.014100 0.000000
0.000000 0.000000 0.000000
0.001503 -0.005644 0.000000
-0.005644 -0.007184 0.000000
0.000000 0.000000 0.000000
-0.004245 0.002043 0.000000
0.002043 -0.000232 0.000000
0.000000 0.000000 0.000000
0.001095 0.004459 0.000000
0.004459 0.001199 0.000000
0.000000 0.000000 0.000000
-0.002183 0.004087 0.000000
0.004087 0.004328 0.000000
0.000000 0.000000 0.000000
0.041445 0.018953 0.000000
0.018953 -0.007516 0.000000
0.000000 0.000000 0.000000
0.039370 0.019832 0.000000
0.019832 -0.006454 0.000000
0.000000 0.000000 0.000000
-0.006430 0.010495 0.000000
0.010495 -0.011316 0.000000
0.000000 0.000000 0.000000
-0.008725 -0.005026 0.000000
-0.005026 -0.015394 0.000000
0.000000 0.000000 0.000000
-0.009534 -0.005373 0.000000
-0.005373 -0.013769 0.000000
0.000000 0.000000 0.000000
-0.001426 0.001140 0.000000
0.001140 -0.014717 0.000000
0.000000 0.000000 0.000000
-0.000385 0.000619 0.000000
0.000619 -0.016640 0.000000
0.000000 0.000000 0.000000
0.000116 0.003327 0.000000
0.003327 -0.002134 0.000000
0.000000 0.000000 0.000000
-0.005255 0.007232 0.000000
0.007232 -0.002874 0.000000
0.000000 0.000000 0.000000
0.003433 0.000099 0.000000
0.000099 0.003657 0.000000
0.000000 0.000000 0.000000
-0.009363 0.012253 0.000000
0.012253 -0.017281 0.000000
0.000000 0.000000 0.000000
0.034594 0.017728 0.000000
0.017728 -0.007675 0.000000
0.000000 0.000000 0.000000
0.022244 0.000652 0.000000
0.000652 -0.008852 0.000000
0.000000 0.000000 0.000000
-0.004188 -0.003471 0.000000
-0.003471 -0.001217 0.000000
0.000000 0.000000 0.000000
-0.011805 -0.000912 0.000000
-0.000912 -0.025716 0.000000
0.000000 0.000000 0.000000
0.014958 0.008256 0.000000
0.008256 -0.005147 0.000000
0.000000 0.000000 0.000000
-0.006042 -0.008987 0.000000
-0.008987 -0.006453 0.000000
0.000000 0.000000 0.000000
0.025326 -0.006962 0.000000
-0.006962 0.032398 0.000000
0.000000 0.000000 0.000000
0.006793 -0.001898 0.000000
-0.001898 -0.004853 0.000000
0.000000 0.000000 0.000000
0.000072 0.009666 0.000000
0.009666 -0.009686 0.000000
0.000000 0.000000 0.000000
-0.016946 0.015082 0.000000
0.015082 0.016913 0.000000
0.000000 0.000000 0.000000
-0.000026 -0.002074 0.000000
-0.002074 -0.016307 0.000000
0.000000 0.000000 0.000000
-0.005920 0.004293 0.000000
0.004293 -0.005519 0.000000
0.000000 0.000000 0.000000
0.000057 -0.013251 0.000000
-0.013251 0.012864 0.000000
0.000000 0.000000 0.000000
0.003704 0.000231 0.000000
0.000231 0.006555 0.000000
0.000000 0.000000 0.000000
0.002282 0.020049 0.000000
0.020049 -0.017675 0.000000
0.000000 0.000000 0.000000
-0.011437 -0.008961 0.000000
-0.008961 0.020084 0.000000
0.000000 0.000000 0.000000
0.006400 -0.011898 0.000000
-0.011898 0.000699 0.000000
0.000000 0.000000 0.000000
-0.018129 -0.007031 0.000000
-0.007031 -0.012850 0.000000
0.000000 0.000000 0.000000
0.009723 0.003017 0.000000
0.003017 0.007713 0.000000
0.000000 0.000000 0.000000
0.014867 -0.001592 0.000000
-0.001592 0.028004 0.000000
0.000000 0.000000 0.000000
-0.006531 0.000384 0.000000
0.000384 -0.003061 0.000000
0.000000 0.000000 0.000000
0.003609 -0.005467 0.000000
-0.005467 -0.003538 0.000000
0.000000 0.000000 0.000000
0.005669 -0.002137 0.000000
-0.002137 0.021181 0.000000
0.000000 0.000000 0.000000
0.011315 0.000150 0.000000
0.000150 0.022123 0.000000
0.000000 0.000000 0.000000
0.000385 -0.002408 0.000000
-0.002408 0.004814 0.000000
0.000000 0.000000 0.000000
0.027698 -0.008816 0.000000
-0.008816 0.035263 0.000000
0.000000 0.000000 0.000000
-0.007316 0.005938 0.000000
0.005938 0.006834 0.000000
0.000000 0.000000 0.000000
0.019858 -0.003593 0.000000
-0.003593 0.024737 0.000000
0.000000 0.000000 0.000000
-0.003125 0.003387 0.000000
0.003387 0.010787 0.000000
0.000000 0.000000 0.000000
-0.001335 0.009450 0.000000
0.009450 0.009451 0.000000
0.000000 0.000000 0.000000
-0.014390 0.001380 0.000000
0.001380 -0.038567 0.000000
0.000000 0.000000 0.000000
0.001571 -0.004572 0.000000
-0.004572 0.042594 0.000000
0.000000 0.000000 0.000000
-0.014064 -0.000989 0.000000
-0.000989 -0.000224 0.000000
0.000000 0.000000 0.000000
0.008063 0.004919 0.000000
0.004919 0.004680 0.000000
0.000000 0.000000 0.000000
0.001903 0.005885 0.000000
0.005885 0.001241 0.000000
0.000000 0.000000 0.000000
-0.035339 -0.010413 0.000000
-0.010413 -0.015376 0.000000
0.000000 0.000000 0.000000
0.013869 0.002554 0.000000
0.002554 0.014198 0.000000
0.000000 0.000000 0.000000
0.000712 0.003076 0.000000
0.003076 -0.016132 0.000000
0.000000 0.000000 0.000000
-0.013184 0.008510 0.000000
0.008510 -0.041091 0.000000
0.000000 0.000000 0.000000
0.018345 -0.001900 0.000000
-0.001900 0.022366 0.000000
0.000000 0.000000 0.000000
-0.056228 0.018530 0.000000
0.018530 0.020908 0.000000
0.000000 0.000000 0.000000
-0.007762 0.035904 0.000000
0.035904 -0.002800 0.000000
0.000000 0.000000 0.000000
0.014146 -0.001904 0.000000
-0.001904 0.002906 0.000000
0.000000 0.000000 0.000000
-0.011253 0.002319 0.000000
0.002319 -0.000130 0.000000
0.000000 0.000000 0.000000
-0.006371 -0.001393 0.000000
-0.001393 0.007584 0.000000
0.000000 0.000000 0.000000
-0.011451 0.005881 0.000000
0.005881 -0.004881 0.000000
0.000000 0.000000 0.000000
0.003884 0.016431 0.000000
0.016431 -0.012914 0.000000
0.000000 0.000000 0.000000
-0.009311 -0.004370 0.000000
-0.004370 -0.014337 0.000000
0.000000 0.000000 0.000000
0.014036 0.001971 0.000000
0.001971 0.035649 0.000000
0.000000 0.000000 0.000000
-0.027017 -0.013489 0.000000
-0.013489 -0.011207 0.000000
0.000000 0.000000 0.000000
0.027109 0.008201 0.000000
0.008201 -0.005018 0.000000
0.000000 0.000000 0.000000
-0.002055 0.001394 0.000000
0.001394 0.007365 0.000000
0.000000 0.000000 0.000000
-0.004293 0.001236 0.000000
0.001236 0.008659 0.000000
0.000000 0.000000 0.000000
-0.006296 -0.004517 0.000000
-0.004517 0.014563 0.000000
0.000000 0.000000 0.000000
0.040286 -0.021569 0.000000
-0.021569 0.020602 0.000000
0.000000 0.000000 0.000000
0.007911 0.002145 0.000000
0.002145 -0.009470 0.000000
0.000000 0.000000 0.000000
-0.023417 0.006863 0.000000
0.006863 -0.010787 0.000000
0.000000 0.000000 0.000000
-0.015720 0.003592 0.000000
0.003592 -0.017720 0.000000
0.000000 0.000000 0.000000
0.009948 -0.002313 0.000000
-0.002313 -0.021984 0.000000
0.000000 0.000000 0.000000
-0.006467 0.000266 0.000000
0.000266 -0.012170 0.000000
0.000000 0.000000 0.000000
-0.014838 0.008418 0.000000
0.008418 -0.015502 0.000000
0.000000 0.000000 0.000000
-0.002143 -0.003989 0.000000
-0.003989 -0.003009 0.000000
0.000000 0.000000 0.000000
0.000826 0.001581 0.000000
0.001581 -0.009631 0.000000
0.000000 0.000000 0.000000
-0.010964 -0.017684 0.000000
-0.017684 0.011174 0.000000
0.000000 0.000000 0.000000
0.008536 -0.008002 0.000000
-0.008002 -0.015026 0.000000
0.000000 0.000000 0.000000
-0.004723 -0.001346 0.000000
-0.001346 0.017132 0.000000
0.000000 0.000000 0.000000
-0.001089 -0.006506 0.000000
-0.006506 0.018358 0.000000
0.000000 0.000000 0.000000
-0.007976 -0.005002 0.000000
-0.005002 -0.024867 0.000000
0.000000 0.000000 0.000000
-0.011781 0.003065 0.000000
0.003065 -0.009484 0.000000
0.000000 0.000000 0.000000
0.005949 0.011477 0.000000
0.011477 0.010990 0.000000
0.000000 0.000000 0.000000
-0.004574 0.000488 0.000000
0.000488 -0.017268 0.000000
0.000000 0.000000 0.000000
-0.009991 0.001332 0.000000
0.001332 -0.007823 0.000000
0.000000 0.000000 0.000000
0.004097 0.009646 0.000000
0.009646 -0.005222 0.000000
0.000000 0.000000 0.000000
0.011157 0.003654 0.000000
0.003654 0.016543 0.000000
0.000000 0.000000 0.000000
-0.014512 -0.014026 0.000000
-0.014026 -0.018789 0.000000
0.000000 0.000000 0.000000
0.004282 0.003197 0.000000
0.003197 0.001679 0.000000
0.000000 0.000000 0.000000
0.003403 0.000840 0.000000
0.000840 -0.012040 0.000000
0.000000 0.000000 0.000000
-0.007100 0.001961 0.000000
0.001961 -0.006804 0.000000
0.000000 0.000000 0.000000
0.008774 -0.011467 0.000000
-0.011467 0.022095 0.000000
0.000000 0.000000 0.000000
-0.018259 0.000689 0.000000
0.000689 0.015519 0.000000
0.000000 0.000000 0.000000
0.002158 -0.001103 0.000000
-0.001103 -0.005848 0.000000
0.000000 0.000000 0.000000
0.005448 0.005659 0.000000
0.005659 0.023419 0.000000
0.000000 0.000000 0.000000
-0.000729 -0.003477 0.000000
-0.003477 -0.000764 0.000000
0.000000 0.000000 0.000000
-0.009081 -0.005625 0.000000
-0.005625 0.010096 0.000000
0.000000 0.000000 0.000000
0.000226 -0.018572 0.000000
-0.018572 -0.040215 0.000000
0.000000 0.000000 0.000000
-0.004815 0.001253 0.000000
0.001253 0.019519 0.000000
0.000000 0.000000 0.000000
0.003620 -0.009847 0.000000
-0.009847 0.012225 0.000000
0.000000 0.000000 0.000000
-0.009319 -0.001479 0.000000
-0.001479 0.009685 0.000000
0.000000 0.000000 0.000000
-0.026840 0.012939 0.000000
0.012939 -0.035401 0.000000
0.000000 0.000000 0.000000
-0.015469 -0.005456 0.000000
-0.005456 -0.011634 0.000000
0.000000 0.000000 0.000000
-0.010301 0.012291 0.000000
0.012291 0.002963 0.000000
0.000000 0.000000 0.000000
-0.020927 -0.009450 0.000000
-0.009450 -0.005994 0.000000
0.000000 0.000000 0.000000
0.027442 -0.016562 0.000000
-0.016562 0.013216 0.000000
0.000000 0.000000 0.000000
0.007544 0.003960 0.000000
0.003960 -0.002434 0.000000
0.000000 0.000000 0.000000
0.007736 0.000053 0.000000
0.000053 0.015046 0.000000
0.000000 0.000000 0.000000
-0.007361 0.005510 0.000000
0.005510 -0.001622 0.000000
0.000000 0.000000 0.000000
0.014866 -0.005128 0.000000
-0.005128 0.016569 0.000000
0.000000 0.000000 0.000000
-0.002324 -0.001434 0.000000
-0.001434 -0.006924 0.000000
0.000000 0.000000 0.000000
-0.010436 0.009559 0.000000
0.009559 0.002181 0.000000
0.000000 0.000000 0.000000
-0.012063 -0.014680 0.000000
-0.014680 0.000398 0.000000
0.000000 0.000000 0.000000
-0.000734 0.004624 0.000000
0.004624 -0.007292 0.000000
0.000000 0.000000 0.000000
0.011990 0.006213 0.000000
0.006213 0.009660 0.000000
0.000000 0.000000 0.000000
0.013448 0.005265 0.000000
0.005265 0.012407 0.000000
0.000000 0.000000 0.000000
0.014210 0.003817 0.000000
0.003817 0.031792 0.000000
0.000000 0.000000 0.000000
0.010155 0.004340 0.000000
0.004340 0.034169 0.000000
0.000000 0.000000 0.000000
0.011725 -0.011787 0.000000
-0.011787 -0.000482 0.000000
0.000000 0.000000 0.000000
-0.010075 0.000064 0.000000
0.000064 -0.014671 0.000000
0.000000 0.000000 0.000000
-0.002603 0.000869 0.000000
0.000869 -0.003425 0.000000
0.000000 0.000000 0.000000
-0.004773 -0.001717 0.000000
-0.001717 -0.000667 0.000000
0.000000 0.000000 0.000000
0.035018 0.001182 0.000000
0.001182 -0.006969 0.000000
0.000000 0.000000 0.000000
-0.030816 -0.017019 0.000000
-0.017019 0.027534 0.000000
0.000000 0.000000 0.000000
0.007081 0.004385 0.000000
0.004385 -0.027201 0.000000
0.000000 0.000000 0.000000
-0.018079 0.007934 0.000000
0.007934 0.004273 0.000000
0.000000 0.000000 0.000000
0.006339 -0.002054 0.000000
-0.002054 0.000010 0.000000
0.000000 0.000000 0.000000
0.004805 -0.001268 0.000000
-0.001268 0.016084 0.000000
0.000000 0.000000 0.000000
-0.015974 0.003349 0.000000
0.003349 -0.022204 0.000000
0.000000 0.000000 0.000000
0.012680 0.000159 0.000000
0.000159 0.015944 0.000000
0.000000 0.000000 0.000000
0.007805 -0.008600 0.000000
-0.008600 -0.018429 0.000000
0.000000 0.000000 0.000000
0.003411 0.000786 0.000000
0.000786 0.008411 0.000000
0.000000 0.000000 0.000000
-0.000535 -0.005125 0.000000
-0.005125 -0.013523 0.000000
0.000000 0.000000 0.000000
0.000385 0.004276 0.000000
0.004276 -0.009535 0.000000
0.000000 0.000000 0.000000
-0.006812 0.004427 0.000000
0.004427 -0.007641 0.000000
0.000000 0.000000 0.000000
-0.067564 0.011175 0.000000
0.011175 -0.034091 0.000000
0.000000 0.000000 0.000000
0.015041 0.007045 0.000000
0.007045 -0.047081 0.000000
0.000000 0.000000 0.000000
-0.006007 0.009238 0.000000
0.009238 0.002056 0.000000
0.000000 0.000000 0.000000
0.013348 0.004339 0.000000
0.004339 -0.003053 0.000000
0.000000 0.000000 0.000000
0.001616 0.014981 0.000000
0.014981 0.012747 0.000000
0.000000 0.000000 0.000000
-0.000151 0.005965 0.000000
0.005965 0.002577 0.000000
0.000000 0.000000 0.000000
0.001756 0.002085 0.000000
0.002085 0.001682 0.000000
0.000000 0.000000 0.000000
0.002792 0.001456 0.000000
0.001456 0.002844 0.000000
0.000000 0.000000 0.000000
0.026715 0.002895 0.000000
0.002895 -0.002154 0.000000
0.000000 0.000000 0.000000
0.010736 -0.001735 0.000000
-0.001735 -0.007071 0.000000
0.000000 0.000000 0.000000
0.008474 -0.007453 0.000000
-0.007453 -0.021754 0.000000
0.000000 0.000000 0.000000
0.009645 -0.003604 0.000000
-0.003604 -0.018290 0.000000
0.000000 0.000000 0.000000
0.004770 -0.000910 0.000000
-0.000910 -0.011208 0.000000
0.000000 0.000000 0.000000
0.019132 -0.042343 0.000000
-0.042343 -0.086558 0.000000
0.000000 0.000000 0.000000
0.003565 -0.000869 0.000000
-0.000869 -0.003172 0.000000
0.000000 0.000000 0.000000
0.010280 0.000228 0.000000
0.000228 -0.010634 0.000000
0.000000 0.000000 0.000000
-0.011427 -0.015071 0.000000
-0.015071 -0.014774 0.000000
0.000000 0.000000 0.000000
-0.005455 0.004842 0.000000
0.004842 -0.021924 0.000000
0.000000 0.000000 0.000000
0.011544 0.015061 0.000000
0.015061 0.002538 0.000000
0.000000 0.000000 0.000000
-0.028001 -0.000088 0.000000
-0.000088 0.001654 0.000000
0.000000 0.000000 0.000000
-0.018504 -0.004858 0.000000
-0.004858 -0.021472 0.000000
0.000000 0.000000 0.000000
0.003215 -0.002573 0.000000
-0.002573 -0.013832 0.000000
0.000000 0.000000 0.000000
0.003408 0.008677 0.000000
0.008677 0.009708 0.000000
0.000000 0.000000 0.000000
-0.018494 0.008762 0.000000
0.008762 0.000181 0.000000
0.000000 0.000000 0.000000
-0.003782 -0.001592 0.000000
-0.001592 -0.007198 0.000000
0.000000 0.000000 0.000000
0.018733 -0.012149 0.000000
-0.012149 0.033775 0.000000
0.000000 0.000000 0.000000
-0.013938 -0.000210 0.000000
-0.000210 0.004060 0.000000
0.000000 0.000000 0.000000
-0.000047 0.000142 0.000000
0.000142 -0.008322 0.000000
0.000000 0.000000 0.000000
0.005656 0.001965 0.000000
0.001965 0.015202 0.000000
0.000000 0.000000 0.000000
0.008286 -0.005724 0.000000
-0.005724 -0.000200 0.000000
0.000000 0.000000 0.000000
-0.030183 0.030348 0.000000
0.030348 -0.022685 0.000000
0.000000 0.000000 0.000000
-0.003477 0.002384 0.000000
0.002384 -0.005332 0.000000
0.000000 0.000000 0.000000
0.009248 -0.003396 0.000000
-0.003396 0.009915 0.000000
0.000000 0.000000 0.000000
0.003172 0.016685 0.000000
0.016685 0.018319 0.000000
0.000000 0.000000 0.000000
-0.006301 0.014585 0.000000
0.014585 -0.014021 0.000000
0.000000 0.000000 0.000000
0.003082 0.001010 0.000000
0.001010 0.008250 0.000000
0.000000 0.000000 0.000000
-0.004030 -0.010689 0.000000
-0.010689 0.018792 0.000000
0.000000 0.000000 0.000000
0.002945 0.002121 0.000000
0.002121 0.015327 0.000000
0.000000 0.000000 0.000000
-0.005023 0.001386 0.000000
0.001386 -0.030339 0.000000
0.000000 0.000000 0.000000
-0.001437 0.003128 0.000000
0.003128 0.002524 0.000000
0.000000 0.000000 0.000000
0.001803 0.000391 0.000000
0.000391 0.018971 0.000000
0.000000 0.000000 0.000000
-0.003093 0.002732 0.000000
0.002732 -0.007327 0.000000
0.000000 0.000000 0.000000
-0.004419 -0.000407 0.000000
-0.000407 0.013612 0.000000
0.000000 0.000000 0.000000
0.005387 0.004052 0.000000
0.004052 0.009599 0.000000
0.000000 0.000000 0.000000
0.001687 -0.001216 0.000000
-0.001216 -0.027233 0.000000
0.000000 0.000000 0.000000
-0.002442 -0.000363 0.000000
-0.000363 0.019290 0.000000
0.000000 0.000000 0.000000
-0.008042 0.001699 0.000000
0.001699 -0.032594 0.000000
0.000000 0.000000 0.000000
-0.001588 0.007835 0.000000
0.007835 -0.006279 0.000000
0.000000 0.000000 0.000000
0.006087 0.006350 0.000000
0.006350 0.004525 0.000000
0.000000 0.000000 0.000000
0.004776 0.001081 0.000000
0.001081 0.002436 0.000000
0.000000 0.000000 0.000000
-0.009232 -0.002141 0.000000
-0.002141 -0.015115 0.000000
0.000000 0.000000 0.000000
0.001980 0.008457 0.000000
0.008457 -0.006931 0.000000
0.000000 0.000000 0.000000
-0.013874 0.006166 0.000000
0.006166 -0.013386 0.000000
0.000000 0.000000 0.000000
0.001802 -0.000261 0.000000
-0.000261 -0.001454 0.000000
0.000000 0.000000 0.000000
0.014296 -0.003341 0.000000
-0.003341 -0.022665 0.000000
0.000000 0.000000 0.000000
0.009340 -0.004807 0.000000
-0.004807 -0.011814 0.000000
0.000000 0.000000 0.000000
0.000382 -0.001792 0.000000
-0.001792 0.010511 0.000000
0.000000 0.000000 0.000000
0.002115 0.001721 0.000000
0.001721 0.012051 0.000000
0.000000 0.000000 0.000000
-0.003623 0.002341 0.000000
0.002341 0.000265 0.000000
0.000000 0.000000 0.000000
-0.030319 0.023903 0.000000
0.023903 -0.016788 0.000000
0.000000 0.000000 0.000000
0.022300 -0.001018 0.000000
-0.001018 -0.025330 0.000000
0.000000 0.000000 0.000000
0.011757 0.009052 0.000000
0.009052 -0.008723 0.000000
0.000000 0.000000 0.000000
0.012059 0.019229 0.000000
0.019229 0.001605 0.000000
0.000000 0.000000 0.000000
-0.019328 -0.006638 0.000000
-0.006638 -0.017115 0.000000
0.000000 0.000000 0.000000
-0.009403 0.006100 0.000000
0.006100 -0.006212 0.000000
0.000000 0.000000 0.000000
0.010290 0.027058 0.000000
0.027058 0.002548 0.000000
0.000000 0.000000 0.000000
0.014701 -0.000324 0.000000
-0.000324 0.023736 0.000000
0.000000 0.000000 0.000000
0.020911 0.001379 0.000000
0.001379 -0.013715 0.000000
0.000000 0.000000 0.000000
0.009828 0.008909 0.000000
0.008909 0.011974 0.000000
0.000000 0.000000 0.000000
-0.009501 -0.005482 0.000000
-0.005482 -0.009603 0.000000
0.000000 0.000000 0.000000
0.002526 0.007554 0.000000
0.007554 0.007359 0.000000
0.000000 0.000000 0.000000
-0.001352 -0.001243 0.000000
-0.001243 -0.000765 0.000000
0.000000 0.000000 0.000000
0.003667 -0.020292 0.000000
-0.020292 -0.020909 0.000000
0.000000 0.000000 0.000000
0.004030 -0.007801 0.000000
-0.007801 -0.002329 0.000000
0.000000 0.000000 0.000000
-0.000883 0.008390 0.000000
0.008390 -0.021284 0.000000
0.000000 0.000000 0.000000
-0.012757 -0.010032 0.000000
-0.010032 0.012441 0.000000
0.000000 0.000000 0.000000
0.006845 0.004943 0.000000
0.004943 0.004469 0.000000
0.000000 0.000000 0.000000
0.002278 0.000637 0.000000
0.000637 0.009814 0.000000
0.000000 0.000000 0.000000
0.000885 0.000892 0.000000
0.000892 0.024663 0.000000
0.000000 0.000000 0.000000
-0.011324 -0.011878 0.000000
-0.011878 -0.026652 0.000000
0.000000 0.000000 0.000000
-0.002340 0.004022 0.000000
0.004022 0.008908 0.000000
0.000000 0.000000 0.000000
-0.015302 0.009396 0.000000
0.009396 -0.015934 0.000000
0.000000 0.000000 0.000000
0.020075 -0.004120 0.000000
-0.004120 -0.008274 0.000000
0.000000 0.000000 0.000000
-0.070874 0.018827 0.000000
0.018827 -0.027326 0.000000
0.000000 0.000000 0.000000
0.029005 0.016308 0.000000
0.016308 0.007226 0.000000
0.000000 0.000000 0.000000
0.035927 0.002299 0.000000
0.002299 0.027176 0.000000
0.000000 0.000000 0.000000
-0.028445 -0.007300 0.000000
-0.007300 -0.011358 0.000000
0.000000 0.000000 0.000000
0.020722 -0.013725 0.000000
-0.013725 0.000700 0.000000
0.000000 0.000000 0.000000
-0.002578 -0.005870 0.000000
-0.005870 -0.023776 0.000000
0.000000 0.000000 0.000000
-0.003953 -0.005998 0.000000
-0.005998 -0.007396 0.000000
0.000000 0.000000 0.000000
-0.006860 -0.001663 0.000000
-0.001663 0.009122 0.000000
0.000000 0.000000 0.000000
0.001600 0.000481 0.000000
0.000481 -0.003953 0.000000
0.000000 0.000000 0.000000
-0.008887 0.003029 0.000000
0.003029 -0.013113 0.000000
0.000000 0.000000 0.000000
0.009180 -0.000490 0.000000
-0.000490 0.013677 0.000000
0.000000 0.000000 0.000000
-0.014241 -0.012452 0.000000
-0.012452 0.006805 0.000000
0.000000 0.000000 0.000000
0.020793 0.005541 0.000000
0.005541 -0.003072 0.000000
0.000000 0.000000 0.000000
0.004764 0.006837 0.000000
0.006837 0.017680 0.000000
0.000000 0.000000 0.000000
0.005733 0.002129 0.000000
0.002129 0.016929 0.000000
0.000000 0.000000 0.000000
0.015788 0.006270 0.000000
0.006270 -0.018233 0.000000
0.000000 0.000000 0.000000
-0.002968 -0.001386 0.000000
-0.001386 -0.023102 0.000000
0.000000 0.000000 0.000000
0.000623 -0.000889 0.000000
-0.000889 0.007754 0.000000
0.000000 0.000000 0.000000
0.004617 0.000304 0.000000
0.000304 0.017230 0.000000
0.000000 0.000000 0.000000
-0.002150 0.011336 0.000000
0.011336 -0.005800 0.000000
0.000000 0.000000 0.000000
0.002176 0.016095 0.000000
0.016095 -0.003034 0.000000
0.000000 0.000000 0.000000
0.003259 -0.000280 0.000000
-0.000280 0.007637 0.000000
0.000000 0.000000 0.000000
-0.001810 0.012380 0.000000
0.012380 -0.008861 0.000000
0.000000 0.000000 0.000000
0.017500 -0.000181 0.000000
-0.000181 0.019218 0.000000
0.000000 0.000000 0.000000
0.015117 0.000112 0.000000
0.000112 0.009336 0.000000
0.000000 0.000000 0.000000
0.017178 -0.001711 0.000000
-0.001711 0.009250 0.000000
0.000000 0.000000 0.000000
0.003452 -0.008684 0.000000
-0.008684 -0.002982 0.000000
0.000000 0.000000 0.000000
-0.006234 -0.003959 0.000000
-0.003959 -0.011884 0.000000
0.000000 0.000000 0.000000
-0.002380 0.001701 0.000000
0.001701 0.007571 0.000000
0.000000 0.000000 0.000000
-0.028461 -0.006840 0.000000
-0.006840 -0.019025 0.000000
0.000000 0.000000 0.000000
-0.007473 -0.006572 0.000000
-0.006572 -0.010911 0.000000
0.000000 0.000000 0.000000
-0.016097 -0.010709 0.000000
-0.010709 -0.003729 0.000000
0.000000 0.000000 0.000000
0.017861 -0.023436 0.000000
-0.023436 0.016245 0.000000
0.000000 0.000000 0.000000
0.003130 0.000692 0.000000
0.000692 0.003189 0.000000
0.000000 0.000000 0.000000
-0.012188 -0.003367 0.000000
-0.003367 -0.025035 0.000000
0.000000 0.000000 0.000000
0.003655 0.001031 0.000000
0.001031 0.004193 0.000000
0.000000 0.000000 0.000000
-0.005437 -0.006269 0.000000
-0.006269 -0.006943 0.000000
0.000000 0.000000 0.000000
-0.021202 -0.015354 0.000000
-0.015354 -0.009092 0.000000
0.000000 0.000000 0.000000
0.020125 -0.006240 0.000000
-0.006240 0.021356 0.000000
0.000000 0.000000 0.000000
-0.008125 -0.003147 0.000000
-0.003147 -0.022048 0.000000
0.000000 0.000000 0.000000
-0.011811 0.002271 0.000000
0.002271 -0.031285 0.000000
0.000000 0.000000 0.000000
-0.009832 0.005143 0.000000
0.005143 -0.011736 0.000000
0.000000 0.000000 0.000000
0.006625 -0.005934 0.000000
-0.005934 0.004033 0.000000
0.000000 0.000000 0.000000
0.017199 0.006956 0.000000
0.006956 0.010659 0.000000
0.000000 0.000000 0.000000
0.026624 -0.016663 0.000000
-0.016663 -0.002982 0.000000
0.000000 0.000000 0.000000
0.006584 -0.009430 0.000000
-0.009430 0.016544 0.000000
0.000000 0.000000 0.000000
0.021050 -0.009203 0.000000
-0.009203 0.020774 0.000000
0.000000 0.000000 0.000000
-0.018649 0.002551 0.000000
0.002551 -0.018753 0.000000
0.000000 0.000000 0.000000
0.020252 -0.006148 0.000000
-0.006148 -0.003867 0.000000
0.000000 0.000000 0.000000
0.002940 0.008914 0.000000
0.008914 -0.005092 0.000000
0.000000 0.000000 0.000000
-0.003110 0.005699 0.000000
0.005699 -0.022527 0.000000
0.000000 0.000000 0.000000
-0.023364 -0.015329 0.000000
-0.015329 -0.027008 0.000000
0.000000 0.000000 0.000000
-0.010523 -0.001938 0.000000
-0.001938 -0.025472 0.000000
0.000000 0.000000 0.000000
0.001378 0.009315 0.000000
0.009315 0.002672 0.000000
0.000000 0.000000 0.000000
-0.007644 0.002264 0.000000
0.002264 -0.005783 0.000000
0.000000 0.000000 0.000000
-0.002651 0.004221 0.000000
0.004221 -0.017108 0.000000
0.000000 0.000000 0.000000
0.006939 0.017914 0.000000
0.017914 -0.021679 0.000000
0.000000 0.000000 0.000000
-0.006723 0.000073 0.000000
0.000073 -0.022013 0.000000
0.000000 0.000000 0.000000
-0.000926 -0.021893 0.000000
-0.021893 -0.002068 0.000000
0.000000 0.000000 0.000000
-0.000497 -0.000035 0.000000
-0.000035 0.002987 0.000000
0.000000 0.000000 0.000000
-0.021384 0.041581 0.000000
0.041581 0.015581 0.000000
0.000000 0.000000 0.000000
-0.022362 -0.015191 0.000000
-0.015191 0.002273 0.000000
0.000000 0.000000 0.000000
-0.014246 0.005007 0.000000
0.005007 -0.003691 0.000000
0.000000 0.000000 0.000000
-0.002018 -0.006468 0.000000
-0.006468 -0.010772 0.000000
0.000000 0.000000 0.000000
-0.009112 -0.006188 0.000000
-0.006188 0.002361 0.000000
0.000000 0.000000 0.000000
-0.010628 0.004361 0.000000
0.004361 -0.002421 0.000000
0.000000 0.000000 0.000000
0.006745 0.001043 0.000000
0.001043 0.010624 0.000000
0.000000 0.000000 0.000000
-0.032431 -0.010934 0.000000
-0.010934 -0.023606 0.000000
0.000000 0.000000 0.000000
-0.010880 -0.001901 0.000000
-0.001901 0.004723 0.000000
0.000000 0.000000 0.000000
-0.004292 -0.005991 0.000000
-0.005991 -0.008384 0.000000
0.000000 0.000000 0.000000
0.003558 0.001261 0.000000
0.001261 0.009188 0.000000
0.000000 0.000000 0.000000
0.005205 -0.001174 0.000000
-0.001174 -0.012341 0.000000
0.000000 0.000000 0.000000
0.000433 0.007047 0.000000
0.007047 -0.003029 0.000000
0.000000 0.000000 0.000000
-0.001051 0.007351 0.000000
0.007351 -0.020371 0.000000
0.000000 0.000000 0.000000
-0.007359 -0.000987 0.000000
-0.000987 0.001709 0.000000
0.000000 0.000000 0.000000
0.006971 0.010624 0.000000
0.010624 0.001447 0.000000
0.000000 0.000000 0.000000
-0.006417 0.001935 0.000000
0.001935 -0.002820 0.000000
0.000000 0.000000 0.000000
0.002762 -0.002184 0.000000
-0.002184 0.002678 0.000000
0.000000 0.000000 0.000000
-0.019019 0.005862 0.000000
0.005862 -0.018865 0.000000
0.000000 0.000000 0.000000
-0.013728 0.000381 0.000000
0.000381 -0.002532 0.000000
0.000000 0.000000 0.000000
0.009345 0.004588 0.000000
0.004588 0.005667 0.000000
0.000000 0.000000 0.000000
-0.008928 -0.009136 0.000000
-0.009136 0.010011 0.000000
0.000000 0.000000 0.000000
0.048354 -0.006958 0.000000
-0.006958 0.011174 0.000000
0.000000 0.000000 0.000000
0.002460 -0.011459 0.000000
-0.011459 0.000874 0.000000
0.000000 0.000000 0.000000
0.012242 -0.010053 0.000000
-0.010053 0.003383 0.000000
0.000000 0.000000 0.000000
0.002185 -0.000854 0.000000
-0.000854 -0.000931 0.000000
0.000000 0.000000 0.000000
0.000198 0.001129 0.000000
0.001129 0.019714 0.000000
0.000000 0.000000 0.000000
0.008864 0.001986 0.000000
0.001986 0.007990 0.000000
0.000000 0.000000 0.000000
-0.003130 0.001244 0.000000
0.001244 0.000183 0.000000
0.000000 0.000000 0.000000
-0.018516 -0.019240 0.000000
-0.019240 -0.005784 0.000000
0.000000 0.000000 0.000000
-0.001706 0.006824 0.000000
0.006824 -0.008253 0.000000
0.000000 0.000000 0.000000
0.006151 0.001747 0.000000
0.001747 0.003143 0.000000
0.000000 0.000000 0.000000
0.005111 0.003288 0.000000
0.003288 0.010999 0.000000
0.000000 0.000000 0.000000
0.027158 0.016061 0.000000
0.016061 0.016550 0.000000
0.000000 0.000000 0.000000
0.001692 -0.001232 0.000000
-0.001232 0.009474 0.000000
0.000000 0.000000 0.000000
-0.023505 -0.005380 0.000000
-0.005380 -0.003028 0.000000
0.000000 0.000000 0.000000
0.017564 0.029029 0.000000
0.029029 0.027335 0.000000
0.000000 0.000000 0.000000
-0.003202 -0.013376 0.000000
-0.013376 0.006458 0.000000
0.000000 0.000000 0.000000
-0.012312 -0.009722 0.000000
-0.009722 -0.004871 0.000000
0.000000 0.000000 0.000000
-0.003410 0.000334 0.000000
0.000334 -0.018511 0.000000
0.000000 0.000000 0.000000
-0.012969 -0.007889 0.000000
-0.007889 -0.002492 0.000000
0.000000 0.000000 0.000000
-0.010407 0.006958 0.000000
0.006958 0.022522 0.000000
0.000000 0.000000 0.000000
0.003139 0.001022 0.000000
0.001022 0.022329 0.000000
0.000000 0.000000 0.000000
0.003397 -0.002446 0.000000
-0.002446 0.009066 0.000000
0.000000 0.000000 0.000000
-0.013651 0.004681 0.000000
0.004681 -0.013799 0.000000
0.000000 0.000000 0.000000
-0.003441 -0.003188 0.000000
-0.003188 0.005808 0.000000
0.000000 0.000000 0.000000
-0.009052 -0.013746 0.000000
-0.013746 -0.036519 0.000000
0.000000 0.000000 0.000000
0.001634 0.009296 0.000000
0.009296 0.006073 0.000000
0.000000 0.000000 0.000000
0.001135 0.007731 0.000000
0.007731 -0.003380 0.000000
0.000000 0.000000 0.000000
-0.000899 -0.002805 0.000000
-0.002805 0.018305 0.000000
0.000000 0.000000 0.000000
-0.032239 -0.012105 0.000000
-0.012105 -0.024823 0.000000
0.000000 0.000000 0.000000
0.005296 -0.001033 0.000000
-0.001033 0.019585 0.000000
0.000000 0.000000 0.000000
0.012816 -0.025925 0.000000
-0.025925 0.021916 0.000000
0.000000 0.000000 0.000000
-0.009951 -0.009378 0.000000
-0.009378 -0.006967 0.000000
0.000000 0.000000 0.000000
-0.003472 -0.016005 0.000000
-0.016005 0.007588 0.000000
0.000000 0.000000 0.000000
-0.021495 -0.002141 0.000000
-0.002141 -0.023314 0.000000
0.000000 0.000000 0.000000
0.007081 -0.011466 0.000000
-0.011466 0.016948 0.000000
0.000000 0.000000 0.000000
0.010907 -0.000008 0.000000
-0.000008 0.016088 0.000000
0.000000 0.000000 0.000000
-0.017504 0.003372 0.000000
0.003372 -0.004873 0.000000
0.000000 0.000000 0.000000
0.019751 -0.016663 0.000000
-0.016663 0.013408 0.000000
0.000000 0.000000 0.000000
-0.006428 0.004514 0.000000
0.004514 0.009220 0.000000
0.000000 0.000000 0.000000
-0.017333 -0.012879 0.000000
-0.012879 -0.019002 0.000000
0.000000 0.000000 0.000000
0.018715 -0.005884 0.000000
-0.005884 -0.002487 0.000000
0.000000 0.000000 0.000000
0.010343 -0.000197 0.000000
-0.000197 0.008467 0.000000
0.000000 0.000000 0.000000
0.003842 -0.002623 0.000000
-0.002623 -0.003764 0.000000
0.000000 0.000000 0.000000
-0.017017 0.009544 0.000000
0.009544 -0.015437 0.000000
0.000000 0.000000 0.000000
0.003535 -0.004720 0.000000
-0.004720 -0.021705 0.000000
0.000000 0.000000 0.000000
-0.001084 -0.002007 0.000000
-0.002007 -0.022632 0.000000
0.000000 0.000000 0.000000
0.009817 -0.010320 0.000000
-0.010320 -0.011277 0.000000
0.000000 0.000000 0.000000
-0.006343 0.002708 0.000000
0.002708 -0.005515 0.000000
0.000000 0.000000 0.000000
0.026417 -0.008546 0.000000
-0.008546 -0.008565 0.000000
0.000000 0.000000 0.000000
0.002676 -0.004694 0.000000
-0.004694 0.017967 0.000000
0.000000 0.000000 0.000000
-0.000542 0.006031 0.000000
0.006031 0.011382 0.000000
0.000000 0.000000 0.000000
0.005101 -0.022987 0.000000
-0.022987 -0.016132 0.000000
0.000000 0.000000 0.000000
0.018967 0.022445 0.000000
0.022445 0.016277 0.000000
0.000000 0.000000 0.000000
0.001009 0.003901 0.000000
0.003901 0.003195 0.000000
0.000000 0.000000 0.000000
0.002737 0.009101 0.000000
0.009101 0.003104 0.000000
0.000000 0.000000 0.000000
-0.020357 0.008611 0.000000
0.008611 -0.003733 0.000000
0.000000 0.000000 0.000000
-0.003961 0.000950 0.000000
0.000950 -0.007891 0.000000
0.000000 0.000000 0.000000
0.004410 -0.000776 0.000000
-0.000776 0.017716 0.000000
0.000000 0.000000 0.000000
0.005981 0.000615 0.000000
0.000615 0.000119 0.000000
0.000000 0.000000 0.000000
0.002887 -0.000548 0.000000
-0.000548 -0.000713 0.000000
0.000000 0.000000 0.000000
0.017606 -0.003333 0.000000
-0.003333 0.005935 0.000000
0.000000 0.000000 0.000000
0.002260 -0.004540 0.000000
-0.004540 -0.009098 0.000000
0.000000 0.000000 0.000000
0.009884 0.000792 0.000000
0.000792 -0.010916 0.000000
0.000000 0.000000 0.000000
0.020599 -0.006655 0.000000
-0.006655 -0.003782 0.000000
0.000000 0.000000 0.000000
0.012422 0.008022 0.000000
0.008022 0.018147 0.000000
0.000000 0.000000 0.000000
-0.009430 -0.005949 0.000000
-0.005949 0.008176 0.000000
0.000000 0.000000 0.000000
0.005526 -0.006527 0.000000
-0.006527 0.015753 0.000000
0.000000 0.000000 0.000000
0.001121 -0.003661 0.000000
-0.003661 0.016498 0.000000
0.000000 0.000000 0.000000
-0.000549 0.002705 0.000000
0.002705 -0.003495 0.000000
0.000000 0.000000 0.000000
0.005032 -0.010672 0.000000
-0.010672 -0.008370 0.000000
0.000000 0.000000 0.000000
0.002941 0.001459 0.000000
0.001459 -0.002992 0.000000
0.000000 0.000000 0.000000
0.007195 -0.011111 0.000000
-0.011111 -0.021722 0.000000
0.000000 0.000000 0.000000
-0.015283 0.002266 0.000000
0.002266 -0.034686 0.000000
0.000000 0.000000 0.000000
-0.004795 0.005363 0.000000
0.005363 0.037988 0.000000
0.000000 0.000000 0.000000
0.032027 0.002152 0.000000
0.002152 0.007616 0.000000
0.000000 0.000000 0.000000
0.070850 -0.000395 0.000000
-0.000395 -0.012751 0.000000
0.000000 0.000000 0.000000
-0.033444 0.006302 0.000000
0.006302 -0.014481 0.000000
0.000000 0.000000 0.000000
0.009438 -0.003202 0.000000
-0.003202 0.024470 0.000000
0.000000 0.000000 0.000000
0.016942 0.005365 0.000000
0.005365 0.016218 0.000000
0.000000 0.000000 0.000000
-0.019062 0.026724 0.000000
0.026724 -0.001629 0.000000
0.000000 0.000000 0.000000
0.010250 -0.005053 0.000000
-0.005053 0.022565 0.000000
0.000000 0.000000 0.000000
-0.020042 -0.003060 0.000000
-0.003060 0.010673 0.000000
0.000000 0.000000 0.000000
0.006236 -0.004213 0.000000
-0.004213 -0.002960 0.000000
0.000000 0.000000 0.000000
-0.003840 0.000867 0.000000
0.000867 -0.001631 0.000000
0.000000 0.000000 0.000000
-0.003208 0.001061 0.000000
0.001061 0.008054 0.000000
0.000000 0.000000 0.000000
-0.000446 -0.002593 0.000000
-0.002593 -0.005133 0.000000
0.000000 0.000000 0.000000
0.005022 -0.007918 0.000000
-0.007918 0.015815 0.000000
0.000000 0.000000 0.000000
0.003787 -0.006123 0.000000
-0.006123 0.011011 0.000000
0.000000 0.000000 0.000000
0.005245 0.000770 0.000000
0.000770 0.002597 0.000000
0.000000 0.000000 0.000000
0.007874 0.000685 0.000000
0.000685 0.000850 0.000000
0.000000 0.000000 0.000000
-0.021521 -0.005998 0.000000
-0.005998 -0.003222 0.000000
0.000000 0.000000 0.000000
-0.002503 -0.001317 0.000000
-0.001317 -0.004480 0.000000
0.000000 0.000000 0.000000
-0.003802 0.000761 0.000000
0.000761 0.007896 0.000000
0.000000 0.000000 0.000000
-0.009461 0.000179 0.000000
0.000179 -0.003068 0.000000
0.000000 0.000000 0.000000
0.006886 -0.010538 0.000000
-0.010538 0.000617 0.000000
0.000000 0.000000 0.000000
-0.012805 -0.003532 0.000000
-0.003532 -0.021703 0.000000
0.000000 0.000000 0.000000
-0.004860 0.001992 0.000000
0.001992 -0.002835 0.000000
0.000000 0.000000 0.000000
-0.024228 0.001591 0.000000
0.001591 0.008380 0.000000
0.000000 0.000000 0.000000
0.020636 0.013690 0.000000
0.013690 0.033896 0.000000
0.000000 0.000000 0.000000
0.007107 0.008863 0.000000
0.008863 -0.025251 0.000000
0.000000 0.000000 0.000000
-0.011397 0.019859 0.000000
0.019859 0.003604 0.000000
0.000000 0.000000 0.000000
-0.017376 0.019734 0.000000
0.019734 -0.031051 0.000000
0.000000 0.000000 0.000000
-0.006037 0.013431 0.000000
0.013431 -0.013791 0.000000
0.000000 0.000000 0.000000
0.006472 -0.008644 0.000000
-0.008644 -0.007331 0.000000
0.000000 0.000000 0.000000
0.001571 0.002256 0.000000
0.002256 -0.024849 0.000000
0.000000 0.000000 0.000000
-0.019871 -0.002083 0.000000
-0.002083 0.008802 0.000000
0.000000 0.000000 0.000000
-0.020793 -0.003810 0.000000
-0.003810 0.001551 0.000000
0.000000 0.000000 0.000000
0.015862 -0.003119 0.000000
-0.003119 -0.001991 0.000000
0.000000 0.000000 0.000000
-0.007921 -0.012691 0.000000
-0.012691 0.021799 0.000000
0.000000 0.000000 0.000000
-0.001142 0.007907 0.000000
0.007907 0.006253 0.000000
0.000000 0.000000 0.000000
0.001673 -0.002759 0.000000
-0.002759 -0.003733 0.000000
0.000000 0.000000 0.000000
-0.002684 0.000534 0.000000
0.000534 0.004373 0.000000
0.000000 0.000000 0.000000
-0.005799 -0.000111 0.000000
-0.000111 -0.013129 0.000000
0.000000 0.000000 0.000000
0.003344 -0.002221 0.000000
-0.002221 -0.015123 0.000000
0.000000 0.000000 0.000000
-0.012061 0.003217 0.000000
0.003217 -0.004377 0.000000
0.000000 0.000000 0.000000
-0.005977 -0.009813 0.000000
-0.009813 -0.001666 0.000000
0.000000 0.000000 0.000000
0.003600 -0.001804 0.000000
-0.001804 0.015782 0.000000
0.000000 0.000000 0.000000
0.000145 0.000651 0.000000
0.000651 -0.013166 0.000000
0.000000 0.000000 0.000000
-0.018573 -0.000949 0.000000
-0.000949 0.000392 0.000000
0.000000 0.000000 0.000000
0.002600 -0.003475 0.000000
-0.003475 0.016533 0.000000
0.000000 0.000000 0.000000
-0.005720 -0.000369 0.000000
-0.000369 0.000037 0.000000
0.000000 0.000000 0.000000
-0.009067 0.004604 0.000000
0.004604 -0.013996 0.000000
0.000000 0.000000 0.000000
0.000740 -0.007889 0.000000
-0.007889 0.014676 0.000000
0.000000 0.000000 0.000000
-0.001022 -0.000341 0.000000
-0.000341 0.022191 0.000000
0.000000 0.000000 0.000000
-0.000026 -0.003821 0.000000
-0.003821 0.002648 0.000000
0.000000 0.000000 0.000000
-0.009423 0.002926 0.000000
0.002926 0.007514 0.000000
0.000000 0.000000 0.000000
0.004492 0.004842 0.000000
0.004842 -0.003282 0.000000
0.000000 0.000000 0.000000
0.011959 0.000262 0.000000
0.000262 -0.003574 0.000000
0.000000 0.000000 0.000000
-0.004912 0.000430 0.000000
0.000430 0.014161 0.000000
0.000000 0.000000 0.000000
0.007412 0.001646 0.000000
0.001646 0.007338 0.000000
0.000000 0.000000 0.000000
0.008520 -0.000377 0.000000
-0.000377 0.020528 0.000000
0.000000 0.000000 0.000000
-0.003285 0.010886 0.000000
0.010886 -0.005364 0.000000
0.000000 0.000000 0.000000
0.010594 0.002837 0.000000
0.002837 0.016953 0.000000
0.000000 0.000000 0.000000
0.003057 -0.001954 0.000000
-0.001954 0.015085 0.000000
0.000000 0.000000 0.000000
-0.000773 0.001578 0.000000
0.001578 0.009820 0.000000
0.000000 0.000000 0.000000
0.005928 -0.012059 0.000000
-0.012059 0.014286 0.000000
0.000000 0.000000 0.000000
0.022585 -0.008498 0.000000
-0.008498 0.015794 0.000000
0.000000 0.000000 0.000000
-0.003153 -0.002435 0.000000
-0.002435 -0.013728 0.000000
0.000000 0.000000 0.000000
-0.014827 -0.008571 0.000000
-0.008571 0.019964 0.000000
0.000000 0.000000 0.000000
0.029507 -0.005918 0.000000
-0.005918 0.013127 0.000000
0.000000 0.000000 0.000000
0.004474 0.003722 0.000000
0.003722 0.010728 0.000000
0.000000 0.000000 0.000000
-0.023648 0.005463 0.000000
0.005463 -0.008581 0.000000
0.000000 0.000000 0.000000
-0.025105 0.007343 0.000000
0.007343 -0.002481 0.000000
0.000000 0.000000 0.000000
0.003259 -0.006870 0.000000
-0.006870 0.003956 0.000000
0.000000 0.000000 0.000000
-0.007266 0.001821 0.000000
0.001821 0.000021 0.000000
0.000000 0.000000 0.000000
-0.017954 0.022210 0.000000
0.022210 -0.050830 0.000000
0.000000 0.000000 0.000000
0.003683 0.000882 0.000000
0.000882 -0.007815 0.000000
0.000000 0.000000 0.000000
-0.011868 0.005496 0.000000
0.005496 -0.006693 0.000000
0.000000 0.000000 0.000000
0.010384 0.006491 0.000000
0.006491 -0.010212 0.000000
0.000000 0.000000 0.000000
0.015541 -0.010583 0.000000
-0.010583 0.007560 0.000000
0.000000 0.000000 0.000000
0.011890 -0.005916 0.000000
-0.005916 -0.018583 0.000000
0.000000 0.000000 0.000000
0.008886 0.001760 0.000000
0.001760 0.005816 0.000000
0.000000 0.000000 0.000000
0.002113 -0.001043 0.000000
-0.001043 -0.001592 0.000000
0.000000 0.000000 0.000000
-0.036157 0.000574 0.000000
0.000574 -0.032848 0.000000
0.000000 0.000000 0.000000
-0.016277 -0.008041 0.000000
-0.008041 0.006328 0.000000
0.000000 0.000000 0.000000
0.005363 -0.002852 0.000000
-0.002852 0.002279 0.000000
0.000000 0.000000 0.000000
-0.000812 0.000889 0.000000
0.000889 -0.003773 0.000000
0.000000 0.000000 0.000000
0.003278 -0.004849 0.000000
-0.004849 0.003208 0.000000
0.000000 0.000000 0.000000
-0.006488 0.003946 0.000000
0.003946 -0.014553 0.000000
0.000000 0.000000 0.000000
-0.008898 0.006491 0.000000
0.006491 0.014963 0.000000
0.000000 0.000000 0.000000
-0.017109 -0.002400 0.000000
-0.002400 0.003243 0.000000
0.000000 0.000000 0.000000
-0.026499 -0.004418 0.000000
-0.004418 -0.011863 0.000000
0.000000 0.000000 0.000000
0.005664 -0.005958 0.000000
-0.005958 -0.027083 0.000000
0.000000 0.000000 0.000000
-0.049821 0.000437 0.000000
0.000437 0.005209 0.000000
0.000000 0.000000 0.000000
0.003672 0.003746 0.000000
0.003746 0.017709 0.000000
0.000000 0.000000 0.000000
0.005082 -0.004939 0.000000
-0.004939 -0.024050 0.000000
0.000000 0.000000 0.000000
-0.004452 0.019858 0.000000
0.019858 0.012875 0.000000
0.000000 0.000000 0.000000
0.012578 0.006448 0.000000
0.006448 0.020318 0.000000
0.000000 0.000000 0.000000
-0.010559 -0.018103 0.000000
-0.018103 -0.002463 0.000000
0.000000 0.000000 0.000000
-0.012564 -0.012206 0.000000
-0.012206 -0.018700 0.000000
0.000000 0.000000 0.000000
-0.004532 0.003165 0.000000
0.003165 0.031577 0.000000
0.000000 0.000000 0.000000
0.000024 -0.005470 0.000000
-0.005470 -0.000075 0.000000
0.000000 0.000000 0.000000
-0.006023 -0.003055 0.000000
-0.003055 -0.005193 0.000000
0.000000 0.000000 0.000000
0.002130 -0.003200 0.000000
-0.003200 0.007824 0.000000
0.000000 0.000000 0.000000
0.036182 -0.011238 0.000000
-0.011238 0.019595 0.000000
0.000000 0.000000 0.000000
-0.003976 0.006438 0.000000
0.006438 -0.005802 0.000000
0.000000 0.000000 0.000000
-0.004516 0.001167 0.000000
0.001167 0.029072 0.000000
0.000000 0.000000 0.000000
0.010341 0.003067 0.000000
0.003067 0.008495 0.000000
0.000000 0.000000 0.000000
0.009900 -0.004038 0.000000
-0.004038 0.002825 0.000000
0.000000 0.000000 0.000000
-0.001903 -0.009214 0.000000
-0.009214 0.019537 0.000000
0.000000 0.000000 0.000000
-0.007020 -0.009099 0.000000
-0.009099 -0.011125 0.000000
0.000000 0.000000 0.000000
0.002445 -0.000574 0.000000
-0.000574 -0.003855 0.000000
0.000000 0.000000 0.000000
0.002839 -0.003639 0.000000
-0.003639 0.020252 0.000000
0.000000 0.000000 0.000000
-0.014674 0.006645 0.000000
0.006645 -0.024340 0.000000
0.000000 0.000000 0.000000
0.010457 0.003053 0.000000
0.003053 0.008020 0.000000
0.000000 0.000000 0.000000
0.025010 0.007229 0.000000
0.007229 0.031372 0.000000
0.000000 0.000000 0.000000
-0.007133 -0.010229 0.000000
-0.010229 0.003124 0.000000
0.000000 0.000000 0.000000
-0.012510 -0.000852 0.000000
-0.000852 0.002540 0.000000
0.000000 0.000000 0.000000
-0.008838 0.003135 0.000000
0.003135 -0.004154 0.000000
0.000000 0.000000 0.000000
0.034329 0.024745 0.000000
0.024745 0.005341 0.000000
0.000000 0.000000 0.000000
0.000402 -0.000172 0.000000
-0.000172 -0.007103 0.000000
0.000000 0.000000 0.000000
-0.006629 0.008169 0.000000
0.008169 0.014576 0.000000
0.000000 0.000000 0.000000
0.021154 -0.010754 0.000000
-0.010754 0.024236 0.000000
0.000000 0.000000 0.000000
-0.008561 0.002479 0.000000
0.002479 -0.030015 0.000000
0.000000 0.000000 0.000000
0.009710 -0.001160 0.000000
-0.001160 0.019512 0.000000
0.000000 0.000000 0.000000
0.004409 -0.000625 0.000000
-0.000625 0.009205 0.000000
0.000000 0.000000 0.000000
-0.002553 0.010315 0.000000
0.010315 -0.006583 0.000000
0.000000 0.000000 0.000000
0.009301 -0.001664 0.000000
-0.001664 0.020730 0.000000
0.000000 0.000000 0.000000
0.005363 0.004093 0.000000
0.004093 0.003635 0.000000
0.000000 0.000000 0.000000
-0.009164 -0.022258 0.000000
-0.022258 -0.001798 0.000000
0.000000 0.000000 0.000000
0.014842 0.008903 0.000000
0.008903 0.006038 0.000000
0.000000 0.000000 0.000000
-0.017905 -0.007991 0.000000
-0.007991 -0.010367 0.000000
0.000000 0.000000 0.000000
0.013283 -0.010258 0.000000
-0.010258 0.002247 0.000000
0.000000 0.000000 0.000000
0.005867 -0.000532 0.000000
-0.000532 -0.027546 0.000000
0.000000 0.000000 0.000000
-0.028229 0.014939 0.000000
0.014939 -0.015171 0.000000
0.000000 0.000000 0.000000
-0.017131 -0.006563 0.000000
-0.006563 0.011248 0.000000
0.000000 0.000000 0.000000
0.012611 0.003767 0.000000
0.003767 -0.008287 0.000000
0.000000 0.000000 0.000000
-0.005315 -0.003605 0.000000
-0.003605 -0.012564 0.000000
0.000000 0.000000 0.000000
-0.013753 0.000081 0.000000
0.000081 0.013357 0.000000
0.000000 0.000000 0.000000
0.061593 -0.002066 0.000000
-0.002066 0.005737 0.000000
0.000000 0.000000 0.000000
0.010411 -0.004555 0.000000
-0.004555 0.029631 0.000000
0.000000 0.000000 0.000000
0.009907 -0.002047 0.000000
-0.002047 -0.003876 0.000000
0.000000 0.000000 0.000000
0.005392 0.001620 0.000000
0.001620 0.013708 0.000000
0.000000 0.000000 0.000000
-0.015279 -0.011135 0.000000
-0.011135 0.000980 0.000000
0.000000 0.000000 0.000000
0.007544 -0.000690 0.000000
-0.000690 0.011976 0.000000
0.000000 0.000000 0.000000
0.002903 -0.000166 0.000000
-0.000166 0.015093 0.000000
0.000000 0.000000 0.000000
-0.007102 0.001407 0.000000
0.001407 -0.022973 0.000000
0.000000 0.000000 0.000000
-0.009393 -0.000443 0.000000
-0.000443 -0.011243 0.000000
0.000000 0.000000 0.000000
-0.004587 0.010731 0.000000
0.010731 0.000813 0.000000
0.000000 0.000000 0.000000
-0.002455 0.003379 0.000000
0.003379 0.004513 0.000000
0.000000 0.000000 0.000000
0.003626 0.003954 0.000000
0.003954 -0.009687 0.000000
0.000000 0.000000 0.000000
-0.000236 0.007752 0.000000
0.007752 -0.001965 0.000000
0.000000 0.000000 0.000000
-0.009243 -0.009368 0.000000
-0.009368 0.021942 0.000000
0.000000 0.000000 0.000000
-0.009234 -0.001378 0.000000
-0.001378 0.008013 0.000000
0.000000 0.000000 0.000000
-0.040448 -0.010962 0.000000
-0.010962 -0.005126 0.000000
0.000000 0.000000 0.000000
0.020771 -0.007910 0.000000
-0.007910 0.030557 0.000000
0.000000 0.000000 0.000000
-0.007975 0.003608 0.000000
0.003608 0.021846 0.000000
0.000000 0.000000 0.000000
-0.003635 0.002773 0.000000
0.002773 0.011406 0.000000
0.000000 0.000000 0.000000
-0.017772 -0.015004 0.000000
-0.015004 0.013805 0.000000
0.000000 0.000000 0.000000
0.001362 0.000884 0.000000
0.000884 0.011371 0.000000
0.000000 0.000000 0.000000
0.012003 0.015414 0.000000
0.015414 -0.005570 0.000000
0.000000 0.000000 0.000000
-0.034877 -0.014967 0.000000
-0.014967 -0.011510 0.000000
0.000000 0.000000 0.000000
0.003184 0.009209 0.000000
0.009209 0.009697 0.000000
0.000000 0.000000 0.000000
0.010966 -0.024356 0.000000
-0.024356 -0.001027 0.000000
0.000000 0.000000 0.000000
0.010381 -0.000140 0.000000
-0.000140 0.016179 0.000000
0.000000 0.000000 0.000000
0.000199 0.027224 0.000000
0.027224 -0.005244 0.000000
0.000000 0.000000 0.000000
0.013581 0.011814 0.000000
0.011814 -0.003288 0.000000
0.000000 0.000000 0.000000
-0.004382 -0.003053 0.000000
-0.003053 0.010939 0.000000
0.000000 0.000000 0.000000
0.022895 -0.005601 0.000000
-0.005601 -0.011512 0.000000
0.000000 0.000000 0.000000
0.003185 0.007949 0.000000
0.007949 0.003518 0.000000
0.000000 0.000000 0.000000
0.004877 0.006827 0.000000
0.006827 -0.025045 0.000000
0.000000 0.000000 0.000000
-0.007770 0.003787 0.000000
0.003787 0.002224 0.000000
0.000000 0.000000 0.000000
0.010393 0.006392 0.000000
0.006392 -0.004260 0.000000
0.000000 0.000000 0.000000
0.004297 -0.010600 0.000000
-0.010600 0.012476 0.000000
0.000000 0.000000 0.000000
-0.005761 -0.000211 0.000000
-0.000211 0.001121 0.000000
0.000000 0.000000 0.000000
-0.005271 -0.008404 0.000000
-0.008404 -0.015621 0.000000
0.000000 0.000000 0.000000
-0.027657 -0.000802 0.000000
-0.000802 -0.008590 0.000000
0.000000 0.000000 0.000000
0.005317 0.002334 0.000000
0.002334 -0.005191 0.000000
0.000000 0.000000 0.000000
-0.011466 -0.000164 0.000000
-0.000164 0.033097 0.000000
0.000000 0.000000 0.000000
-0.021015 -0.007989 0.000000
-0.007989 -0.032764 0.000000
0.000000 0.000000 0.000000
-0.008534 -0.001524 0.000000
-0.001524 -0.009317 0.000000
0.000000 0.000000 0.000000
-0.026802 -0.015516 0.000000
-0.015516 -0.006475 0.000000
0.000000 0.000000 0.000000
-0.016336 0.010143 0.000000
0.010143 -0.004903 0.000000
0.000000 0.000000 0.000000
-0.023178 -0.008156 0.000000
-0.008156 0.018679 0.000000
0.000000 0.000000 0.000000
-0.016904 -0.002666 0.000000
-0.002666 0.002936 0.000000
0.000000 0.000000 0.000000
-0.012038 0.006730 0.000000
0.006730 0.003433 0.000000
0.000000 0.000000 0.000000
0.002154 -0.016714 0.000000
-0.016714 0.000076 0.000000
0.000000 0.000000 0.000000
0.017602 -0.009867 0.000000
-0.009867 -0.006873 0.000000
0.000000 0.000000 0.000000
0.006279 0.003030 0.000000
0.003030 -0.006362 0.000000
0.000000 0.000000 0.000000
0.017311 -0.008660 0.000000
-0.008660 0.014794 0.000000
0.000000 0.000000 0.000000
0.013897 -0.009528 0.000000
-0.009528 -0.024835 0.000000
0.000000 0.000000 0.000000
-0.004763 0.004838 0.000000
0.004838 -0.015994 0.000000
0.000000 0.000000 0.000000
0.005331 0.000431 0.000000
0.000431 -0.000630 0.000000
0.000000 0.000000 0.000000
-0.001108 -0.003589 0.000000
-0.003589 -0.013784 0.000000
0.000000 0.000000 0.000000
0.001445 -0.000989 0.000000
-0.000989 0.011913 0.000000
0.000000 0.000000 0.000000
0.004986 -0.004459 0.000000
-0.004459 0.010600 0.000000
0.000000 0.000000 0.000000
-0.001300 0.004714 0.000000
0.004714 -0.012636 0.000000
0.000000 0.000000 0.000000
0.001840 0.003469 0.000000
0.003469 -0.007856 0.000000
0.000000 0.000000 0.000000
0.001660 0.000607 0.000000
0.000607 -0.000856 0.000000
0.000000 0.000000 0.000000
-0.032239 0.022353 0.000000
0.022353 -0.001995 0.000000
0.000000 0.000000 0.000000
-0.005470 0.000606 0.000000
0.000606 0.020086 0.000000
0.000000 0.000000 0.000000
-0.004911 0.005968 0.000000
0.005968 -0.004240 0.000000
0.000000 0.000000 0.000000
-0.025115 0.014915 0.000000
0.014915 -0.002460 0.000000
0.000000 0.000000 0.000000
-0.002780 -0.005605 0.000000
-0.005605 -0.016800 0.000000
0.000000 0.000000 0.000000
-0.034677 -0.009827 0.000000
-0.009827 -0.028702 0.000000
0.000000 0.000000 0.000000
0.011886 -0.004573 0.000000
-0.004573 -0.008057 0.000000
0.000000 0.000000 0.000000
0.002729 -0.009638 0.000000
-0.009638 0.000618 0.000000
0.000000 0.000000 0.000000
-0.014496 -0.001106 0.000000
-0.001106 -0.019901 0.000000
0.000000 0.000000 0.000000
-0.000314 -0.003222 0.000000
-0.003222 -0.007706 0.000000
0.000000 0.000000 0.000000
0.025601 0.050088 0.000000
0.050088 0.008881 0.000000
0.000000 0.000000 0.000000
-0.000815 -0.014521 0.000000
-0.014521 0.019086 0.000000
0.000000 0.000000 0.000000
0.012997 -0.004717 0.000000
-0.004717 0.020067 0.000000
0.000000 0.000000 0.000000
-0.014132 -0.000361 0.000000
-0.000361 0.002867 0.000000
0.000000 0.000000 0.000000
0.022801 0.046707 0.000000
0.046707 -0.019228 0.000000
0.000000 0.000000 0.000000
-0.008178 0.007456 0.000000
0.007456 -0.014934 0.000000
0.000000 0.000000 0.000000
0.001682 -0.035414 0.000000
-0.035414 0.024331 0.000000
0.000000 0.000000 0.000000
0.003438 -0.001574 0.000000
-0.001574 -0.006590 0.000000
0.000000 0.000000 0.000000
0.022604 -0.012866 0.000000
-0.012866 -0.040076 0.000000
0.000000 0.000000 0.000000
-0.008537 -0.003403 0.000000
-0.003403 -0.008027 0.000000
0.000000 0.000000 0.000000
-0.029261 0.012210 0.000000
0.012210 0.048339 0.000000
0.000000 0.000000 0.000000
-0.005193 -0.005591 0.000000
-0.005591 0.009544 0.000000
0.000000 0.000000 0.000000
0.018186 -0.000245 0.000000
-0.000245 0.018881 0.000000
0.000000 0.000000 0.000000
-0.004412 -0.003938 0.000000
-0.003938 0.002769 0.000000
0.000000 0.000000 0.000000
0.002904 -0.003698 0.000000
-0.003698 -0.003915 0.000000
0.000000 0.000000 0.000000
-0.009908 -0.001443 0.000000
-0.001443 -0.005327 0.000000
0.000000 0.000000 0.000000
0.033727 0.003985 0.000000
0.003985 0.024215 0.000000
0.000000 0.000000 0.000000
0.006958 -0.003332 0.000000
-0.003332 0.014573 0.000000
0.000000 0.000000 0.000000
0.015827 0.014419 0.000000
0.014419 0.003779 0.000000
0.000000 0.000000 0.000000
0.013255 0.011126 0.000000
0.011126 -0.005220 0.000000
0.000000 0.000000 0.000000
-0.012259 -0.001518 0.000000
-0.001518 -0.025347 0.000000
0.000000 0.000000 0.000000
0.012146 -0.015276 0.000000
-0.015276 0.020184 0.000000
0.000000 0.000000 0.000000
0.004157 -0.012456 0.000000
-0.012456 -0.008150 0.000000
0.000000 0.000000 0.000000
0.017981 0.007877 0.000000
0.007877 0.020944 0.000000
0.000000 0.000000 0.000000
-0.008606 -0.005111 0.000000
-0.005111 0.010261 0.000000
0.000000 0.000000 0.000000
0.009860 -0.001723 0.000000
-0.001723 0.016815 0.000000
0.000000 0.000000 0.000000
0.015969 -0.007309 0.000000
-0.007309 0.006312 0.000000
0.000000 0.000000 0.000000
-0.013880 -0.006985 0.000000
-0.006985 -0.022692 0.000000
0.000000 0.000000 0.000000
-0.013036 0.003200 0.000000
0.003200 -0.006160 0.000000
0.000000 0.000000 0.000000
0.023772 -0.006950 0.000000
-0.006950 0.027647 0.000000
0.000000 0.000000 0.000000
-0.002063 -0.001372 0.000000
-0.001372 -0.018283 0.000000
0.000000 0.000000 0.000000
0.004973 0.003078 0.000000
0.003078 0.011713 0.000000
0.000000 0.000000 0.000000
-0.000294 0.001985 0.000000
0.001985 0.020280 0.000000
0.000000 0.000000 0.000000
-0.017632 -0.006162 0.000000
-0.006162 0.004818 0.000000
0.000000 0.000000 0.000000
-0.020775 -0.001611 0.000000
-0.001611 -0.000484 0.000000
0.000000 0.000000 0.000000
0.001838 -0.007019 0.000000
-0.007019 0.004925 0.000000
0.000000 0.000000 0.000000
0.020176 0.001136 0.000000
0.001136 0.020856 0.000000
0.000000 0.000000 0.000000
-0.026312 -0.018165 0.000000
-0.018165 -0.005261 0.000000
0.000000 0.000000 0.000000
0.006494 -0.011723 0.000000
-0.011723 0.012632 0.000000
0.000000 0.000000 0.000000
0.003640 -0.002103 0.000000
-0.002103 -0.013057 0.000000
0.000000 0.000000 0.000000
0.016350 -0.000140 0.000000
-0.000140 0.023458 0.000000
0.000000 0.000000 0.000000
0.011704 -0.002618 0.000000
-0.002618 0.014765 0.000000
0.000000 0.000000 0.000000
-0.004963 -0.011475 0.000000
-0.011475 -0.001796 0.000000
0.000000 0.000000 0.000000
-0.004787 -0.001232 0.000000
-0.001232 -0.002582 0.000000
0.000000 0.000000 0.000000
0.000648 -0.002977 0.000000
-0.002977 -0.001907 0.000000
0.000000 0.000000 0.000000
0.011202 0.004662 0.000000
0.004662 -0.005075 0.000000
0.000000 0.000000 0.000000
-0.014952 -0.004401 0.000000
-0.004401 0.010953 0.000000
0.000000 0.000000 0.000000
0.018320 -0.002069 0.000000
-0.002069 -0.003798 0.000000
0.000000 0.000000 0.000000
0.005676 -0.002543 0.000000
-0.002543 0.023516 0.000000
0.000000 0.000000 0.000000
0.009797 0.008155 0.000000
0.008155 -0.023781 0.000000
0.000000 0.000000 0.000000
0.002379 0.004961 0.000000
0.004961 0.006987 0.000000
0.000000 0.000000 0.000000
0.014662 -0.001108 0.000000
-0.001108 0.024343 0.000000
0.000000 0.000000 0.000000
0.001314 0.004181 0.000000
0.004181 -0.005774 0.000000
0.000000 0.000000 0.000000
-0.005131 -0.002026 0.000000
-0.002026 -0.016741 0.000000
0.000000 0.000000 0.000000
-0.012622 -0.000116 0.000000
-0.000116 0.027763 0.000000
0.000000 0.000000 0.000000
-0.011459 0.004459 0.000000
0.004459 0.004739 0.000000
0.000000 0.000000 0.000000
0.009609 0.004837 0.000000
0.004837 0.026721 0.000000
0.000000 0.000000 0.000000
0.004484 0.002382 0.000000
0.002382 0.001862 0.000000
0.000000 0.000000 0.000000
-0.018876 0.001353 0.000000
0.001353 0.004926 0.000000
0.000000 0.000000 0.000000
0.009315 -0.010143 0.000000
-0.010143 -0.007996 0.000000
0.000000 0.000000 0.000000
-0.000732 0.000173 0.000000
0.000173 -0.001334 0.000000
0.000000 0.000000 0.000000
0.003923 -0.003354 0.000000
-0.003354 -0.004186 0.000000
0.000000 0.000000 0.000000
-0.013723 0.002744 0.000000
0.002744 -0.005508 0.000000
0.000000 0.000000 0.000000
-0.012280 0.004286 0.000000
0.004286 0.005860 0.000000
0.000000 0.000000 0.000000
-0.000180 0.003193 0.000000
0.003193 0.009671 0.000000
0.000000 0.000000 0.000000
0.003719 -0.006171 0.000000
-0.006171 0.015190 0.000000
0.000000 0.000000 0.000000
0.007452 0.012726 0.000000
0.012726 0.018050 0.000000
0.000000 0.000000 0.000000
-0.011375 0.013129 0.000000
0.013129 0.001120 0.000000
0.000000 0.000000 0.000000
-0.015070 0.005866 0.000000
0.005866 -0.023420 0.000000
0.000000 0.000000 0.000000
-0.000388 -0.003536 0.000000
-0.003536 0.002771 0.000000
0.000000 0.000000 0.000000
-0.004821 -0.004051 0.000000
-0.004051 -0.018782 0.000000
0.000000 0.000000 0.000000
-0.007344 0.013316 0.000000
0.013316 -0.017412 0.000000
0.000000 0.000000 0.000000
-0.027456 -0.002894 0.000000
-0.002894 -0.024728 0.000000
0.000000 0.000000 0.000000
-0.020285 0.001332 0.000000
0.001332 -0.029124 0.000000
0.000000 0.000000 0.000000
-0.005548 -0.001201 0.000000
-0.001201 0.026176 0.000000
0.000000 0.000000 0.000000
-0.011284 0.011665 0.000000
0.011665 0.011397 0.000000
0.000000 0.000000 0.000000
0.020659 0.006561 0.000000
0.006561 0.011981 0.000000
0.000000 0.000000 0.000000
0.014200 0.007963 0.000000
0.007963 0.019800 0.000000
0.000000 0.000000 0.000000
0.003765 0.004076 0.000000
0.004076 0.014510 0.000000
0.000000 0.000000 0.000000
0.000087 0.004228 0.000000
0.004228 0.017856 0.000000
0.000000 0.000000 0.000000
-0.008006 0.004740 0.000000
0.004740 -0.028283 0.000000
0.000000 0.000000 0.000000
-0.015484 0.004296 0.000000
0.004296 -0.005401 0.000000
0.000000 0.000000 0.000000
0.022209 -0.003141 0.000000
-0.003141 0.002711 0.000000
0.000000 0.000000 0.000000
0.018816 0.012101 0.000000
0.012101 0.022940 0.000000
0.000000 0.000000 0.000000
-0.003808 -0.008473 0.000000
-0.008473 -0.007053 0.000000
0.000000 0.000000 0.000000
-0.004929 0.003104 0.000000
0.003104 -0.012229 0.000000
0.000000 0.000000 0.000000
-0.007470 -0.007683 0.000000
-0.007683 0.003168 0.000000
0.000000 0.000000 0.000000
0.009098 0.006052 0.000000
0.006052 -0.001942 0.000000
0.000000 0.000000 0.000000
0.016107 0.002706 0.000000
0.002706 0.018852 0.000000
0.000000 0.000000 0.000000
0.000040 0.001420 0.000000
0.001420 -0.000689 0.000000
0.000000 0.000000 0.000000
-0.027122 -0.002413 0.000000
-0.002413 -0.013630 0.000000
0.000000 0.000000 0.000000
-0.007471 -0.010988 0.000000
-0.010988 0.006317 0.000000
0.000000 0.000000 0.000000
-0.002413 0.011907 0.000000
0.011907 -0.013311 0.000000
0.000000 0.000000 0.000000
-0.000441 0.010118 0.000000
0.010118 0.008530 0.000000
0.000000 0.000000 0.000000
-0.016963 0.004870 0.000000
0.004870 -0.023820 0.000000
0.000000 0.000000 0.000000
0.015889 -0.004209 0.000000
-0.004209 0.023734 0.000000
0.000000 0.000000 0.000000
0.014311 -0.006522 0.000000
-0.006522 0.014842 0.000000
0.000000 0.000000 0.000000
0.003799 -0.021273 0.000000
-0.021273 0.002916 0.000000
0.000000 0.000000 0.000000
0.019508 -0.007006 0.000000
-0.007006 0.001504 0.000000
0.000000 0.000000 0.000000
0.016841 -0.011462 0.000000
-0.011462 0.040430 0.000000
0.000000 0.000000 0.000000
-0.016503 0.001807 0.000000
0.001807 -0.017651 0.000000
0.000000 0.000000 0.000000
-0.012346 0.000912 0.000000
0.000912 -0.017423 0.000000
0.000000 0.000000 0.000000
0.000429 0.008918 0.000000
0.008918 -0.002554 0.000000
0.000000 0.000000 0.000000
0.002589 0.001293 0.000000
0.001293 -0.019043 0.000000
0.000000 0.000000 0.000000
-0.016866 -0.010720 0.000000
-0.010720 -0.013044 0.000000
0.000000 0.000000 0.000000
-0.007556 -0.005917 0.000000
-0.005917 0.005306 0.000000
0.000000 0.000000 0.000000
0.014584 -0.003972 0.000000
-0.003972 0.025169 0.000000
0.000000 0.000000 0.000000
-0.032993 0.024974 0.000000
0.024974 -0.062668 0.000000
0.000000 0.000000 0.000000
0.020985 0.049575 0.000000
0.049575 0.043136 0.000000
0.000000 0.000000 0.000000
0.003462 0.002588 0.000000
0.002588 0.012591 0.000000
0.000000 0.000000 0.000000
-0.000808 0.002034 0.000000
0.002034 0.003692 0.000000
0.000000 0.000000 0.000000
0.004064 0.006171 0.000000
0.006171 -0.012447 0.000000
0.000000 0.000000 0.000000
-0.002980 -0.001617 0.000000
-0.001617 0.015529 0.000000
0.000000 0.000000 0.000000
-0.011514 -0.001988 0.000000
-0.001988 -0.015830 0.000000
0.000000 0.000000 0.000000
0.015445 0.011033 0.000000
0.011033 0.020039 0.000000
0.000000 0.000000 0.000000
0.004815 0.009180 0.000000
0.009180 -0.002297 0.000000
0.000000 0.000000 0.000000
0.009991 0.004865 0.000000
0.004865 0.020222 0.000000
0.000000 0.000000 0.000000
0.000795 0.001442 0.000000
0.001442 -0.002121 0.000000
0.000000 0.000000 0.000000
0.011532 0.015199 0.000000
0.015199 -0.020028 0.000000
0.000000 0.000000 0.000000
0.008426 0.020153 0.000000
0.020153 0.008778 0.000000
0.000000 0.000000 0.000000
0.004644 0.000645 0.000000
0.000645 -0.001618 0.000000
0.000000 0.000000 0.000000
-0.000919 0.020523 0.000000
0.020523 0.017055 0.000000
0.000000 0.000000 0.000000
-0.034363 0.031660 0.000000
0.031660 -0.011810 0.000000
0.000000 0.000000 0.000000
-0.007647 0.001436 0.000000
0.001436 -0.012901 0.000000
0.000000 0.000000 0.000000
0.006614 0.004830 0.000000
0.004830 0.002638 0.000000
0.000000 0.000000 0.000000
-0.022217 -0.003068 0.000000
-0.003068 -0.035840 0.000000
0.000000 0.000000 0.000000
0.012868 -0.014822 0.000000
-0.014822 0.001361 0.000000
0.000000 0.000000 0.000000
0.002436 0.007530 0.000000
0.007530 -0.003567 0.000000
0.000000 0.000000 0.000000
-0.025220 -0.006880 0.000000
-0.006880 -0.018204 0.000000
0.000000 0.000000 0.000000
-0.016680 0.014669 0.000000
0.014669 -0.013204 0.000000
0.000000 0.000000 0.000000
-0.007007 0.001649 0.000000
0.001649 -0.002345 0.000000
0.000000 0.000000 0.000000
-0.005032 -0.004103 0.000000
-0.004103 -0.013127 0.000000
0.000000 0.000000 0.000000
0.011550 -0.010173 0.000000
-0.010173 0.006799 0.000000
0.000000 0.000000 0.000000
0.004456 0.002761 0.000000
0.002761 0.006443 0.000000
0.000000 0.000000 0.000000
0.007844 -0.000349 0.000000
-0.000349 -0.000640 0.000000
0.000000 0.000000 0.000000
-0.014746 -0.002867 0.000000
-0.002867 -0.005422 0.000000
0.000000 0.000000 0.000000
0.005764 -0.014108 0.000000
-0.014108 0.012849 0.000000
0.000000 0.000000 0.000000
0.033690 0.027363 0.000000
0.027363 -0.015328 0.000000
0.000000 0.000000 0.000000
-0.060611 0.011245 0.000000
0.011245 -0.026209 0.000000
0.000000 0.000000 0.000000
-0.017871 0.001135 0.000000
0.001135 -0.001831 0.000000
0.000000 0.000000 0.000000
-0.010820 -0.003203 0.000000
-0.003203 -0.002971 0.000000
0.000000 0.000000 0.000000
0.002993 -0.004535 0.000000
-0.004535 0.017445 0.000000
0.000000 0.000000 0.000000
-0.003666 0.008856 0.000000
0.008856 -0.001674 0.000000
0.000000 0.000000 0.000000
-0.000569 -0.005900 0.000000
-0.005900 0.000614 0.000000
0.000000 0.000000 0.000000
0.007040 -0.000703 0.000000
-0.000703 0.012553 0.000000
0.000000 0.000000 0.000000
0.011982 0.011886 0.000000
0.011886 0.015059 0.000000
0.000000 0.000000 0.000000
0.006110 0.008034 0.000000
0.008034 -0.010237 0.000000
0.000000 0.000000 0.000000
-0.016489 0.004625 0.000000
0.004625 0.015687 0.000000
0.000000 0.000000 0.000000
-0.009174 -0.001877 0.000000
-0.001877 -0.011835 0.000000
0.000000 0.000000 0.000000
-0.002158 0.008832 0.000000
0.008832 0.016298 0.000000
0.000000 0.000000 0.000000
-0.000529 0.006246 0.000000
0.006246 0.000651 0.000000
0.000000 0.000000 0.000000
-0.011211 -0.001634 0.000000
-0.001634 -0.026388 0.000000
0.000000 0.000000 0.000000
-0.011326 -0.000503 0.000000
-0.000503 -0.000911 0.000000
0.000000 0.000000 0.000000
-0.005784 -0.009959 0.000000
-0.009959 -0.025772 0.000000
0.000000 0.000000 0.000000
-0.008022 -0.010229 0.000000
-0.010229 0.007477 0.000000
0.000000 0.000000 0.000000
0.000184 -0.007026 0.000000
-0.007026 -0.002239 0.000000
0.000000 0.000000 0.000000
-0.024580 0.000630 0.000000
0.000630 -0.010089 0.000000
0.000000 0.000000 0.000000
-0.003004 -0.009649 0.000000
-0.009649 0.016307 0.000000
0.000000 0.000000 0.000000
-0.008564 0.003275 0.000000
0.003275 0.007560 0.000000
0.000000 0.000000 0.000000
0.003320 -0.007980 0.000000
-0.007980 0.017331 0.000000
0.000000 0.000000 0.000000
0.004565 0.000825 0.000000
0.000825 0.004372 0.000000
0.000000 0.000000 0.000000
0.003821 -0.007771 0.000000
-0.007771 0.018213 0.000000
0.000000 0.000000 0.000000
0.010764 -0.001700 0.000000
-0.001700 0.019464 0.000000
0.000000 0.000000 0.000000
0.004762 -0.001465 0.000000
-0.001465 0.014232 0.000000
0.000000 0.000000 0.000000
0.002624 -0.002301 0.000000
-0.002301 -0.014720 0.000000
0.000000 0.000000 0.000000
0.024969 -0.005734 0.000000
-0.005734 0.007800 0.000000
0.000000 0.000000 0.000000
0.005982 0.005594 0.000000
0.005594 0.003934 0.000000
0.000000 0.000000 0.000000
0.020033 0.000752 0.000000
0.000752 0.019811 0.000000
0.000000 0.000000 0.000000
0.001916 0.000605 0.000000
0.000605 0.003463 0.000000
0.000000 0.000000 0.000000
-0.011491 0.002374 0.000000
0.002374 -0.004862 0.000000
0.000000 0.000000 0.000000
0.002727 0.004924 0.000000
0.004924 0.006004 0.000000
0.000000 0.000000 0.000000
-0.009137 0.008451 0.000000
0.008451 0.010909 0.000000
0.000000 0.000000 0.000000
0.004443 -0.008225 0.000000
-0.008225 -0.008506 0.000000
0.000000 0.000000 0.000000
0.010294 -0.006756 0.000000
-0.006756 0.003995 0.000000
0.000000 0.000000 0.000000
-0.011878 -0.002021 0.000000
-0.002021 -0.020858 0.000000
0.000000 0.000000 0.000000
-0.007429 -0.013636 0.000000
-0.013636 -0.010271 0.000000
0.000000 0.000000 0.000000
0.000531 -0.005524 0.000000
-0.005524 0.017220 0.000000
0.000000 0.000000 0.000000
-0.014018 -0.002745 0.000000
-0.002745 0.005138 0.000000
0.000000 0.000000 0.000000
-0.015738 0.011246 0.000000
0.011246 -0.025494 0.000000
0.000000 0.000000 0.000000
0.013219 0.003039 0.000000
0.003039 0.007432 0.000000
0.000000 0.000000 0.000000
-0.009325 0.000521 0.000000
0.000521 -0.001725 0.000000
0.000000 0.000000 0.000000
-0.035437 -0.011639 0.000000
-0.011639 -0.016628 0.000000
0.000000 0.000000 0.000000
0.005263 -0.009350 0.000000
-0.009350 -0.005333 0.000000
0.000000 0.000000 0.000000
0.052771 0.004363 0.000000
0.004363 0.075612 0.000000
0.000000 0.000000 0.000000
0.000340 0.001028 0.000000
0.001028 -0.005973 0.000000
0.000000 0.000000 0.000000
-0.007386 0.001024 0.000000
0.001024 -0.001131 0.000000
0.000000 0.000000 0.000000
-0.029667 -0.001134 0.000000
-0.001134 0.012099 0.000000
0.000000 0.000000 0.000000
-0.003137 0.008293 0.000000
0.008293 0.007396 0.000000
0.000000 0.000000 0.000000
-0.020352 -0.000277 0.000000
-0.000277 -0.017334 0.000000
0.000000 0.000000 0.000000
0.008465 0.002871 0.000000
0.002871 -0.011037 0.000000
0.000000 0.000000 0.000000
-0.011573 0.000767 0.000000
0.000767 -0.003816 0.000000
0.000000 0.000000 0.000000
-0.012719 0.012800 0.000000
0.012800 0.012179 0.000000
0.000000 0.000000 0.000000
-0.004593 0.010174 0.000000
0.010174 -0.022580 0.000000
0.000000 0.000000 0.000000
0.001903 -0.009848 0.000000
-0.009848 0.030112 0.000000
0.000000 0.000000 0.000000
0.022790 -0.011643 0.000000
-0.011643 -0.034197 0.000000
0.000000 0.000000 0.000000
-0.009434 -0.032903 0.000000
-0.032903 0.024350 0.000000
0.000000 0.000000 0.000000
-0.008912 -0.019575 0.000000
-0.019575 0.035051 0.000000
0.000000 0.000000 0.000000
-0.001800 -0.022689 0.000000
-0.022689 -0.005448 0.000000
0.000000 0.000000 0.000000
-0.026053 -0.003425 0.000000
-0.003425 0.019710 0.000000
0.000000 0.000000 0.000000
0.015987 0.015512 0.000000
0.015512 0.002802 0.000000
0.000000 0.000000 0.000000
-0.028658 -0.009669 0.000000
-0.009669 -0.012431 0.000000
0.000000 0.000000 0.000000
0.017063 0.001544 0.000000
0.001544 0.004426 0.000000
0.000000 0.000000 0.000000
0.002581 -0.004825 0.000000
-0.004825 -0.043350 0.000000
0.000000 0.000000 0.000000
0.002234 0.004363 0.000000
0.004363 -0.007051 0.000000
0.000000 0.000000 0.000000
-0.012627 0.018808 0.000000
0.018808 0.002805 0.000000
0.000000 0.000000 0.000000
0.008305 -0.000537 0.000000
-0.000537 -0.015500 0.000000
0.000000 0.000000 0.000000
-0.000178 0.006499 0.000000
0.006499 0.001669 0.000000
0.000000 0.000000 0.000000
0.007154 0.003434 0.000000
0.003434 -0.005722 0.000000
0.000000 0.000000 0.000000
-0.006798 -0.002418 0.000000
-0.002418 0.023515 0.000000
0.000000 0.000000 0.000000
-0.002537 -0.000013 0.000000
-0.000013 0.021411 0.000000
0.000000 0.000000 0.000000
-0.001866 0.003744 0.000000
0.003744 0.027050 0.000000
0.000000 0.000000 0.000000
-0.008378 -0.006327 0.000000
-0.006327 0.018632 0.000000
0.000000 0.000000 0.000000
0.021738 0.020229 0.000000
0.020229 -0.022584 0.000000
0.000000 0.000000 0.000000
0.000454 0.010589 0.000000
0.010589 0.030597 0.000000
0.000000 0.000000 0.000000
0.007979 0.005192 0.000000
0.005192 -0.002070 0.000000
0.000000 0.000000 0.000000
0.005291 0.009971 0.000000
0.009971 -0.012481 0.000000
0.000000 0.000000 0.000000
0.002677 0.005071 0.000000
0.005071 0.009248 0.000000
0.000000 0.000000 0.000000
-0.002689 0.001115 0.000000
0.001115 0.007062 0.000000
0.000000 0.000000 0.000000
-0.001600 -0.004109 0.000000
-0.004109 -0.007236 0.000000
0.000000 0.000000 0.000000
0.000943 -0.003176 0.000000
-0.003176 0.001797 0.000000
0.000000 0.000000 0.000000
-0.002352 0.001275 0.000000
0.001275 -0.012089 0.000000
0.000000 0.000000 0.000000
0.010183 0.000260 0.000000
0.000260 0.003635 0.000000
0.000000 0.000000 0.000000
0.010310 -0.011610 0.000000
-0.011610 -0.001918 0.000000
0.000000 0.000000 0.000000
0.018025 0.018151 0.000000
0.018151 0.000114 0.000000
0.000000 0.000000 0.000000
-0.003535 -0.002095 0.000000
-0.002095 -0.009317 0.000000
0.000000 0.000000 0.000000
0.002133 0.000334 0.000000
0.000334 -0.017916 0.000000
0.000000 0.000000 0.000000
0.007866 -0.000414 0.000000
-0.000414 -0.002142 0.000000
0.000000 0.000000 0.000000
-0.072456 -0.006086 0.000000
-0.006086 -0.022897 0.000000
0.000000 0.000000 0.000000
0.007563 -0.000053 0.000000
-0.000053 -0.002998 0.000000
0.000000 0.000000 0.000000
0.028506 0.001907 0.000000
0.001907 0.007268 0.000000
0.000000 0.000000 0.000000
-0.000203 -0.002373 0.000000
-0.002373 -0.036199 0.000000
0.000000 0.000000 0.000000
0.008836 0.004345 0.000000
0.004345 -0.003208 0.000000
0.000000 0.000000 0.000000
0.007017 0.004874 0.000000
0.004874 0.026447 0.000000
0.000000 0.000000 0.000000
-0.012844 0.025581 0.000000
0.025581 0.029645 0.000000
0.000000 0.000000 0.000000
0.020536 0.003958 0.000000
0.003958 -0.029339 0.000000
0.000000 0.000000 0.000000
-0.003833 -0.002770 0.000000
-0.002770 0.007840 0.000000
0.000000 0.000000 0.000000
-0.019233 -0.001864 0.000000
-0.001864 0.010234 0.000000
0.000000 0.000000 0.000000
0.004254 -0.000321 0.000000
-0.000321 -0.003281 0.000000
0.000000 0.000000 0.000000
0.001784 0.007319 0.000000
0.007319 0.007047 0.000000
0.000000 0.000000 0.000000
0.005573 -0.016904 0.000000
-0.016904 0.011778 0.000000
0.000000 0.000000 0.000000
-0.003462 -0.003368 0.000000
-0.003368 -0.014166 0.000000
0.000000 0.000000 0.000000
-0.010612 -0.005772 0.000000
-0.005772 -0.008061 0.000000
0.000000 0.000000 0.000000
-0.012193 -0.015858 0.000000
-0.015858 -0.007537 0.000000
0.000000 0.000000 0.000000
-0.033789 0.012207 0.000000
0.012207 -0.005851 0.000000
0.000000 0.000000 0.000000
-0.009758 -0.001643 0.000000
-0.001643 0.005668 0.000000
0.000000 0.000000 0.000000
0.017201 0.009421 0.000000
0.009421 0.028086 0.000000
0.000000 0.000000 0.000000
0.001186 0.016188 0.000000
0.016188 -0.008071 0.000000
0.000000 0.000000 0.000000
0.005041 0.001052 0.000000
0.001052 0.001329 0.000000
0.000000 0.000000 0.000000
0.006674 0.002882 0.000000
0.002882 0.002062 0.000000
0.000000 0.000000 0.000000
0.003061 0.005550 0.000000
0.005550 0.014420 0.000000
0.000000 0.000000 0.000000
0.001484 -0.005612 0.000000
-0.005612 0.005982 0.000000
0.000000 0.000000 0.000000
0.009612 0.011868 0.000000
0.011868 0.014281 0.000000
0.000000 0.000000 0.000000
-0.014820 0.018916 0.000000
0.018916 -0.015761 0.000000
0.000000 0.000000 0.000000
0.014294 -0.006155 0.000000
-0.006155 0.028018 0.000000
0.000000 0.000000 0.000000
-0.006198 0.008961 0.000000
0.008961 -0.006357 0.000000
0.000000 0.000000 0.000000
-0.011797 -0.007913 0.000000
-0.007913 -0.025928 0.000000
0.000000 0.000000 0.000000
0.001735 0.001000 0.000000
0.001000 0.000679 0.000000
0.000000 0.000000 0.000000
-0.018253 -0.016713 0.000000
-0.016713 -0.000250 0.000000
0.000000 0.000000 0.000000
-0.001297 0.001624 0.000000
0.001624 0.006338 0.000000
0.000000 0.000000 0.000000
0.018017 0.024712 0.000000
0.024712 -0.005091 0.000000
0.000000 0.000000 0.000000
-0.005624 0.017926 0.000000
0.017926 -0.005371 0.000000
0.000000 0.000000 0.000000
0.003785 0.009465 0.000000
0.009465 -0.007651 0.000000
0.000000 0.000000 0.000000
-0.001446 0.000071 0.000000
0.000071 -0.002349 0.000000
0.000000 0.000000 0.000000
-0.007299 0.006255 0.000000
0.006255 -0.014420 0.000000
0.000000 0.000000 0.000000
-0.023355 0.006007 0.000000
0.006007 0.010048 0.000000
0.000000 0.000000 0.000000
0.001771 -0.018475 0.000000
-0.018475 -0.010576 0.000000
0.000000 0.000000 0.000000
-0.007110 -0.012471 0.000000
-0.012471 0.002234 0.000000
0.000000 0.000000 0.000000
0.000457 0.002382 0.000000
0.002382 -0.008064 0.000000
0.000000 0.000000 0.000000
-0.002103 0.007015 0.000000
0.007015 0.004781 0.000000
0.000000 0.000000 0.000000
-0.041319 -0.023116 0.000000
-0.023116 0.002596 0.000000
0.000000 0.000000 0.000000
-0.002945 -0.000628 0.000000
-0.000628 0.001357 0.000000
0.000000 0.000000 0.000000
0.012803 0.000563 0.000000
0.000563 0.014579 0.000000
0.000000 0.000000 0.000000
-0.001367 0.000439 0.000000
0.000439 0.005012 0.000000
0.000000 0.000000 0.000000
0.003861 -0.002506 0.000000
-0.002506 -0.004799 0.000000
0.000000 0.000000 0.000000
0.005749 -0.001354 0.000000
-0.001354 -0.000261 0.000000
0.000000 0.000000 0.000000
-0.018320 -0.003935 0.000000
-0.003935 -0.019814 0.000000
0.000000 0.000000 0.000000
0.004883 -0.004231 0.000000
-0.004231 0.012762 0.000000
0.000000 0.000000 0.000000
0.001602 -0.010135 0.000000
-0.010135 0.012934 0.000000
0.000000 0.000000 0.000000
0.006765 0.005975 0.000000
0.005975 0.014996 0.000000
0.000000 0.000000 0.000000
-0.001833 -0.001565 0.000000
-0.001565 -0.015154 0.000000
0.000000 0.000000 0.000000
0.003160 -0.002701 0.000000
-0.002701 0.010438 0.000000
0.000000 0.000000 0.000000
-0.011051 -0.015993 0.000000
-0.015993 0.008849 0.000000
0.000000 0.000000 0.000000
-0.008844 0.001313 0.000000
0.001313 -0.024092 0.000000
0.000000 0.000000 0.000000
0.004583 -0.000995 0.000000
-0.000995 0.013578 0.000000
0.000000 0.000000 0.000000
-0.004095 0.000167 0.000000
0.000167 0.001912 0.000000
0.000000 0.000000 0.000000
-0.000544 -0.000597 0.000000
-0.000597 0.003287 0.000000
0.000000 0.000000 0.000000
-0.012741 0.006799 0.000000
0.006799 -0.006938 0.000000
0.000000 0.000000 0.000000
0.010677 0.014296 0.000000
0.014296 0.021262 0.000000
0.000000 0.000000 0.000000
0.006756 0.003801 0.000000
0.003801 -0.014612 0.000000
0.000000 0.000000 0.000000
-0.006819 0.002077 0.000000
0.002077 -0.005715 0.000000
0.000000 0.000000 0.000000
0.016784 -0.016800 0.000000
-0.016800 0.000008 0.000000
0.000000 0.000000 0.000000
-0.003402 0.006298 0.000000
0.006298 -0.039294 0.000000
0.000000 0.000000 0.000000
0.016680 -0.007252 0.000000
-0.007252 0.012113 0.000000
0.000000 0.000000 0.000000
0.013266 0.007959 0.000000
0.007959 -0.008393 0.000000
0.000000 0.000000 0.000000
0.006144 0.000503 0.000000
0.000503 0.001343 0.000000
0.000000 0.000000 0.000000
-0.012246 -0.008693 0.000000
-0.008693 -0.033027 0.000000
0.000000 0.000000 0.000000
0.027048 0.017338 0.000000
0.017338 0.046344 0.000000
0.000000 0.000000 0.000000
0.012471 0.013311 0.000000
0.013311 0.012456 0.000000
0.000000 0.000000 0.000000
-0.013259 -0.000167 0.000000
-0.000167 -0.013183 0.000000
0.000000 0.000000 0.000000
-0.025487 0.010507 0.000000
0.010507 0.015020 0.000000
0.000000 0.000000 0.000000
0.008427 -0.002177 0.000000
-0.002177 -0.003045 0.000000
0.000000 0.000000 0.000000
-0.001223 0.003651 0.000000
0.003651 -0.012752 0.000000
0.000000 0.000000 0.000000
0.012609 0.005341 0.000000
0.005341 0.017792 0.000000
0.000000 0.000000 0.000000
-0.018934 0.007422 0.000000
0.007422 -0.017655 0.000000
0.000000 0.000000 0.000000
-0.060167 0.013083 0.000000
0.013083 -0.020719 0.000000
0.000000 0.000000 0.000000
0.016449 -0.003635 0.000000
-0.003635 0.011400 0.000000
0.000000 0.000000 0.000000
0.027275 -0.015226 0.000000
-0.015226 0.035548 0.000000
0.000000 0.000000 0.000000
0.015746 0.001185 0.000000
0.001185 0.014964 0.000000
0.000000 0.000000 0.000000
0.034516 0.001097 0.000000
0.001097 -0.002478 0.000000
0.000000 0.000000 0.000000
-0.020328 0.009420 0.000000
0.009420 -0.000735 0.000000
0.000000 0.000000 0.000000
0.003266 -0.004151 0.000000
-0.004151 -0.014313 0.000000
0.000000 0.000000 0.000000
-0.001852 -0.005880 0.000000
-0.005880 0.008204 0.000000
0.000000 0.000000 0.000000
0.007634 0.001836 0.000000
0.001836 0.009548 0.000000
0.000000 0.000000 0.000000
-0.006723 -0.002061 0.000000
-0.002061 0.000653 0.000000
0.000000 0.000000 0.000000
-0.010374 0.016266 0.000000
0.016266 -0.010543 0.000000
0.000000 0.000000 0.000000
-0.002106 0.002933 0.000000
0.002933 -0.004835 0.000000
0.000000 0.000000 0.000000
0.002148 0.004198 0.000000
0.004198 -0.005199 0.000000
0.000000 0.000000 0.000000
-0.022069 0.009995 0.000000
0.009995 -0.024014 0.000000
0.000000 0.000000 0.000000
0.000640 -0.002558 0.000000
-0.002558 0.001275 0.000000
0.000000 0.000000 0.000000
0.012653 0.000873 0.000000
0.000873 0.011650 0.000000
0.000000 0.000000 0.000000
0.005289 -0.003061 0.000000
-0.003061 0.021607 0.000000
0.000000 0.000000 0.000000
0.015309 -0.003300 0.000000
-0.003300 0.007432 0.000000
0.000000 0.000000 0.000000
0.018636 0.010033 0.000000
0.010033 0.018616 0.000000
0.000000 0.000000 0.000000
-0.008978 -0.002985 0.000000
-0.002985 0.011225 0.000000
0.000000 0.000000 0.000000
0.002670 -0.002732 0.000000
-0.002732 -0.007746 0.000000
0.000000 0.000000 0.000000
-0.002790 -0.009830 0.000000
-0.009830 -0.017711 0.000000
0.000000 0.000000 0.000000
0.007049 0.004692 0.000000
0.004692 0.010642 0.000000
0.000000 0.000000 0.000000
0.026888 -0.003029 0.000000
-0.003029 -0.010159 0.000000
0.000000 0.000000 0.000000
-0.006787 0.017831 0.000000
0.017831 0.016862 0.000000
0.000000 0.000000 0.000000
-0.005488 -0.002334 0.000000
-0.002334 -0.004206 0.000000
0.000000 0.000000 0.000000
0.016080 0.002051 0.000000
0.002051 -0.004179 0.000000
0.000000 0.000000 0.000000
-0.011634 0.001944 0.000000
0.001944 -0.009871 0.000000
0.000000 0.000000 0.000000
-0.001802 -0.008352 0.000000
-0.008352 0.013688 0.000000
0.000000 0.000000 0.000000
-0.008490 0.002939 0.000000
0.002939 -0.011310 0.000000
0.000000 0.000000 0.000000
0.015088 0.003322 0.000000
0.003322 0.012289 0.000000
0.000000 0.000000 0.000000
-0.008208 -0.001194 0.000000
-0.001194 -0.002849 0.000000
0.000000 0.000000 0.000000
-0.024977 0.004758 0.000000
0.004758 -0.015502 0.000000
0.000000 0.000000 0.000000
0.012548 0.002161 0.000000
0.002161 0.004527 0.000000
0.000000 0.000000 0.000000
0.023866 -0.028606 0.000000
-0.028606 0.009445 0.000000
0.000000 0.000000 0.000000
-0.002716 -0.001707 0.000000
-0.001707 -0.003021 0.000000
0.000000 0.000000 0.000000
-0.002664 0.002746 0.000000
0.002746 -0.013417 0.000000
0.000000 0.000000 0.000000
0.008672 0.004308 0.000000
0.004308 0.023323 0.000000
0.000000 0.000000 0.000000
0.015123 -0.004174 0.000000
-0.004174 -0.000110 0.000000
0.000000 0.000000 0.000000
0.027061 -0.023933 0.000000
-0.023933 -0.001127 0.000000
0.000000 0.000000 0.000000
0.011399 0.000720 0.000000
0.000720 -0.003639 0.000000
0.000000 0.000000 0.000000
-0.011964 0.000158 0.000000
0.000158 -0.006878 0.000000
0.000000 0.000000 0.000000
-0.009713 -0.009631 0.000000
-0.009631 -0.017287 0.000000
0.000000 0.000000 0.000000
0.013530 0.012193 0.000000
0.012193 0.013486 0.000000
0.000000 0.000000 0.000000
-0.013317 -0.000095 0.000000
-0.000095 -0.006353 0.000000
0.000000 0.000000 0.000000
-0.008506 -0.017879 0.000000
-0.017879 -0.045408 0.000000
0.000000 0.000000 0.000000
0.016318 -0.005370 0.000000
-0.005370 0.023178 0.000000
0.000000 0.000000 0.000000
0.004310 0.009075 0.000000
0.009075 -0.007674 0.000000
0.000000 0.000000 0.000000
-0.010406 -0.000160 0.000000
-0.000160 -0.002993 0.000000
0.000000 0.000000 0.000000
0.010495 0.001917 0.000000
0.001917 0.013986 0.000000
0.000000 0.000000 0.000000
0.009234 0.002446 0.000000
0.002446 0.013197 0.000000
0.000000 0.000000 0.000000
-0.001919 0.020596 0.000000
0.020596 -0.006961 0.000000
0.000000 0.000000 0.000000
0.006741 -0.002935 0.000000
-0.002935 0.006553 0.000000
0.000000 0.000000 0.000000
0.007971 0.007899 0.000000
0.007899 0.024327 0.000000
0.000000 0.000000 0.000000
0.009584 0.000825 0.000000
0.000825 -0.011102 0.000000
0.000000 0.000000 0.000000
0.020216 0.007429 0.000000
0.007429 0.016485 0.000000
0.000000 0.000000 0.000000
0.000481 0.012299 0.000000
0.012299 -0.026640 0.000000
0.000000 0.000000 0.000000
0.010620 0.014576 0.000000
0.014576 0.001932 0.000000
0.000000 0.000000 0.000000
0.003887 0.006477 0.000000
0.006477 0.031091 0.000000
0.000000 0.000000 0.000000
0.039231 0.000129 0.000000
0.000129 0.003309 0.000000
0.000000 0.000000 0.000000
0.009156 0.002118 0.000000
0.002118 -0.017024 0.000000
0.000000 0.000000 0.000000
0.012705 -0.004296 0.000000
-0.004296 0.019335 0.000000
0.000000 0.000000 0.000000
0.015936 -0.004895 0.000000
-0.004895 0.011613 0.000000
0.000000 0.000000 0.000000
0.011765 0.003617 0.000000
0.003617 0.019386 0.000000
0.000000 0.000000 0.000000
-0.000327 0.004196 0.000000
0.004196 0.011259 0.000000
0.000000 0.000000 0.000000
-0.004148 -0.006285 0.000000
-0.006285 -0.022945 0.000000
0.000000 0.000000 0.000000
0.004206 -0.006135 0.000000
-0.006135 -0.007111 0.000000
0.000000 0.000000 0.000000
0.000546 0.006107 0.000000
0.006107 0.010841 0.000000
0.000000 0.000000 0.000000
0.000778 -0.007254 0.000000
-0.007254 -0.006766 0.000000
0.000000 0.000000 0.000000
-0.005214 0.006522 0.000000
0.006522 -0.020382 0.000000
0.000000 0.000000 0.000000
0.009066 -0.005227 0.000000
-0.005227 0.005270 0.000000
0.000000 0.000000 0.000000
0.013042 -0.009409 0.000000
-0.009409 -0.016078 0.000000
0.000000 0.000000 0.000000
0.021640 -0.005647 0.000000
-0.005647 -0.001917 0.000000
0.000000 0.000000 0.000000
0.018463 -0.011775 0.000000
-0.011775 -0.008641 0.000000
0.000000 0.000000 0.000000
-0.009111 0.020855 0.000000
0.020855 0.033949 0.000000
0.000000 0.000000 0.000000
-0.016310 -0.009161 0.000000
-0.009161 -0.008845 0.000000
0.000000 0.000000 0.000000
-0.003700 0.003562 0.000000
0.003562 0.007079 0.000000
0.000000 0.000000 0.000000
-0.003074 -0.001407 0.000000
-0.001407 0.005638 0.000000
0.000000 0.000000 0.000000
-0.008681 -0.004293 0.000000
-0.004293 0.002739 0.000000
0.000000 0.000000 0.000000
-0.009737 -0.004193 0.000000
-0.004193 -0.001741 0.000000
0.000000 0.000000 0.000000
0.020982 -0.002862 0.000000
-0.002862 0.022694 0.000000
0.000000 0.000000 0.000000
0.006769 -0.024354 0.000000
-0.024354 -0.000201 0.000000
0.000000 0.000000 0.000000
-0.012073 0.012791 0.000000
0.012791 0.006177 0.000000
0.000000 0.000000 0.000000
-0.007481 -0.013682 0.000000
-0.013682 -0.003023 0.000000
0.000000 0.000000 0.000000
-0.010165 0.009337 0.000000
0.009337 -0.001335 0.000000
0.000000 0.000000 0.000000
0.001093 -0.002572 0.000000
-0.002572 -0.001172 0.000000
0.000000 0.000000 0.000000
0.015754 -0.001199 0.000000
-0.001199 0.017606 0.000000
0.000000 0.000000 0.000000
0.009091 0.015907 0.000000
0.015907 -0.006592 0.000000
0.000000 0.000000 0.000000
0.011852 0.017463 0.000000
0.017463 0.018096 0.000000
0.000000 0.000000 0.000000
0.002896 -0.002352 0.000000
-0.002352 0.020909 0.000000
0.000000 0.000000 0.000000
0.008758 0.012845 0.000000
0.012845 -0.000595 0.000000
0.000000 0.000000 0.000000
0.001613 0.006470 0.000000
0.006470 0.011338 0.000000
0.000000 0.000000 0.000000
0.012518 -0.001295 0.000000
-0.001295 0.009382 0.000000
0.000000 0.000000 0.000000
0.001406 -0.004152 0.000000
-0.004152 -0.006142 0.000000
0.000000 0.000000 0.000000
0.000230 0.005626 0.000000
0.005626 -0.016097 0.000000
0.000000 0.000000 0.000000
0.006924 -0.000689 0.000000
-0.000689 0.015338 0.000000
0.000000 0.000000 0.000000
0.007064 0.010576 0.000000
0.010576 0.007439 0.000000
0.000000 0.000000 0.000000
0.002140 0.002640 0.000000
0.002640 0.003805 0.000000
0.000000 0.000000 0.000000
0.012627 0.000199 0.000000
0.000199 0.017321 0.000000
0.000000 0.000000 0.000000
-0.018224 -0.004323 0.000000
-0.004323 -0.021463 0.000000
0.000000 0.000000 0.000000
0.000967 0.006126 0.000000
0.006126 0.001504 0.000000
0.000000 0.000000 0.000000
0.002765 0.005532 0.000000
0.005532 -0.002444 0.000000
0.000000 0.000000 0.000000
0.005847 0.009144 0.000000
0.009144 0.018503 0.000000
0.000000 0.000000 0.000000
0.019519 0.003168 0.000000
0.003168 0.007972 0.000000
0.000000 0.000000 0.000000
-0.015624 0.020488 0.000000
0.020488 -0.016621 0.000000
0.000000 0.000000 0.000000
-0.010904 -0.016653 0.000000
-0.016653 -0.005276 0.000000
0.000000 0.000000 0.000000
0.004800 0.001385 0.000000
0.001385 -0.005411 0.000000
0.000000 0.000000 0.000000
0.021810 -0.010884 0.000000
-0.010884 -0.000588 0.000000
0.000000 0.000000 0.000000
-0.031591 0.000546 0.000000
0.000546 -0.011673 0.000000
0.000000 0.000000 0.000000
-0.010402 -0.000442 0.000000
-0.000442 0.021656 0.000000
0.000000 0.000000 0.000000
-0.015053 0.010484 0.000000
0.010484 -0.017738 0.000000
0.000000 0.000000 0.000000
-0.004286 0.004000 0.000000
0.004000 -0.009523 0.000000
0.000000 0.000000 0.000000
-0.011273 -0.005017 0.000000
-0.005017 -0.019719 0.000000
0.000000 0.000000 0.000000
-0.006910 0.000435 0.000000
0.000435 -0.005396 0.000000
0.000000 0.000000 0.000000
-0.020669 0.003787 0.000000
0.003787 -0.016740 0.000000
0.000000 0.000000 0.000000
0.000419 0.001824 0.000000
0.001824 -0.014696 0.000000
0.000000 0.000000 0.000000
0.005687 0.018147 0.000000
0.018147 0.013361 0.000000
0.000000 0.000000 0.000000
0.007308 -0.002518 0.000000
-0.002518 -0.015216 0.000000
0.000000 0.000000 0.000000
0.006778 -0.002129 0.000000
-0.002129 -0.023485 0.000000
0.000000 0.000000 0.000000
-0.002159 0.009973 0.000000
0.009973 0.017055 0.000000
0.000000 0.000000 0.000000
0.013230 -0.010452 0.000000
-0.010452 0.017441 0.000000
0.000000 0.000000 0.000000
-0.010089 0.003816 0.000000
0.003816 -0.014152 0.000000
0.000000 0.000000 0.000000
0.015052 -0.006280 0.000000
-0.006280 0.013699 0.000000
0.000000 0.000000 0.000000
-0.010975 0.005037 0.000000
0.005037 -0.010551 0.000000
0.000000 0.000000 0.000000
0.003882 -0.003313 0.000000
-0.003313 -0.022744 0.000000
0.000000 0.000000 0.000000
-0.023091 0.001499 0.000000
0.001499 0.018142 0.000000
0.000000 0.000000 0.000000
-0.004625 0.008080 0.000000
0.008080 -0.011831 0.000000
0.000000 0.000000 0.000000
-0.037335 -0.005975 0.000000
-0.005975 -0.018890 0.000000
0.000000 0.000000 0.000000
0.007417 -0.009317 0.000000
-0.009317 0.009043 0.000000
0.000000 0.000000 0.000000
0.000659 -0.001897 0.000000
-0.001897 0.012684 0.000000
0.000000 0.000000 0.000000
-0.008623 0.003942 0.000000
0.003942 -0.006849 0.000000
0.000000 0.000000 0.000000
-0.000636 0.005013 0.000000
0.005013 0.009944 0.000000
0.000000 0.000000 0.000000
-0.002316 0.003208 0.000000
0.003208 0.015052 0.000000
0.000000 0.000000 0.000000
-0.001069 0.002167 0.000000
0.002167 0.012572 0.000000
0.000000 0.000000 0.000000
0.021538 -0.020245 0.000000
-0.020245 -0.024290 0.000000
0.000000 0.000000 0.000000
0.012853 -0.000825 0.000000
-0.000825 -0.000180 0.000000
0.000000 0.000000 0.000000
-0.018691 -0.009517 0.000000
-0.009517 -0.012436 0.000000
0.000000 0.000000 0.000000
0.003865 0.018832 0.000000
0.018832 0.004059 0.000000
0.000000 0.000000 0.000000
-0.001965 -0.004056 0.000000
-0.004056 0.002853 0.000000
0.000000 0.000000 0.000000
0.015606 -0.005270 0.000000
-0.005270 0.018038 0.000000
0.000000 0.000000 0.000000
-0.023512 0.005780 0.000000
0.005780 -0.019665 0.000000
0.000000 0.000000 0.000000
-0.006962 0.003357 0.000000
0.003357 -0.008301 0.000000
0.000000 0.000000 0.000000
0.032344 -0.000693 0.000000
-0.000693 0.012979 0.000000
0.000000 0.000000 0.000000
-0.010508 0.002569 0.000000
0.002569 -0.013293 0.000000
0.000000 0.000000 0.000000
-0.014384 -0.007512 0.000000
-0.007512 0.014258 0.000000
0.000000 0.000000 0.000000
0.043975 -0.030478 0.000000
-0.030478 0.003877 0.000000
0.000000 0.000000 0.000000
-0.013049 0.010266 0.000000
0.010266 0.007505 0.000000
0.000000 0.000000 0.000000
-0.000825 0.008526 0.000000
0.008526 -0.016319 0.000000
0.000000 0.000000 0.000000
0.018721 -0.005252 0.000000
-0.005252 0.004235 0.000000
0.000000 0.000000 0.000000
0.011635 0.008003 0.000000
0.008003 0.001447 0.000000
0.000000 0.000000 0.000000
0.007684 0.002360 0.000000
0.002360 0.022661 0.000000
0.000000 0.000000 0.000000
0.020184 -0.000879 0.000000
-0.000879 -0.015629 0.000000
0.000000 0.000000 0.000000
-0.004318 0.007361 0.000000
0.007361 0.000598 0.000000
0.000000 0.000000 0.000000
-0.014852 0.002377 0.000000
0.002377 -0.033505 0.000000
0.000000 0.000000 0.000000
-0.009392 0.002406 0.000000
0.002406 -0.015256 0.000000
0.000000 0.000000 0.000000
0.015833 0.027627 0.000000
0.027627 0.005944 0.000000
0.000000 0.000000 0.000000
0.007203 -0.007139 0.000000
-0.007139 -0.017168 0.000000
0.000000 0.000000 0.000000
0.003769 -0.009943 0.000000
-0.009943 -0.017954 0.000000
0.000000 0.000000 0.000000
-0.000406 -0.002303 0.000000
-0.002303 -0.041959 0.000000
0.000000 0.000000 0.000000
0.016364 0.010414 0.000000
0.010414 0.016800 0.000000
0.000000 0.000000 0.000000
-0.002010 0.000462 0.000000
0.000462 -0.002577 0.000000
0.000000 0.000000 0.000000
-0.004106 0.004196 0.000000
0.004196 0.003139 0.000000
0.000000 0.000000 0.000000
-0.006602 0.014077 0.000000
0.014077 -0.015525 0.000000
0.000000 0.000000 0.000000
-0.002255 0.006115 0.000000
0.006115 -0.017764 0.000000
0.000000 0.000000 0.000000
0.017886 0.000674 0.000000
0.000674 0.041791 0.000000
0.000000 0.000000 0.000000
-0.012089 0.003176 0.000000
0.003176 0.008761 0.000000
0.000000 0.000000 0.000000
-0.003108 0.003841 0.000000
0.003841 -0.016389 0.000000
0.000000 0.000000 0.000000
0.005765 0.006480 0.000000
0.006480 -0.016333 0.000000
0.000000 0.000000 0.000000
0.006183 -0.003955 0.000000
-0.003955 0.000520 0.000000
0.000000 0.000000 0.000000
0.012266 0.000115 0.000000
0.000115 0.015455 0.000000
0.000000 0.000000 0.000000
0.002708 0.030115 0.000000
0.030115 0.026662 0.000000
0.000000 0.000000 0.000000
-0.009437 0.030729 0.000000
0.030729 -0.013965 0.000000
0.000000 0.000000 0.000000
-0.008365 -0.014875 0.000000
-0.014875 -0.040671 0.000000
0.000000 0.000000 0.000000
0.005865 -0.000506 0.000000
-0.000506 0.012247 0.000000
0.000000 0.000000 0.000000
-0.003449 -0.000750 0.000000
-0.000750 -0.020601 0.000000
0.000000 0.000000 0.000000
0.008592 -0.008412 0.000000
-0.008412 0.008522 0.000000
0.000000 0.000000 0.000000
-0.031657 -0.012530 0.000000
-0.012530 -0.021067 0.000000
0.000000 0.000000 0.000000
0.008022 0.001433 0.000000
0.001433 0.024705 0.000000
0.000000 0.000000 0.000000
-0.016092 -0.003453 0.000000
-0.003453 0.016878 0.000000
0.000000 0.000000 0.000000
0.022104 -0.011597 0.000000
-0.011597 0.002780 0.000000
0.000000 0.000000 0.000000
0.022088 -0.011139 0.000000
-0.011139 0.002095 0.000000
0.000000 0.000000 0.000000
-0.007314 0.000302 0.000000
0.000302 -0.027384 0.000000
0.000000 0.000000 0.000000
0.002009 0.000831 0.000000
0.000831 0.016389 0.000000
0.000000 0.000000 0.000000
0.012748 -0.010746 0.000000
-0.010746 -0.005629 0.000000
0.000000 0.000000 0.000000
-0.016506 0.006306 0.000000
0.006306 -0.014108 0.000000
0.000000 0.000000 0.000000
-0.000800 -0.013574 0.000000
-0.013574 -0.006229 0.000000
0.000000 0.000000 0.000000
-0.005331 -0.002276 0.000000
-0.002276 -0.012869 0.000000
0.000000 0.000000 0.000000
-0.010460 -0.008918 0.000000
-0.008918 -0.003975 0.000000
0.000000 0.000000 0.000000
-0.005715 -0.001555 0.000000
-0.001555 0.010174 0.000000
0.000000 0.000000 0.000000
-0.004212 -0.001475 0.000000
-0.001475 -0.014210 0.000000
0.000000 0.000000 0.000000
0.004188 0.006126 0.000000
0.006126 -0.022872 0.000000
0.000000 0.000000 0.000000
-0.000417 0.001636 0.000000
0.001636 0.013945 0.000000
0.000000 0.000000 0.000000
0.000798 -0.002180 0.000000
-0.002180 -0.015718 0.000000
0.000000 0.000000 0.000000
0.006398 0.001313 0.000000
0.001313 0.019774 0.000000
0.000000 0.000000 0.000000
0.000955 0.000310 0.000000
0.000310 0.017828 0.000000
0.000000 0.000000 0.000000
0.001094 0.004804 0.000000
0.004804 0.007846 0.000000
0.000000 0.000000 0.000000
-0.006366 0.010008 0.000000
0.010008 -0.020128 0.000000
0.000000 0.000000 0.000000
0.010262 -0.000621 0.000000
-0.000621 0.030457 0.000000
0.000000 0.000000 0.000000
0.030708 -0.007068 0.000000
-0.007068 -0.015116 0.000000
0.000000 0.000000 0.000000
0.003805 -0.002290 0.000000
-0.002290 -0.017435 0.000000
0.000000 0.000000 0.000000
0.007887 0.001943 0.000000
0.001943 0.033063 0.000000
0.000000 0.000000 0.000000
-0.027356 0.000506 0.000000
0.000506 -0.031033 0.000000
0.000000 0.000000 0.000000
-0.000418 -0.004604 0.000000
-0.004604 0.005727 0.000000
0.000000 0.000000 0.000000
-0.010098 -0.004428 0.000000
-0.004428 0.008070 0.000000
0.000000 0.000000 0.000000
-0.003647 0.005822 0.000000
0.005822 -0.018471 0.000000
0.000000 0.000000 0.000000
-0.000659 -0.000906 0.000000
-0.000906 -0.005247 0.000000
0.000000 0.000000 0.000000
-0.001262 0.002490 0.000000
0.002490 0.005649 0.000000
0.000000 0.000000 0.000000
0.015483 -0.013586 0.000000
-0.013586 -0.019005 0.000000
0.000000 0.000000 0.000000
-0.015579 0.006955 0.000000
0.006955 0.013964 0.000000
0.000000 0.000000 0.000000
0.006454 -0.005831 0.000000
-0.005831 -0.000393 0.000000
0.000000 0.000000 0.000000
0.006834 0.003398 0.000000
0.003398 -0.012888 0.000000
0.000000 0.000000 0.000000
0.003741 -0.005751 0.000000
-0.005751 0.017844 0.000000
0.000000 0.000000 0.000000
0.000028 0.002006 0.000000
0.002006 -0.012010 0.000000
0.000000 0.000000 0.000000
0.004271 0.016468 0.000000
0.016468 0.017538 0.000000
0.000000 0.000000 0.000000
-0.030595 -0.006230 0.000000
-0.006230 -0.045858 0.000000
0.000000 0.000000 0.000000
0.032612 -0.018793 0.000000
-0.018793 -0.007984 0.000000
0.000000 0.000000 0.000000
0.040503 0.013101 0.000000
0.013101 0.004536 0.000000
0.000000 0.000000 0.000000
-0.008232 -0.003544 0.000000
-0.003544 0.019860 0.000000
0.000000 0.000000 0.000000
0.011351 -0.011449 0.000000
-0.011449 0.005859 0.000000
0.000000 0.000000 0.000000
-0.027036 0.001857 0.000000
0.001857 0.006524 0.000000
0.000000 0.000000 0.000000
-0.017094 0.000336 0.000000
0.000336 0.005803 0.000000
0.000000 0.000000 0.000000
0.001220 0.015309 0.000000
0.015309 0.006854 0.000000
0.000000 0.000000 0.000000
-0.052523 -0.012244 0.000000
-0.012244 0.019300 0.000000
0.000000 0.000000 0.000000
-0.022363 -0.004164 0.000000
-0.004164 -0.014139 0.000000
0.000000 0.000000 0.000000
0.005839 0.003090 0.000000
0.003090 0.017192 0.000000
0.000000 0.000000 0.000000
-0.034443 -0.011484 0.000000
-0.011484 0.026925 0.000000
0.000000 0.000000 0.000000
0.000583 0.001223 0.000000
0.001223 0.015496 0.000000
0.000000 0.000000 0.000000
-0.010244 -0.001611 0.000000
-0.001611 -0.009952 0.000000
0.000000 0.000000 0.000000
-0.011248 0.005006 0.000000
0.005006 -0.002970 0.000000
0.000000 0.000000 0.000000
-0.012446 -0.003213 0.000000
-0.003213 -0.007359 0.000000
0.000000 0.000000 0.000000
0.023198 -0.001999 0.000000
-0.001999 0.018800 0.000000
0.000000 0.000000 0.000000
-0.000913 0.004447 0.000000
0.004447 0.007492 0.000000
0.000000 0.000000 0.000000
0.001802 -0.008734 0.000000
-0.008734 -0.014602 0.000000
0.000000 0.000000 0.000000
-0.000196 0.005061 0.000000
0.005061 0.006300 0.000000
0.000000 0.000000 0.000000
-0.016939 -0.004539 0.000000
-0.004539 0.002853 0.000000
0.000000 0.000000 0.000000
0.005094 -0.010861 0.000000
-0.010861 -0.006262 0.000000
0.000000 0.000000 0.000000
0.020488 0.016002 0.000000
0.016002 -0.006064 0.000000
0.000000 0.000000 0.000000
0.006760 0.001677 0.000000
0.001677 0.009859 0.000000
0.000000 0.000000 0.000000
-0.017999 -0.000368 0.000000
-0.000368 -0.018778 0.000000
0.000000 0.000000 0.000000
-0.004360 -0.000885 0.000000
-0.000885 -0.006045 0.000000
0.000000 0.000000 0.000000
-0.001626 0.000282 0.000000
0.000282 0.010290 0.000000
0.000000 0.000000 0.000000
-0.004923 -0.001816 0.000000
-0.001816 0.058349 0.000000
0.000000 0.000000 0.000000
-0.005549 0.000679 0.000000
0.000679 -0.023462 0.000000
0.000000 0.000000 0.000000
-0.018197 -0.004067 0.000000
-0.004067 0.014823 0.000000
0.000000 0.000000 0.000000
0.016405 -0.002191 0.000000
-0.002191 0.018252 0.000000
0.000000 0.000000 0.000000
-0.014612 0.005838 0.000000
0.005838 0.005992 0.000000
0.000000 0.000000 0.000000
0.010468 -0.006373 0.000000
-0.006373 0.010956 0.000000
0.000000 0.000000 0.000000
-0.001717 0.005090 0.000000
0.005090 -0.002918 0.000000
0.000000 0.000000 0.000000
-0.022109 0.001352 0.000000
0.001352 -0.016270 0.000000
0.000000 0.000000 0.000000
-0.013362 -0.006277 0.000000
-0.006277 0.011889 0.000000
0.000000 0.000000 0.000000
0.013994 -0.008113 0.000000
-0.008113 -0.014462 0.000000
0.000000 0.000000 0.000000
-0.015760 0.014086 0.000000
0.014086 -0.011355 0.000000
0.000000 0.000000 0.000000
0.005381 -0.002647 0.000000
-0.002647 -0.006021 0.000000
0.000000 0.000000 0.000000
0.017274 -0.024522 0.000000
-0.024522 -0.001516 0.000000
0.000000 0.000000 0.000000
0.005263 -0.003117 0.000000
-0.003117 -0.002579 0.000000
0.000000 0.000000 0.000000
0.001865 0.001231 0.000000
0.001231 0.004012 0.000000
0.000000 0.000000 0.000000
0.010217 0.000598 0.000000
0.000598 0.040842 0.000000
0.000000 0.000000 0.000000
0.016589 -0.007104 0.000000
-0.007104 -0.008048 0.000000
0.000000 0.000000 0.000000
0.004526 0.010207 0.000000
0.010207 0.023040 0.000000
0.000000 0.000000 0.000000
-0.002947 0.004588 0.000000
0.004588 -0.012335 0.000000
0.000000 0.000000 0.000000
0.003733 0.005924 0.000000
0.005924 0.025025 0.000000
0.000000 0.000000 0.000000
0.005688 0.004685 0.000000
0.004685 0.006845 0.000000
0.000000 0.000000 0.000000
0.007439 0.001520 0.000000
0.001520 0.003385 0.000000
0.000000 0.000000 0.000000
-0.004785 -0.001161 0.000000
-0.001161 -0.006334 0.000000
0.000000 0.000000 0.000000
-0.005771 0.001079 0.000000
0.001079 -0.012331 0.000000
0.000000 0.000000 0.000000
-0.019345 -0.011195 0.000000
-0.011195 -0.012404 0.000000
0.000000 0.000000 0.000000
-0.014279 -0.002688 0.000000
-0.002688 -0.011258 0.000000
0.000000 0.000000 0.000000
0.010176 0.000139 0.000000
0.000139 0.015121 0.000000
0.000000 0.000000 0.000000
0.016614 -0.003979 0.000000
-0.003979 0.011001 0.000000
0.000000 0.000000 0.000000
0.038962 -0.001103 0.000000
-0.001103 0.017535 0.000000
0.000000 0.000000 0.000000
0.014165 -0.003274 0.000000
-0.003274 -0.001970 0.000000
0.000000 0.000000 0.000000
-0.006620 -0.001891 0.000000
-0.001891 0.000352 0.000000
0.000000 0.000000 0.000000
-0.002190 -0.002186 0.000000
-0.002186 -0.025285 0.000000
0.000000 0.000000 0.000000
-0.006929 0.008914 0.000000
0.008914 -0.013037 0.000000
0.000000 0.000000 0.000000
-0.007437 -0.002074 0.000000
-0.002074 -0.016999 0.000000
0.000000 0.000000 0.000000
0.019797 0.001402 0.000000
0.001402 0.006717 0.000000
0.000000 0.000000 0.000000
-0.004213 -0.006544 0.000000
-0.006544 -0.009682 0.000000
0.000000 0.000000 0.000000
0.008412 0.002176 0.000000
0.002176 0.006400 0.000000
0.000000 0.000000 0.000000
-0.005904 -0.000614 0.000000
-0.000614 -0.014009 0.000000
0.000000 0.000000 0.000000
-0.001027 0.003233 0.000000
0.003233 -0.023361 0.000000
0.000000 0.000000 0.000000
0.004956 0.001271 0.000000
0.001271 0.011795 0.000000
0.000000 0.000000 0.000000
0.002533 -0.002881 0.000000
-0.002881 -0.008031 0.000000
0.000000 0.000000 0.000000
0.000471 0.000396 0.000000
0.000396 0.011537 0.000000
0.000000 0.000000 0.000000
-0.010411 -0.002491 0.000000
-0.002491 -0.037866 0.000000
0.000000 0.000000 0.000000
0.031246 -0.015627 0.000000
-0.015627 -0.017141 0.000000
0.000000 0.000000 0.000000
-0.016597 0.011385 0.000000
0.011385 -0.015620 0.000000
0.000000 0.000000 0.000000
-0.010917 0.014017 0.000000
0.014017 -0.013807 0.000000
0.000000 0.000000 0.000000
0.004533 0.004191 0.000000
0.004191 -0.002184 0.000000
0.000000 0.000000 0.000000
0.011190 0.000080 0.000000
0.000080 0.018103 0.000000
0.000000 0.000000 0.000000
0.006360 0.010641 0.000000
0.010641 0.004456 0.000000
0.000000 0.000000 0.000000
0.012826 -0.012903 0.000000
-0.012903 0.019978 0.000000
0.000000 0.000000 0.000000
-0.009033 0.004754 0.000000
0.004754 -0.008009 0.000000
0.000000 0.000000 0.000000
-0.007492 -0.011937 0.000000
-0.011937 -0.032827 0.000000
0.000000 0.000000 0.000000
0.006437 -0.007274 0.000000
-0.007274 0.027293 0.000000
0.000000 0.000000 0.000000
-0.005522 0.006851 0.000000
0.006851 0.009353 0.000000
0.000000 0.000000 0.000000
-0.000172 0.004831 0.000000
0.004831 -0.003303 0.000000
0.000000 0.000000 0.000000
-0.006789 -0.000346 0.000000
-0.000346 -0.007926 0.000000
0.000000 0.000000 0.000000
-0.011623 0.003280 0.000000
0.003280 -0.027282 0.000000
0.000000 0.000000 0.000000
0.009139 -0.009983 0.000000
-0.009983 0.012250 0.000000
0.000000 0.000000 0.000000
-0.001243 0.011145 0.000000
0.011145 -0.015678 0.000000
0.000000 0.000000 0.000000
0.023713 0.000520 0.000000
0.000520 -0.000155 0.000000
0.000000 0.000000 0.000000
-0.008593 0.009257 0.000000
0.009257 -0.007807 0.000000
0.000000 0.000000 0.000000
0.016986 0.002120 0.000000
0.002120 0.021322 0.000000
0.000000 0.000000 0.000000
-0.002727 -0.003929 0.000000
-0.003929 0.016290 0.000000
0.000000 0.000000 0.000000
-0.012744 0.017667 0.000000
0.017667 0.011865 0.000000
0.000000 0.000000 0.000000
0.011762 0.000677 0.000000
0.000677 0.016210 0.000000
0.000000 0.000000 0.000000
0.007909 -0.026932 0.000000
-0.026932 -0.000641 0.000000
0.000000 0.000000 0.000000
0.011060 0.007244 0.000000
0.007244 0.002221 0.000000
0.000000 0.000000 0.000000
-0.001447 -0.004815 0.000000
-0.004815 -0.021228 0.000000
0.000000 0.000000 0.000000
-0.017350 0.005916 0.000000
0.005916 -0.002406 0.000000
0.000000 0.000000 0.000000
0.002780 -0.006729 0.000000
-0.006729 0.004056 0.000000
0.000000 0.000000 0.000000
-0.005986 0.000663 0.000000
0.000663 -0.001788 0.000000
0.000000 0.000000 0.000000
0.010530 0.002611 0.000000
0.002611 0.009868 0.000000
0.000000 0.000000 0.000000
-0.019139 -0.000164 0.000000
-0.000164 -0.002538 0.000000
0.000000 0.000000 0.000000
-0.016059 -0.008147 0.000000
-0.008147 0.015762 0.000000
0.000000 0.000000 0.000000
-0.006090 -0.003144 0.000000
-0.003144 0.003531 0.000000
0.000000 0.000000 0.000000
-0.007839 -0.000727 0.000000
-0.000727 0.006041 0.000000
0.000000 0.000000 0.000000
-0.005254 -0.003620 0.000000
-0.003620 -0.019340 0.000000
0.000000 0.000000 0.000000
-0.003715 -0.004435 0.000000
-0.004435 -0.001969 0.000000
0.000000 0.000000 0.000000
0.000724 -0.002407 0.000000
-0.002407 -0.006668 0.000000
0.000000 0.000000 0.000000
-0.009179 0.006537 0.000000
0.006537 -0.004868 0.000000
0.000000 0.000000 0.000000
0.046622 0.006933 0.000000
0.006933 0.044569 0.000000
0.000000 0.000000 0.000000
-0.008379 0.010245 0.000000
0.010245 -0.016387 0.000000
0.000000 0.000000 0.000000
-0.012410 0.002549 0.000000
0.002549 -0.021345 0.000000
0.000000 0.000000 0.000000
0.008473 -0.001065 0.000000
-0.001065 0.006955 0.000000
0.000000 0.000000 0.000000
-0.016840 -0.001749 0.000000
-0.001749 -0.027621 0.000000
0.000000 0.000000 0.000000
-0.004341 0.003244 0.000000
0.003244 0.006074 0.000000
0.000000 0.000000 0.000000
-0.003640 -0.004799 0.000000
-0.004799 -0.011059 0.000000
0.000000 0.000000 0.000000
0.008963 0.003695 0.000000
0.003695 0.010244 0.000000
0.000000 0.000000 0.000000
-0.001740 0.004588 0.000000
0.004588 -0.013927 0.000000
0.000000 0.000000 0.000000
-0.001410 0.014103 0.000000
0.014103 -0.007357 0.000000
0.000000 0.000000 0.000000
0.003274 0.000062 0.000000
0.000062 -0.003091 0.000000
0.000000 0.000000 0.000000
0.002922 -0.000788 0.000000
-0.000788 -0.001343 0.000000
0.000000 0.000000 0.000000
-0.021909 -0.003860 0.000000
-0.003860 -0.009281 0.000000
0.000000 0.000000 0.000000
0.004348 -0.004239 0.000000
-0.004239 -0.003339 0.000000
0.000000 0.000000 0.000000
0.005008 -0.019550 0.000000
-0.019550 -0.021511 0.000000
0.000000 0.000000 0.000000
-0.015858 -0.017422 0.000000
-0.017422 -0.018204 0.000000
0.000000 0.000000 0.000000
0.008845 -0.016348 0.000000
-0.016348 -0.003766 0.000000
0.000000 0.000000 0.000000
0.007433 -0.017120 0.000000
-0.017120 -0.012016 0.000000
0.000000 0.000000 0.000000
-0.014231 -0.005169 0.000000
-0.005169 -0.015274 0.000000
0.000000 0.000000 0.000000
0.008358 0.002961 0.000000
0.002961 0.010874 0.000000
0.000000 0.000000 0.000000
-0.017488 -0.004462 0.000000
-0.004462 -0.012029 0.000000
0.000000 0.000000 0.000000
-0.013751 0.003874 0.000000
0.003874 0.002582 0.000000
0.000000 0.000000 0.000000
-0.008103 -0.003305 0.000000
-0.003305 0.016919 0.000000
0.000000 0.000000 0.000000
-0.028537 0.018110 0.000000
0.018110 -0.004736 0.000000
0.000000 0.000000 0.000000
-0.013505 -0.005713 0.000000
-0.005713 0.013466 0.000000
0.000000 0.000000 0.000000
0.001286 0.001780 0.000000
0.001780 0.004108 0.000000
0.000000 0.000000 0.000000
0.013129 -0.000060 0.000000
-0.000060 0.010587 0.000000
0.000000 0.000000 0.000000
-0.004912 0.003262 0.000000
0.003262 0.019048 0.000000
0.000000 0.000000 0.000000
0.010448 -0.001583 0.000000
-0.001583 0.006391 0.000000
0.000000 0.000000 0.000000
0.002510 -0.004383 0.000000
-0.004383 0.004066 0.000000
0.000000 0.000000 0.000000
0.000521 0.001892 0.000000
0.001892 0.000506 0.000000
0.000000 0.000000 0.000000
0.009062 -0.004235 0.000000
-0.004235 -0.014660 0.000000
0.000000 0.000000 0.000000
-0.021106 -0.008691 0.000000
-0.008691 -0.011991 0.000000
0.000000 0.000000 0.000000
-0.005388 0.001669 0.000000
0.001669 -0.013896 0.000000
0.000000 0.000000 0.000000
-0.023440 -0.008153 0.000000
-0.008153 -0.005294 0.000000
0.000000 0.000000 0.000000
-0.009971 0.000069 0.000000
0.000069 -0.022333 0.000000
0.000000 0.000000 0.000000
0.012253 0.003841 0.000000
0.003841 -0.001705 0.000000
0.000000 0.000000 0.000000
-0.004238 0.006186 0.000000
0.006186 -0.007561 0.000000
0.000000 0.000000 0.000000
0.001588 -0.001096 0.000000
-0.001096 0.002453 0.000000
0.000000 0.000000 0.000000
-0.013571 0.002745 0.000000
0.002745 -0.000023 0.000000
0.000000 0.000000 0.000000
-0.011613 -0.007195 0.000000
-0.007195 -0.010862 0.000000
0.000000 0.000000 0.000000
-0.004424 0.005164 0.000000
0.005164 -0.009484 0.000000
0.000000 0.000000 0.000000
0.001689 -0.005640 0.000000
-0.005640 -0.005064 0.000000
0.000000 0.000000 0.000000
-0.010190 0.000591 0.000000
0.000591 -0.000350 0.000000
0.000000 0.000000 0.000000
0.009539 -0.002067 0.000000
-0.002067 0.013722 0.000000
0.000000 0.000000 0.000000
-0.007648 -0.001999 0.000000
-0.001999 -0.015151 0.000000
0.000000 0.000000 0.000000
0.000437 0.007537 0.000000
0.007537 -0.004550 0.000000
0.000000 0.000000 0.000000
-0.019959 0.006435 0.000000
0.006435 -0.010351 0.000000
0.000000 0.000000 0.000000
-0.000652 0.004238 0.000000
0.004238 0.002330 0.000000
0.000000 0.000000 0.000000
0.016649 -0.001154 0.000000
-0.001154 -0.011939 0.000000
0.000000 0.000000 0.000000
0.008705 0.007739 0.000000
0.007739 0.021401 0.000000
0.000000 0.000000 0.000000
0.016991 -0.008848 0.000000
-0.008848 0.010724 0.000000
0.000000 0.000000 0.000000
-0.000277 0.003962 0.000000
0.003962 0.013868 0.000000
0.000000 0.000000 0.000000
0.003159 0.000021 0.000000
0.000021 0.013093 0.000000
0.000000 0.000000 0.000000
0.006712 -0.004224 0.000000
-0.004224 -0.008466 0.000000
0.000000 0.000000 0.000000
-0.023184 -0.003164 0.000000
-0.003164 -0.001626 0.000000
0.000000 0.000000 0.000000
-0.016201 0.003759 0.000000
0.003759 0.011549 0.000000
0.000000 0.000000 0.000000
0.033572 0.013832 0.000000
0.013832 0.025658 0.000000
0.000000 0.000000 0.000000
0.020987 0.004855 0.000000
0.004855 0.005016 0.000000
0.000000 0.000000 0.000000
0.029457 0.005183 0.000000
0.005183 0.061497 0.000000
0.000000 0.000000 0.000000
-0.019566 0.003855 0.000000
0.003855 -0.025737 0.000000
0.000000 0.000000 0.000000
0.009420 -0.023029 0.000000
-0.023029 0.034243 0.000000
0.000000 0.000000 0.000000
0.004632 0.018853 0.000000
0.018853 0.003428 0.000000
0.000000 0.000000 0.000000
0.034815 -0.023595 0.000000
-0.023595 0.025557 0.000000
0.000000 0.000000 0.000000
-0.011771 -0.000848 0.000000
-0.000848 0.005050 0.000000
0.000000 0.000000 0.000000
-0.017613 -0.005285 0.000000
-0.005285 -0.043774 0.000000
0.000000 0.000000 0.000000
-0.011418 0.001939 0.000000
0.001939 0.009646 0.000000
0.000000 0.000000 0.000000
0.008236 -0.004313 0.000000
-0.004313 -0.007492 0.000000
0.000000 0.000000 0.000000
0.009356 -0.016778 0.000000
-0.016778 -0.026088 0.000000
0.000000 0.000000 0.000000
0.003541 -0.004666 0.000000
-0.004666 -0.008770 0.000000
0.000000 0.000000 0.000000
-0.000145 0.000082 0.000000
0.000082 0.015334 0.000000
0.000000 0.000000 0.000000
0.004014 0.011527 0.000000
0.011527 -0.050105 0.000000
0.000000 0.000000 0.000000
0.013499 -0.009312 0.000000
-0.009312 -0.010189 0.000000
0.000000 0.000000 0.000000
0.020753 -0.023358 0.000000
-0.023358 0.020708 0.000000
0.000000 0.000000 0.000000
-0.003807 0.002018 0.000000
0.002018 -0.011599 0.000000
0.000000 0.000000 0.000000
-0.008962 -0.001789 0.000000
-0.001789 -0.004043 0.000000
0.000000 0.000000 0.000000
-0.023738 -0.010152 0.000000
-0.010152 -0.009802 0.000000
0.000000 0.000000 0.000000
0.011282 -0.005368 0.000000
-0.005368 0.003128 0.000000
0.000000 0.000000 0.000000
-0.008055 -0.026366 0.000000
-0.026366 -0.036935 0.000000
0.000000 0.000000 0.000000
0.039382 0.002900 0.000000
0.002900 0.016535 0.000000
0.000000 0.000000 0.000000
0.002603 0.007732 0.000000
0.007732 0.006857 0.000000
0.000000 0.000000 0.000000
-0.002969 0.002907 0.000000
0.002907 -0.025391 0.000000
0.000000 0.000000 0.000000
-0.004712 0.005730 0.000000
0.005730 0.020071 0.000000
0.000000 0.000000 0.000000
0.036291 -0.002593 0.000000
-0.002593 0.016229 0.000000
0.000000 0.000000 0.000000
-0.026534 0.001183 0.000000
0.001183 0.002591 0.000000
0.000000 0.000000 0.000000
-0.014013 -0.007062 0.000000
-0.007062 0.023955 0.000000
0.000000 0.000000 0.000000
0.003814 0.003051 0.000000
0.003051 -0.010573 0.000000
0.000000 0.000000 0.000000
0.001476 0.004604 0.000000
0.004604 -0.008736 0.000000
0.000000 0.000000 0.000000
0.027824 -0.006463 0.000000
-0.006463 0.017787 0.000000
0.000000 0.000000 0.000000
0.006437 0.004085 0.000000
0.004085 0.002975 0.000000
0.000000 0.000000 0.000000
0.026960 -0.010763 0.000000
-0.010763 0.000272 0.000000
0.000000 0.000000 0.000000
-0.028885 -0.015623 0.000000
-0.015623 0.003195 0.000000
0.000000 0.000000 0.000000
-0.001345 -0.001197 0.000000
-0.001197 -0.001590 0.000000
0.000000 0.000000 0.000000
0.003459 0.006678 0.000000
0.006678 0.003527 0.000000
0.000000 0.000000 0.000000
0.005432 -0.012798 0.000000
-0.012798 0.006590 0.000000
0.000000 0.000000 0.000000
0.019491 -0.005798 0.000000
-0.005798 0.013890 0.000000
0.000000 0.000000 0.000000
-0.017535 -0.006391 0.000000
-0.006391 0.011078 0.000000
0.000000 0.000000 0.000000
-0.020563 0.009332 0.000000
0.009332 -0.002684 0.000000
0.000000 0.000000 0.000000
-0.005485 0.004628 0.000000
0.004628 0.004116 0.000000
0.000000 0.000000 0.000000
-0.001205 0.001978 0.000000
0.001978 0.013913 0.000000
0.000000 0.000000 0.000000
0.026255 0.013148 0.000000
0.013148 -0.002937 0.000000
0.000000 0.000000 0.000000
-0.009177 0.003608 0.000000
0.003608 0.001851 0.000000
0.000000 0.000000 0.000000
0.002401 -0.012048 0.000000
-0.012048 -0.013313 0.000000
0.000000 0.000000 0.000000
0.006257 -0.011683 0.000000
-0.011683 0.006318 0.000000
0.000000 0.000000 0.000000
-0.006219 0.007345 0.000000
0.007345 0.004937 0.000000
0.000000 0.000000 0.000000
-0.002232 -0.002196 0.000000
-0.002196 0.023189 0.000000
0.000000 0.000000 0.000000
0.022288 0.058646 0.000000
0.058646 0.010476 0.000000
0.000000 0.000000 0.000000
-0.006936 -0.001726 0.000000
-0.001726 -0.019567 0.000000
0.000000 0.000000 0.000000
-0.012044 -0.003984 0.000000
-0.003984 0.009202 0.000000
0.000000 0.000000 0.000000
-0.063822 0.005224 0.000000
0.005224 -0.087442 0.000000
0.000000 0.000000 0.000000
-0.001452 0.002714 0.000000
0.002714 -0.002888 0.000000
0.000000 0.000000 0.000000
-0.011534 0.000972 0.000000
0.000972 -0.005218 0.000000
0.000000 0.000000 0.000000
0.003983 -0.006715 0.000000
-0.006715 -0.007955 0.000000
0.000000 0.000000 0.000000
0.000624 0.001671 0.000000
0.001671 0.003771 0.000000
0.000000 0.000000 0.000000
-0.011050 -0.000604 0.000000
-0.000604 -0.011859 0.000000
0.000000 0.000000 0.000000
-0.010554 -0.000301 0.000000
-0.000301 -0.009904 0.000000
0.000000 0.000000 0.000000
-0.002231 -0.006524 0.000000
-0.006524 -0.007350 0.000000
0.000000 0.000000 0.000000
0.043345 -0.048087 0.000000
-0.048087 0.030867 0.000000
0.000000 0.000000 0.000000
-0.001238 0.013950 0.000000
0.013950 0.014082 0.000000
0.000000 0.000000 0.000000
0.022122 0.001043 0.000000
0.001043 0.019368 0.000000
0.000000 0.000000 0.000000
0.020433 0.001859 0.000000
0.001859 -0.004501 0.000000
0.000000 0.000000 0.000000
-0.003000 -0.015763 0.000000
-0.015763 0.005978 0.000000
0.000000 0.000000 0.000000
-0.018119 0.010158 0.000000
0.010158 -0.006911 0.000000
0.000000 0.000000 0.000000
0.018510 0.011440 0.000000
0.011440 0.036854 0.000000
0.000000 0.000000 0.000000
-0.006889 -0.009116 0.000000
-0.009116 -0.011287 0.000000
0.000000 0.000000 0.000000
0.005536 -0.001159 0.000000
-0.001159 -0.000050 0.000000
0.000000 0.000000 0.000000
-0.020233 0.005524 0.000000
0.005524 -0.002845 0.000000
0.000000 0.000000 0.000000
0.005577 -0.000580 0.000000
-0.000580 0.004503 0.000000
0.000000 0.000000 0.000000
0.010046 -0.025385 0.000000
-0.025385 0.026054 0.000000
0.000000 0.000000 0.000000
0.012061 -0.009187 0.000000
-0.009187 -0.004280 0.000000
0.000000 0.000000 0.000000
-0.012419 -0.002669 0.000000
-0.002669 -0.010725 0.000000
0.000000 0.000000 0.000000
0.013845 -0.010990 0.000000
-0.010990 -0.023161 0.000000
0.000000 0.000000 0.000000
-0.008893 -0.003565 0.000000
-0.003565 -0.010479 0.000000
0.000000 0.000000 0.000000
-0.021690 -0.000921 0.000000
-0.000921 -0.000721 0.000000
0.000000 0.000000 0.000000
0.008536 -0.011616 0.000000
-0.011616 0.002824 0.000000
0.000000 0.000000 0.000000
-0.000898 0.003160 0.000000
0.003160 -0.002331 0.000000
0.000000 0.000000 0.000000
0.000525 0.004131 0.000000
0.004131 -0.010443 0.000000
0.000000 0.000000 0.000000
-0.001109 0.009843 0.000000
0.009843 0.014939 0.000000
0.000000 0.000000 0.000000
-0.020603 -0.039886 0.000000
-0.039886 0.003844 0.000000
0.000000 0.000000 0.000000
-0.012301 0.003183 0.000000
0.003183 -0.011645 0.000000
0.000000 0.000000 0.000000
-0.021877 0.010134 0.000000
0.010134 0.003925 0.000000
0.000000 0.000000 0.000000
0.004592 -0.001964 0.000000
-0.001964 0.012376 0.000000
0.000000 0.000000 0.000000
0.000523 -0.000986 0.000000
-0.000986 0.004787 0.000000
0.000000 0.000000 0.000000
0.007303 0.008334 0.000000
0.008334 0.007923 0.000000
0.000000 0.000000 0.000000
0.017568 -0.002862 0.000000
-0.002862 -0.011846 0.000000
0.000000 0.000000 0.000000
0.013275 -0.015283 0.000000
-0.015283 0.012610 0.000000
0.000000 0.000000 0.000000
0.016511 0.009255 0.000000
0.009255 0.035084 0.000000
0.000000 0.000000 0.000000
0.002551 -0.000838 0.000000
-0.000838 0.005264 0.000000
0.000000 0.000000 0.000000
0.005562 0.007752 0.000000
0.007752 0.007181 0.000000
0.000000 0.000000 0.000000
0.004535 0.015644 0.000000
0.015644 0.004415 0.000000
0.000000 0.000000 0.000000
0.015720 -0.000861 0.000000
-0.000861 0.008211 0.000000
0.000000 0.000000 0.000000
-0.005821 0.004441 0.000000
0.004441 0.002195 0.000000
0.000000 0.000000 0.000000
-0.000297 -0.000110 0.000000
-0.000110 -0.009255 0.000000
0.000000 0.000000 0.000000
0.016207 0.009797 0.000000
0.009797 -0.003080 0.000000
0.000000 0.000000 0.000000
0.005222 -0.002108 0.000000
-0.002108 -0.021613 0.000000
0.000000 0.000000 0.000000
-0.019977 0.004927 0.000000
0.004927 -0.001316 0.000000
0.000000 0.000000 0.000000
-0.019013 -0.000930 0.000000
-0.000930 -0.005650 0.000000
0.000000 0.000000 0.000000
0.001939 0.003175 0.000000
0.003175 0.000644 0.000000
0.000000 0.000000 0.000000
-0.005053 0.002499 0.000000
0.002499 -0.000604 0.000000
0.000000 0.000000 0.000000
-0.003572 0.005399 0.000000
0.005399 -0.011990 0.000000
0.000000 0.000000 0.000000
0.009414 0.005888 0.000000
0.005888 0.008754 0.000000
0.000000 0.000000 0.000000
0.004315 0.004168 0.000000
0.004168 0.013995 0.000000
0.000000 0.000000 0.000000
0.003316 0.002615 0.000000
0.002615 0.017044 0.000000
0.000000 0.000000 0.000000
0.004337 0.004591 0.000000
0.004591 -0.002362 0.000000
0.000000 0.000000 0.000000
-0.002948 -0.003133 0.000000
-0.003133 0.001633 0.000000
0.000000 0.000000 0.000000
0.011376 0.007815 0.000000
0.007815 0.012574 0.000000
0.000000 0.000000 0.000000
-0.014699 -0.004535 0.000000
-0.004535 -0.006921 0.000000
0.000000 0.000000 0.000000
0.000657 0.000307 0.000000
0.000307 -0.013468 0.000000
0.000000 0.000000 0.000000
-0.009497 0.013967 0.000000
0.013967 0.024212 0.000000
0.000000 0.000000 0.000000
0.005636 -0.010819 0.000000
-0.010819 -0.031234 0.000000
0.000000 0.000000 0.000000
-0.017599 0.011712 0.000000
0.011712 -0.009944 0.000000
0.000000 0.000000 0.000000
0.003449 -0.009324 0.000000
-0.009324 -0.014037 0.000000
0.000000 0.000000 0.000000
0.018992 0.000788 0.000000
0.000788 0.000754 0.000000
0.000000 0.000000 0.000000
0.003553 -0.009263 0.000000
-0.009263 -0.004482 0.000000
0.000000 0.000000 0.000000
0.012177 0.007068 0.000000
0.007068 -0.009874 0.000000
0.000000 0.000000 0.000000
-0.013808 0.004776 0.000000
0.004776 -0.021033 0.000000
0.000000 0.000000 0.000000
0.012659 -0.001952 0.000000
-0.001952 0.012847 0.000000
0.000000 0.000000 0.000000
-0.007101 0.032648 0.000000
0.032648 -0.003859 0.000000
0.000000 0.000000 0.000000
-0.008526 -0.009013 0.000000
-0.009013 -0.022237 0.000000
0.000000 0.000000 0.000000
-0.017859 0.003689 0.000000
0.003689 -0.008173 0.000000
0.000000 0.000000 0.000000
0.015496 0.006057 0.000000
0.006057 -0.016631 0.000000
0.000000 0.000000 0.000000
0.001903 0.011351 0.000000
0.011351 0.002382 0.000000
0.000000 0.000000 0.000000
0.008890 0.004804 0.000000
0.004804 -0.005850 0.000000
0.000000 0.000000 0.000000
-0.001254 -0.005020 0.000000
-0.005020 -0.014707 0.000000
0.000000 0.000000 0.000000
0.008376 0.007471 0.000000
0.007471 0.018906 0.000000
0.000000 0.000000 0.000000
-0.002290 -0.016311 0.000000
-0.016311 -0.010914 0.000000
0.000000 0.000000 0.000000
0.013799 -0.000928 0.000000
-0.000928 0.006817 0.000000
0.000000 0.000000 0.000000
-0.005204 -0.007073 0.000000
-0.007073 -0.005716 0.000000
0.000000 0.000000 0.000000
-0.002248 0.001095 0.000000
0.001095 0.004353 0.000000
0.000000 0.000000 0.000000
0.003367 -0.011311 0.000000
-0.011311 0.001318 0.000000
0.000000 0.000000 0.000000
0.014421 0.000312 0.000000
0.000312 -0.020638 0.000000
0.000000 0.000000 0.000000
-0.000650 -0.010246 0.000000
-0.010246 0.001951 0.000000
0.000000 0.000000 0.000000
-0.005022 -0.008565 0.000000
-0.008565 -0.026167 0.000000
0.000000 0.000000 0.000000
0.014165 -0.003521 0.000000
-0.003521 -0.008414 0.000000
0.000000 0.000000 0.000000
0.012112 0.018451 0.000000
0.018451 0.015134 0.000000
0.000000 0.000000 0.000000
-0.005168 -0.002484 0.000000
-0.002484 -0.003796 0.000000
0.000000 0.000000 0.000000
-0.013720 0.002214 0.000000
0.002214 -0.040523 0.000000
0.000000 0.000000 0.000000
-0.004417 0.013199 0.000000
0.013199 -0.000286 0.000000
0.000000 0.000000 0.000000
0.014133 -0.001134 0.000000
-0.001134 0.013902 0.000000
0.000000 0.000000 0.000000
0.000947 -0.012877 0.000000
-0.012877 -0.044154 0.000000
0.000000 0.000000 0.000000
0.003033 0.003145 0.000000
0.003145 0.007038 0.000000
0.000000 0.000000 0.000000
0.011619 0.001122 0.000000
0.001122 -0.013294 0.000000
0.000000 0.000000 0.000000
0.000515 0.000867 0.000000
0.000867 -0.003205 0.000000
0.000000 0.000000 0.000000
0.001731 0.003331 0.000000
0.003331 0.001492 0.000000
0.000000 0.000000 0.000000
0.013577 -0.005657 0.000000
-0.005657 0.019317 0.000000
0.000000 0.000000 0.000000
0.013604 -0.002849 0.000000
-0.002849 0.019443 0.000000
0.000000 0.000000 0.000000
0.000583 0.006514 0.000000
0.006514 -0.001523 0.000000
0.000000 0.000000 0.000000
0.014917 -0.001706 0.000000
-0.001706 0.033456 0.000000
0.000000 0.000000 0.000000
0.001062 0.002846 0.000000
0.002846 0.001187 0.000000
0.000000 0.000000 0.000000
0.012510 0.000104 0.000000
0.000104 0.028861 0.000000
0.000000 0.000000 0.000000
-0.007369 -0.012261 0.000000
-0.012261 -0.002757 0.000000
0.000000 0.000000 0.000000
0.006608 -0.003299 0.000000
-0.003299 0.016774 0.000000
0.000000 0.000000 0.000000
0.007648 0.007078 0.000000
0.007078 -0.008218 0.000000
0.000000 0.000000 0.000000
0.030750 -0.015944 0.000000
-0.015944 0.006027 0.000000
0.000000 0.000000 0.000000
0.020673 -0.001120 0.000000
-0.001120 -0.014719 0.000000
0.000000 0.000000 0.000000
0.020315 0.006837 0.000000
0.006837 -0.008689 0.000000
0.000000 0.000000 0.000000
-0.002150 0.004546 0.000000
0.004546 0.009166 0.000000
0.000000 0.000000 0.000000
-0.005928 -0.005314 0.000000
-0.005314 0.004280 0.000000
0.000000 0.000000 0.000000
-0.001155 0.001285 0.000000
0.001285 -0.002291 0.000000
0.000000 0.000000 0.000000
-0.009285 -0.002006 0.000000
-0.002006 0.022580 0.000000
0.000000 0.000000 0.000000
-0.004161 0.021494 0.000000
0.021494 0.011823 0.000000
0.000000 0.000000 0.000000
-0.008123 0.008965 0.000000
0.008965 0.010606 0.000000
0.000000 0.000000 0.000000
0.021262 -0.017067 0.000000
-0.017067 -0.007641 0.000000
0.000000 0.000000 0.000000
0.002959 -0.008654 0.000000
-0.008654 0.004587 0.000000
0.000000 0.000000 0.000000
0.006773 0.014398 0.000000
0.014398 -0.003455 0.000000
0.000000 0.000000 0.000000
0.000600 0.000374 0.000000
0.000374 -0.003891 0.000000
0.000000 0.000000 0.000000
0.008098 -0.001095 0.000000
-0.001095 0.016989 0.000000
0.000000 0.000000 0.000000
0.009655 -0.007997 0.000000
-0.007997 0.010270 0.000000
0.000000 0.000000 0.000000
0.000518 0.004931 0.000000
0.004931 -0.003438 0.000000
0.000000 0.000000 0.000000
-0.028279 0.000741 0.000000
0.000741 -0.025554 0.000000
0.000000 0.000000 0.000000
-0.028386 -0.000772 0.000000
-0.000772 0.017185 0.000000
0.000000 0.000000 0.000000
-0.011817 -0.015461 0.000000
-0.015461 0.032764 0.000000
0.000000 0.000000 0.000000
-0.029575 -0.020279 0.000000
-0.020279 -0.009777 0.000000
0.000000 0.000000 0.000000
-0.011330 -0.016173 0.000000
-0.016173 -0.020694 0.000000
0.000000 0.000000 0.000000
0.040334 0.013910 0.000000
0.013910 -0.003481 0.000000
0.000000 0.000000 0.000000
-0.021293 -0.020615 0.000000
-0.020615 -0.027897 0.000000
0.000000 0.000000 0.000000
-0.001244 0.002208 0.000000
0.002208 -0.001932 0.000000
0.000000 0.000000 0.000000
-0.008706 0.004859 0.000000
0.004859 -0.006068 0.000000
0.000000 0.000000 0.000000
-0.023815 -0.017815 0.000000
-0.017815 -0.006319 0.000000
0.000000 0.000000 0.000000
0.032738 -0.014625 0.000000
-0.014625 0.000459 0.000000
0.000000 0.000000 0.000000
0.007522 -0.012510 0.000000
-0.012510 0.000468 0.000000
0.000000 0.000000 0.000000
0.034915 -0.017400 0.000000
-0.017400 0.007188 0.000000
0.000000 0.000000 0.000000
-0.007385 -0.002180 0.000000
-0.002180 0.024632 0.000000
0.000000 0.000000 0.000000
0.006977 0.000911 0.000000
0.000911 0.015731 0.000000
0.000000 0.000000 0.000000
-0.000346 0.006946 0.000000
0.006946 0.003520 0.000000
0.000000 0.000000 0.000000
0.017668 0.000518 0.000000
0.000518 0.007115 0.000000
0.000000 0.000000 0.000000
-0.001043 0.005789 0.000000
0.005789 0.006409 0.000000
0.000000 0.000000 0.000000
0.018204 0.000493 0.000000
0.000493 0.008941 0.000000
0.000000 0.000000 0.000000
0.000171 0.004653 0.000000
0.004653 0.007623 0.000000
0.000000 0.000000 0.000000
0.012597 0.006863 0.000000
0.006863 0.026314 0.000000
0.000000 0.000000 0.000000
0.012124 -0.003939 0.000000
-0.003939 0.005711 0.000000
0.000000 0.000000 0.000000
0.000552 0.003053 0.000000
0.003053 0.001341 0.000000
0.000000 0.000000 0.000000
-0.002632 -0.003414 0.000000
-0.003414 0.001253 0.000000
0.000000 0.000000 0.000000
0.015731 -0.005085 0.000000
-0.005085 0.000846 0.000000
0.000000 0.000000 0.000000
-0.004291 -0.002094 0.000000
-0.002094 -0.004397 0.000000
0.000000 0.000000 0.000000
-0.009899 -0.008735 0.000000
-0.008735 -0.006779 0.000000
0.000000 0.000000 0.000000
-0.015690 0.000622 0.000000
0.000622 0.000798 0.000000
0.000000 0.000000 0.000000
-0.015280 0.012709 0.000000
0.012709 0.006656 0.000000
0.000000 0.000000 0.000000
0.002685 -0.007652 0.000000
-0.007652 0.014164 0.000000
0.000000 0.000000 0.000000
-0.002834 0.002936 0.000000
0.002936 0.013514 0.000000
0.000000 0.000000 0.000000
-0.007930 0.015187 0.000000
0.015187 -0.037973 0.000000
0.000000 0.000000 0.000000
-0.032218 -0.008170 0.000000
-0.008170 -0.007791 0.000000
0.000000 0.000000 0.000000
-0.029988 -0.010082 0.000000
-0.010082 0.008877 0.000000
0.000000 0.000000 0.000000
-0.032662 0.001379 0.000000
0.001379 -0.010426 0.000000
0.000000 0.000000 0.000000
0.028140 0.001555 0.000000
0.001555 -0.001059 0.000000
0.000000 0.000000 0.000000
-0.003368 0.001260 0.000000
0.001260 -0.000432 0.000000
0.000000 0.000000 0.000000
0.002127 -0.005109 0.000000
-0.005109 0.001197 0.000000
0.000000 0.000000 0.000000
-0.002451 0.005475 0.000000
0.005475 -0.000055 0.000000
0.000000 0.000000 0.000000
-0.007387 -0.002057 0.000000
-0.002057 -0.027632 0.000000
0.000000 0.000000 0.000000
0.005665 0.002700 0.000000
0.002700 0.001552 0.000000
0.000000 0.000000 0.000000
-0.038880 -0.000197 0.000000
-0.000197 0.009593 0.000000
0.000000 0.000000 0.000000
-0.029752 -0.010277 0.000000
-0.010277 -0.045745 0.000000
0.000000 0.000000 0.000000
-0.007746 0.003508 0.000000
0.003508 0.001252 0.000000
0.000000 0.000000 0.000000
0.008333 -0.016435 0.000000
-0.016435 -0.013153 0.000000
0.000000 0.000000 0.000000
0.004906 0.000223 0.000000
0.000223 0.001732 0.000000
0.000000 0.000000 0.000000
0.037724 -0.020659 0.000000
-0.020659 0.002200 0.000000
0.000000 0.000000 0.000000
-0.023537 -0.009796 0.000000
-0.009796 0.010392 0.000000
0.000000 0.000000 0.000000
0.012106 0.009253 0.000000
0.009253 0.018002 0.000000
0.000000 0.000000 0.000000
-0.006934 0.003658 0.000000
0.003658 0.001068 0.000000
0.000000 0.000000 0.000000
0.007498 0.002673 0.000000
0.002673 0.003976 0.000000
0.000000 0.000000 0.000000
-0.002572 0.009396 0.000000
0.009396 -0.008518 0.000000
0.000000 0.000000 0.000000
-0.012035 0.010891 0.000000
0.010891 -0.005422 0.000000
0.000000 0.000000 0.000000
0.018759 -0.006481 0.000000
-0.006481 0.004968 0.000000
0.000000 0.000000 0.000000
0.002711 -0.001114 0.000000
-0.001114 0.003807 0.000000
0.000000 0.000000 0.000000
0.022000 0.002313 0.000000
0.002313 0.006120 0.000000
0.000000 0.000000 0.000000
0.016314 0.005190 0.000000
0.005190 0.013930 0.000000
0.000000 0.000000 0.000000
0.001840 -0.002803 0.000000
-0.002803 0.017749 0.000000
0.000000 0.000000 0.000000
0.010700 0.007120 0.000000
0.007120 -0.019835 0.000000
0.000000 0.000000 0.000000
-0.001226 -0.000704 0.000000
-0.000704 0.008054 0.000000
0.000000 0.000000 0.000000
-0.015478 -0.000917 0.000000
-0.000917 -0.011788 0.000000
0.000000 0.000000 0.000000
-0.029920 -0.000675 0.000000
-0.000675 -0.004851 0.000000
0.000000 0.000000 0.000000
0.005210 0.002202 0.000000
0.002202 -0.014616 0.000000
0.000000 0.000000 0.000000
0.034191 0.011938 0.000000
0.011938 0.007296 0.000000
0.000000 0.000000 0.000000
-0.003400 0.005555 0.000000
0.005555 -0.007573 0.000000
0.000000 0.000000 0.000000
0.012820 0.001679 0.000000
0.001679 -0.009776 0.000000
0.000000 0.000000 0.000000
-0.017209 -0.002498 0.000000
-0.002498 -0.013825 0.000000
0.000000 0.000000 0.000000
-0.026294 -0.004497 0.000000
-0.004497 0.010170 0.000000
0.000000 0.000000 0.000000
0.039549 -0.010657 0.000000
-0.010657 0.003157 0.000000
0.000000 0.000000 0.000000
0.009860 -0.007126 0.000000
-0.007126 -0.011403 0.000000
0.000000 0.000000 0.000000
-0.000663 -0.008227 0.000000
-0.008227 -0.005312 0.000000
0.000000 0.000000 0.000000
-0.009075 -0.003066 0.000000
-0.003066 -0.042798 0.000000
0.000000 0.000000 0.000000
0.002759 -0.011771 0.000000
-0.011771 -0.023803 0.000000
0.000000 0.000000 0.000000
0.044955 0.019432 0.000000
0.019432 -0.032118 0.000000
0.000000 0.000000 0.000000
0.016246 0.010341 0.000000
0.010341 0.012427 0.000000
0.000000 0.000000 0.000000
0.007454 0.001363 0.000000
0.001363 -0.005488 0.000000
0.000000 0.000000 0.000000
0.003330 0.012711 0.000000
0.012711 0.007341 0.000000
0.000000 0.000000 0.000000
0.014829 0.004883 0.000000
0.004883 -0.002895 0.000000
0.000000 0.000000 0.000000
-0.006231 -0.003654 0.000000
-0.003654 -0.016678 0.000000
0.000000 0.000000 0.000000
0.003836 -0.001782 0.000000
-0.001782 -0.013562 0.000000
0.000000 0.000000 0.000000
-0.003059 -0.006088 0.000000
-0.006088 0.006880 0.000000
0.000000 0.000000 0.000000
0.008816 0.001368 0.000000
0.001368 -0.002786 0.000000
0.000000 0.000000 0.000000
0.011013 0.011728 0.000000
0.011728 0.017927 0.000000
0.000000 0.000000 0.000000
0.016295 0.014209 0.000000
0.014209 -0.001681 0.000000
0.000000 0.000000 0.000000
-0.004808 -0.010622 0.000000
-0.010622 0.009257 0.000000
0.000000 0.000000 0.000000
-0.006488 0.003115 0.000000
0.003115 0.000643 0.000000
0.000000 0.000000 0.000000
0.012244 -0.004914 0.000000
-0.004914 -0.001171 0.000000
0.000000 0.000000 0.000000
0.001096 0.004319 0.000000
0.004319 0.000886 0.000000
0.000000 0.000000 0.000000
0.010048 0.001640 0.000000
0.001640 0.031047 0.000000
0.000000 0.000000 0.000000
0.005888 -0.001010 0.000000
-0.001010 -0.008850 0.000000
0.000000 0.000000 0.000000
-0.005839 0.009609 0.000000
0.009609 -0.001907 0.000000
0.000000 0.000000 0.000000
0.000837 0.006178 0.000000
0.006178 0.000894 0.000000
0.000000 0.000000 0.000000
0.001025 0.006508 0.000000
0.006508 -0.011485 0.000000
0.000000 0.000000 0.000000
-0.003039 -0.007082 0.000000
-0.007082 -0.007125 0.000000
0.000000 0.000000 0.000000
0.007995 -0.008845 0.000000
-0.008845 -0.008687 0.000000
0.000000 0.000000 0.000000
0.015623 0.000834 0.000000
0.000834 0.023629 0.000000
0.000000 0.000000 0.000000
-0.001187 -0.004538 0.000000
-0.004538 0.001556 0.000000
0.000000 0.000000 0.000000
-0.002529 -0.002149 0.000000
-0.002149 0.008928 0.000000
0.000000 0.000000 0.000000
0.000359 -0.009213 0.000000
-0.009213 -0.004165 0.000000
0.000000 0.000000 0.000000
-0.001624 -0.001068 0.000000
-0.001068 0.012454 0.000000
0.000000 0.000000 0.000000
0.000084 0.002743 0.000000
0.002743 -0.003568 0.000000
0.000000 0.000000 0.000000
-0.000237 -0.000331 0.000000
-0.000331 0.005031 0.000000
0.000000 0.000000 0.000000
-0.000067 -0.000281 0.000000
-0.000281 -0.002910 0.000000
0.000000 0.000000 0.000000
-0.038163 0.013879 0.000000
0.013879 0.013363 0.000000
0.000000 0.000000 0.000000
-0.016624 0.020129 0.000000
0.020129 0.015352 0.000000
0.000000 0.000000 0.000000
0.033970 0.001223 0.000000
0.001223 -0.017550 0.000000
0.000000 0.000000 0.000000
0.000038 0.003409 0.000000
0.003409 0.005380 0.000000
0.000000 0.000000 0.000000
-0.006549 -0.001814 0.000000
-0.001814 -0.005522 0.000000
0.000000 0.000000 0.000000
0.008627 -0.016861 0.000000
-0.016861 -0.013463 0.000000
0.000000 0.000000 0.000000
0.003532 0.007084 0.000000
0.007084 -0.003703 0.000000
0.000000 0.000000 0.000000
0.005682 0.006625 0.000000
0.006625 -0.003395 0.000000
0.000000 0.000000 0.000000
0.002570 -0.001888 0.000000
-0.001888 0.014296 0.000000
0.000000 0.000000 0.000000
0.007598 -0.007033 0.000000
-0.007033 -0.000147 0.000000
0.000000 0.000000 0.000000
0.004633 -0.000726 0.000000
-0.000726 0.011776 0.000000
0.000000 0.000000 0.000000
0.010193 -0.011783 0.000000
-0.011783 0.016491 0.000000
0.000000 0.000000 0.000000
0.002643 -0.000808 0.000000
-0.000808 0.011752 0.000000
0.000000 0.000000 0.000000
0.004000 0.001462 0.000000
0.001462 -0.019581 0.000000
0.000000 0.000000 0.000000
-0.001525 -0.004926 0.000000
-0.004926 0.004688 0.000000
0.000000 0.000000 0.000000
0.003558 0.006265 0.000000
0.006265 -0.015950 0.000000
0.000000 0.000000 0.000000
-0.004223 -0.007491 0.000000
-0.007491 -0.000480 0.000000
0.000000 0.000000 0.000000
0.006181 -0.003143 0.000000
-0.003143 0.006443 0.000000
0.000000 0.000000 0.000000
-0.009522 -0.008650 0.000000
-0.008650 0.000023 0.000000
0.000000 0.000000 0.000000
-0.004335 -0.002884 0.000000
-0.002884 -0.004976 0.000000
0.000000 0.000000 0.000000
-0.008230 0.002325 0.000000
0.002325 0.006064 0.000000
0.000000 0.000000 0.000000
0.003842 -0.003437 0.000000
-0.003437 -0.002692 0.000000
0.000000 0.000000 0.000000
-0.005042 -0.000715 0.000000
-0.000715 -0.007289 0.000000
0.000000 0.000000 0.000000
0.014070 0.000473 0.000000
0.000473 0.011914 0.000000
0.000000 0.000000 0.000000
0.010581 0.002610 0.000000
0.002610 0.024089 0.000000
0.000000 0.000000 0.000000
-0.019286 0.007585 0.000000
0.007585 0.009612 0.000000
0.000000 0.000000 0.000000
-0.003835 -0.004324 0.000000
-0.004324 0.019125 0.000000
0.000000 0.000000 0.000000
0.006459 -0.001371 0.000000
-0.001371 0.013629 0.000000
0.000000 0.000000 0.000000
0.003202 -0.001201 0.000000
-0.001201 -0.014049 0.000000
0.000000 0.000000 0.000000
0.020527 -0.003342 0.000000
-0.003342 -0.001445 0.000000
0.000000 0.000000 0.000000
0.012216 -0.009464 0.000000
-0.009464 -0.005487 0.000000
0.000000 0.000000 0.000000
-0.007323 -0.007617 0.000000
-0.007617 -0.014606 0.000000
0.000000 0.000000 0.000000
0.028233 0.002345 0.000000
0.002345 0.020109 0.000000
0.000000 0.000000 0.000000
-0.027563 -0.008634 0.000000
-0.008634 0.001550 0.000000
0.000000 0.000000 0.000000
0.002786 0.020657 0.000000
0.020657 0.012979 0.000000
0.000000 0.000000 0.000000
-0.008499 -0.007824 0.000000
-0.007824 -0.014766 0.000000
0.000000 0.000000 0.000000
-0.009988 0.008476 0.000000
0.008476 0.007103 0.000000
0.000000 0.000000 0.000000
-0.026103 -0.009978 0.000000
-0.009978 -0.014354 0.000000
0.000000 0.000000 0.000000
0.000588 -0.000563 0.000000
-0.000563 -0.007096 0.000000
0.000000 0.000000 0.000000
0.007520 0.001823 0.000000
0.001823 0.006224 0.000000
0.000000 0.000000 0.000000
-0.003506 0.000650 0.000000
0.000650 -0.013080 0.000000
0.000000 0.000000 0.000000
0.001808 0.001973 0.000000
0.001973 -0.012140 0.000000
0.000000 0.000000 0.000000
-0.011775 -0.003596 0.000000
-0.003596 0.000753 0.000000
0.000000 0.000000 0.000000
-0.003574 0.004913 0.000000
0.004913 0.013980 0.000000
0.000000 0.000000 0.000000
0.025846 -0.002231 0.000000
-0.002231 0.020802 0.000000
0.000000 0.000000 0.000000
0.004466 -0.009938 0.000000
-0.009938 0.010532 0.000000
0.000000 0.000000 0.000000
-0.008698 -0.003401 0.000000
-0.003401 -0.018239 0.000000
0.000000 0.000000 0.000000
-0.008312 -0.005238 0.000000
-0.005238 -0.011348 0.000000
0.000000 0.000000 0.000000
-0.000168 0.009091 0.000000
0.009091 -0.005108 0.000000
0.000000 0.000000 0.000000
0.014209 0.003538 0.000000
0.003538 -0.010558 0.000000
0.000000 0.000000 0.000000
-0.016425 0.009741 0.000000
0.009741 -0.010524 0.000000
0.000000 0.000000 0.000000
-0.009793 0.001759 0.000000
0.001759 0.013288 0.000000
0.000000 0.000000 0.000000
-0.006684 0.002938 0.000000
0.002938 -0.000821 0.000000
0.000000 0.000000 0.000000
0.009964 -0.006987 0.000000
-0.006987 0.000252 0.000000
0.000000 0.000000 0.000000
0.007473 -0.010189 0.000000
-0.010189 0.005216 0.000000
0.000000 0.000000 0.000000
0.003512 -0.022415 0.000000
-0.022415 0.000357 0.000000
0.000000 0.000000 0.000000
0.003346 -0.004413 0.000000
-0.004413 0.002423 0.000000
0.000000 0.000000 0.000000
0.003457 -0.004858 0.000000
-0.004858 0.007309 0.000000
0.000000 0.000000 0.000000
0.001001 -0.023676 0.000000
-0.023676 0.007524 0.000000
0.000000 0.000000 0.000000
0.005884 -0.013706 0.000000
-0.013706 0.006700 0.000000
0.000000 0.000000 0.000000
0.010579 0.009498 0.000000
0.009498 -0.002731 0.000000
0.000000 0.000000 0.000000
0.007190 -0.014326 0.000000
-0.014326 -0.010256 0.000000
0.000000 0.000000 0.000000
-0.001109 -0.000600 0.000000
-0.000600 -0.000901 0.000000
0.000000 0.000000 0.000000
-0.006883 -0.010492 0.000000
-0.010492 -0.006984 0.000000
0.000000 0.000000 0.000000
-0.008572 -0.002804 0.000000
-0.002804 0.000035 0.000000
0.000000 0.000000 0.000000
-0.002507 -0.008172 0.000000
-0.008172 0.004709 0.000000
0.000000 0.000000 0.000000
0.001306 -0.004709 0.000000
-0.004709 0.001124 0.000000
0.000000 0.000000 0.000000
0.004410 0.006658 0.000000
0.006658 0.011004 0.000000
0.000000 0.000000 0.000000
-0.012893 -0.014677 0.000000
-0.014677 -0.000510 0.000000
0.000000 0.000000 0.000000
-0.000107 -0.015063 0.000000
-0.015063 -0.001908 0.000000
0.000000 0.000000 0.000000
-0.028544 -0.003432 0.000000
-0.003432 -0.018302 0.000000
0.000000 0.000000 0.000000
-0.022653 -0.000212 0.000000
-0.000212 -0.001907 0.000000
0.000000 0.000000 0.000000
-0.005532 0.001086 0.000000
0.001086 0.012334 0.000000
0.000000 0.000000 0.000000
-0.008411 0.003553 0.000000
0.003553 -0.015645 0.000000
0.000000 0.000000 0.000000
-0.010560 0.008930 0.000000
0.008930 -0.000685 0.000000
0.000000 0.000000 0.000000
0.001659 0.014037 0.000000
0.014037 0.018209 0.000000
0.000000 0.000000 0.000000
-0.001135 0.013893 0.000000
0.013893 0.019702 0.000000
0.000000 0.000000 0.000000
-0.002958 -0.007246 0.000000
-0.007246 -0.003398 0.000000
0.000000 0.000000 0.000000
0.004604 -0.010816 0.000000
-0.010816 0.009887 0.000000
0.000000 0.000000 0.000000
-0.002309 -0.007379 0.000000
-0.007379 -0.002715 0.000000
0.000000 0.000000 0.000000
-0.000708 -0.007234 0.000000
-0.007234 -0.002783 0.000000
0.000000 0.000000 0.000000
-0.000409 -0.014189 0.000000
-0.014189 0.003221 0.000000
0.000000 0.000000 0.000000
-0.010873 0.029783 0.000000
0.029783 -0.001146 0.000000
0.000000 0.000000 0.000000
-0.007400 0.002007 0.000000
0.002007 -0.032497 0.000000
0.000000 0.000000 0.000000
0.016486 -0.007361 0.000000
-0.007361 0.013427 0.000000
0.000000 0.000000 0.000000
-0.000491 0.005235 0.000000
0.005235 -0.007135 0.000000
0.000000 0.000000 0.000000
0.011820 0.013739 0.000000
0.013739 0.037901 0.000000
0.000000 0.000000 0.000000
0.000162 0.008375 0.000000
0.008375 0.001536 0.000000
0.000000 0.000000 0.000000
-0.001454 0.006704 0.000000
0.006704 -0.010766 0.000000
0.000000 0.000000 0.000000
-0.002919 0.007787 0.000000
0.007787 0.001804 0.000000
0.000000 0.000000 0.000000
0.003665 0.009897 0.000000
0.009897 -0.003402 0.000000
0.000000 0.000000 0.000000
0.000525 -0.003270 0.000000
-0.003270 -0.012711 0.000000
0.000000 0.000000 0.000000
-0.026070 -0.006519 0.000000
-0.006519 -0.015972 0.000000
0.000000 0.000000 0.000000
0.012914 0.006133 0.000000
0.006133 0.002249 0.000000
0.000000 0.000000 0.000000
-0.002969 0.000251 0.000000
0.000251 0.015894 0.000000
0.000000 0.000000 0.000000
-0.004991 0.005101 0.000000
0.005101 0.000065 0.000000
0.000000 0.000000 0.000000
0.015633 0.004690 0.000000
0.004690 0.006455 0.000000
0.000000 0.000000 0.000000
0.003713 0.002691 0.000000
0.002691 -0.007129 0.000000
0.000000 0.000000 0.000000
-0.005662 0.000054 0.000000
0.000054 -0.028045 0.000000
0.000000 0.000000 0.000000
-0.011401 -0.002722 0.000000
-0.002722 -0.030700 0.000000
0.000000 0.000000 0.000000
0.006383 0.006982 0.000000
0.006982 0.001826 0.000000
0.000000 0.000000 0.000000
-0.009295 -0.003614 0.000000
-0.003614 -0.033186 0.000000
0.000000 0.000000 0.000000
0.008041 0.001097 0.000000
0.001097 0.017210 0.000000
0.000000 0.000000 0.000000
0.004616 0.000011 0.000000
0.000011 0.034237 0.000000
0.000000 0.000000 0.000000
-0.000470 0.001692 0.000000
0.001692 -0.026406 0.000000
0.000000 0.000000 0.000000
-0.004618 -0.019908 0.000000
-0.019908 -0.002732 0.000000
0.000000 0.000000 0.000000
-0.027817 -0.007393 0.000000
-0.007393 -0.005878 0.000000
0.000000 0.000000 0.000000
0.003995 0.002452 0.000000
0.002452 -0.021795 0.000000
0.000000 0.000000 0.000000
-0.029529 0.013373 0.000000
0.013373 -0.012611 0.000000
0.000000 0.000000 0.000000
0.000832 0.004264 0.000000
0.004264 -0.025414 0.000000
0.000000 0.000000 0.000000
-0.008640 0.002668 0.000000
0.002668 -0.013925 0.000000
0.000000 0.000000 0.000000
-0.018087 0.010992 0.000000
0.010992 -0.007790 0.000000
0.000000 0.000000 0.000000
0.000913 0.005483 0.000000
0.005483 -0.016470 0.000000
0.000000 0.000000 0.000000
-0.006517 -0.001682 0.000000
-0.001682 0.026395 0.000000
0.000000 0.000000 0.000000
-0.002559 0.001287 0.000000
0.001287 -0.018090 0.000000
0.000000 0.000000 0.000000
-0.002611 0.000980 0.000000
0.000980 -0.016983 0.000000
0.000000 0.000000 0.000000
0.008610 0.008179 0.000000
0.008179 -0.010778 0.000000
0.000000 0.000000 0.000000
0.003473 0.012736 0.000000
0.012736 -0.021686 0.000000
0.000000 0.000000 0.000000
0.001167 0.003996 0.000000
0.003996 -0.006994 0.000000
0.000000 0.000000 0.000000
-0.010550 -0.001753 0.000000
-0.001753 -0.013443 0.000000
0.000000 0.000000 0.000000
0.014436 0.004519 0.000000
0.004519 0.001219 0.000000
0.000000 0.000000 0.000000
0.020979 0.013179 0.000000
0.013179 0.010872 0.000000
0.000000 0.000000 0.000000
-0.000616 -0.006779 0.000000
-0.006779 -0.014482 0.000000
0.000000 0.000000 0.000000
0.007379 0.000679 0.000000
0.000679 0.006073 0.000000
0.000000 0.000000 0.000000
-0.040139 -0.005109 0.000000
-0.005109 -0.026480 0.000000
0.000000 0.000000 0.000000
0.009207 -0.000948 0.000000
-0.000948 0.007346 0.000000
0.000000 0.000000 0.000000
0.019900 0.004057 0.000000
0.004057 0.022389 0.000000
0.000000 0.000000 0.000000
-0.004144 -0.007209 0.000000
-0.007209 0.003374 0.000000
0.000000 0.000000 0.000000
0.003152 0.011922 0.000000
0.011922 -0.017182 0.000000
0.000000 0.000000 0.000000
0.011802 0.007526 0.000000
0.007526 -0.024834 0.000000
0.000000 0.000000 0.000000
-0.021434 0.006463 0.000000
0.006463 -0.035131 0.000000
0.000000 0.000000 0.000000
0.005255 -0.003669 0.000000
-0.003669 -0.020838 0.000000
0.000000 0.000000 0.000000
-0.001173 0.009573 0.000000
0.009573 -0.028167 0.000000
0.000000 0.000000 0.000000
-0.000409 0.000682 0.000000
0.000682 -0.016193 0.000000
0.000000 0.000000 0.000000
-0.003715 0.009188 0.000000
0.009188 0.005575 0.000000
0.000000 0.000000 0.000000
-0.009713 -0.002983 0.000000
-0.002983 -0.023254 0.000000
0.000000 0.000000 0.000000
-0.012479 -0.001549 0.000000
-0.001549 -0.018564 0.000000
0.000000 0.000000 0.000000
-0.015895 -0.009275 0.000000
-0.009275 -0.012545 0.000000
0.000000 0.000000 0.000000
-0.017138 -0.005295 0.000000
-0.005295 -0.024871 0.000000
0.000000 0.000000 0.000000
0.019761 0.009936 0.000000
0.009936 -0.031344 0.000000
0.000000 0.000000 0.000000
0.001874 0.006134 0.000000
0.006134 0.012503 0.000000
0.000000 0.000000 0.000000
-0.009456 -0.014720 0.000000
-0.014720 -0.000417 0.000000
0.000000 0.000000 0.000000
-0.000714 -0.002243 0.000000
-0.002243 0.003978 0.000000
0.000000 0.000000 0.000000
-0.000808 0.002980 0.000000
0.002980 -0.006109 0.000000
0.000000 0.000000 0.000000
-0.001395 0.003368 0.000000
0.003368 0.009678 0.000000
0.000000 0.000000 0.000000
0.018449 -0.002963 0.000000
-0.002963 0.028110 0.000000
0.000000 0.000000 0.000000
-0.011202 0.005660 0.000000
0.005660 0.017037 0.000000
0.000000 0.000000 0.000000
0.010443 -0.002140 0.000000
-0.002140 -0.019331 0.000000
0.000000 0.000000 0.000000
-0.032386 0.003760 0.000000
0.003760 -0.045993 0.000000
0.000000 0.000000 0.000000
0.009711 0.001702 0.000000
0.001702 0.029927 0.000000
0.000000 0.000000 0.000000
0.005154 0.004957 0.000000
0.004957 0.018883 0.000000
0.000000 0.000000 0.000000
-0.003814 -0.003232 0.000000
-0.003232 -0.014148 0.000000
0.000000 0.000000 0.000000
0.022026 0.004082 0.000000
0.004082 -0.022451 0.000000
0.000000 0.000000 0.000000
-0.007076 0.000165 0.000000
0.000165 -0.022165 0.000000
0.000000 0.000000 0.000000
0.029414 -0.000827 0.000000
-0.000827 -0.007026 0.000000
0.000000 0.000000 0.000000
0.008500 -0.000013 0.000000
-0.000013 0.014110 0.000000
0.000000 0.000000 0.000000
0.004139 0.002703 0.000000
0.002703 0.015151 0.000000
0.000000 0.000000 0.000000
-0.004778 0.003099 0.000000
0.003099 0.013333 0.000000
0.000000 0.000000 0.000000
0.006114 0.001087 0.000000
0.001087 0.022082 0.000000
0.000000 0.000000 0.000000
0.015343 0.003137 0.000000
0.003137 0.013912 0.000000
0.000000 0.000000 0.000000
0.007292 -0.001575 0.000000
-0.001575 -0.014834 0.000000
0.000000 0.000000 0.000000
0.007857 0.001536 0.000000
0.001536 -0.003134 0.000000
0.000000 0.000000 0.000000
0.001405 -0.015128 0.000000
-0.015128 -0.017783 0.000000
0.000000 0.000000 0.000000
0.008146 0.002216 0.000000
0.002216 -0.002873 0.000000
0.000000 0.000000 0.000000
0.012781 -0.017837 0.000000
-0.017837 0.015773 0.000000
0.000000 0.000000 0.000000
-0.008013 -0.028483 0.000000
-0.028483 0.003669 0.000000
0.000000 0.000000 0.000000
-0.006453 0.012246 0.000000
0.012246 0.001674 0.000000
0.000000 0.000000 0.000000
0.013124 -0.013313 0.000000
-0.013313 -0.024897 0.000000
0.000000 0.000000 0.000000
-0.029351 0.011502 0.000000
0.011502 0.007739 0.000000
0.000000 0.000000 0.000000
-0.012000 0.007346 0.000000
0.007346 -0.000700 0.000000
0.000000 0.000000 0.000000
-0.035737 0.024904 0.000000
0.024904 -0.030090 0.000000
0.000000 0.000000 0.000000
-0.007418 0.004083 0.000000
0.004083 0.004047 0.000000
0.000000 0.000000 0.000000
0.004117 -0.001187 0.000000
-0.001187 -0.002752 0.000000
0.000000 0.000000 0.000000
0.018667 -0.000984 0.000000
-0.000984 0.003700 0.000000
0.000000 0.000000 0.000000
-0.014732 0.005098 0.000000
0.005098 -0.014888 0.000000
0.000000 0.000000 0.000000
0.014467 -0.012477 0.000000
-0.012477 0.003651 0.000000
0.000000 0.000000 0.000000
0.000656 -0.005085 0.000000
-0.005085 0.004625 0.000000
0.000000 0.000000 0.000000
-0.010606 0.004881 0.000000
0.004881 -0.007255 0.000000
0.000000 0.000000 0.000000
0.007870 -0.001771 0.000000
-0.001771 -0.003426 0.000000
0.000000 0.000000 0.000000
-0.038349 0.017049 0.000000
0.017049 -0.022833 0.000000
0.000000 0.000000 0.000000
-0.010853 -0.010075 0.000000
-0.010075 0.025970 0.000000
0.000000 0.000000 0.000000
-0.003152 -0.011719 0.000000
-0.011719 -0.010245 0.000000
0.000000 0.000000 0.000000
-0.010420 -0.001538 0.000000
-0.001538 -0.010090 0.000000
0.000000 0.000000 0.000000
-0.016800 -0.015253 0.000000
-0.015253 0.027349 0.000000
0.000000 0.000000 0.000000
-0.006788 0.002123 0.000000
0.002123 0.002055 0.000000
0.000000 0.000000 0.000000
-0.006624 0.001336 0.000000
0.001336 -0.014557 0.000000
0.000000 0.000000 0.000000
-0.000604 0.005357 0.000000
0.005357 0.005603 0.000000
0.000000 0.000000 0.000000
0.001500 -0.002157 0.000000
-0.002157 0.009878 0.000000
0.000000 0.000000 0.000000
0.002072 -0.001405 0.000000
-0.001405 0.005681 0.000000
0.000000 0.000000 0.000000
0.008081 0.000079 0.000000
0.000079 0.022189 0.000000
0.000000 0.000000 0.000000
-0.001612 0.000370 0.000000
0.000370 -0.010690 0.000000
0.000000 0.000000 0.000000
0.012851 0.007460 0.000000
0.007460 -0.018473 0.000000
0.000000 0.000000 0.000000
0.002095 0.005503 0.000000
0.005503 -0.011184 0.000000
0.000000 0.000000 0.000000
-0.006676 -0.000736 0.000000
-0.000736 0.005257 0.000000
0.000000 0.000000 0.000000
-0.008055 0.004314 0.000000
0.004314 0.005606 0.000000
0.000000 0.000000 0.000000
0.015375 0.007204 0.000000
0.007204 0.015597 0.000000
0.000000 0.000000 0.000000
0.007910 -0.003527 0.000000
-0.003527 0.026311 0.000000
0.000000 0.000000 0.000000
0.003130 0.000747 0.000000
0.000747 0.007057 0.000000
0.000000 0.000000 0.000000
-0.019333 0.001443 0.000000
0.001443 -0.021361 0.000000
0.000000 0.000000 0.000000
0.001806 -0.000303 0.000000
-0.000303 0.010234 0.000000
0.000000 0.000000 0.000000
0.012761 0.024946 0.000000
0.024946 -0.011697 0.000000
0.000000 0.000000 0.000000
0.012633 -0.016654 0.000000
-0.016654 -0.005506 0.000000
0.000000 0.000000 0.000000
-0.001149 0.033663 0.000000
0.033663 0.001713 0.000000
0.000000 0.000000 0.000000
-0.007940 0.002388 0.000000
0.002388 -0.017722 0.000000
0.000000 0.000000 0.000000
-0.000261 0.008235 0.000000
0.008235 0.001702 0.000000
0.000000 0.000000 0.000000
-0.006913 -0.002580 0.000000
-0.002580 0.007923 0.000000
0.000000 0.000000 0.000000
-0.000671 0.010462 0.000000
0.010462 0.000336 0.000000
0.000000 0.000000 0.000000
0.002616 0.004293 0.000000
0.004293 -0.000194 0.000000
0.000000 0.000000 0.000000
-0.006438 -0.001789 0.000000
-0.001789 -0.014132 0.000000
0.000000 0.000000 0.000000
-0.010025 -0.002696 0.000000
-0.002696 -0.010264 0.000000
0.000000 0.000000 0.000000
0.005018 0.001513 0.000000
0.001513 -0.000918 0.000000
0.000000 0.000000 0.000000
0.002570 -0.002868 0.000000
-0.002868 0.019826 0.000000
0.000000 0.000000 0.000000
-0.003169 0.003828 0.000000
0.003828 0.003094 0.000000
0.000000 0.000000 0.000000
-0.011537 -0.004259 0.000000
-0.004259 0.006556 0.000000
0.000000 0.000000 0.000000
-0.006725 -0.004504 0.000000
-0.004504 -0.006961 0.000000
0.000000 0.000000 0.000000
-0.009688 -0.002419 0.000000
-0.002419 -0.013882 0.000000
0.000000 0.000000 0.000000
-0.020797 0.028425 0.000000
0.028425 0.003298 0.000000
0.000000 0.000000 0.000000
0.011452 0.001250 0.000000
0.001250 0.028130 0.000000
0.000000 0.000000 0.000000
0.005317 -0.012346 0.000000
-0.012346 -0.021293 0.000000
0.000000 0.000000 0.000000
-0.008663 -0.011361 0.000000
-0.011361 -0.014467 0.000000
0.000000 0.000000 0.000000
-0.021410 -0.013735 0.000000
-0.013735 -0.005042 0.000000
0.000000 0.000000 0.000000
-0.004483 -0.006919 0.000000
-0.006919 0.013619 0.000000
0.000000 0.000000 0.000000
-0.003582 0.005491 0.000000
0.005491 -0.017397 0.000000
0.000000 0.000000 0.000000
0.002712 -0.002641 0.000000
-0.002641 0.013466 0.000000
0.000000 0.000000 0.000000
0.006863 -0.000855 0.000000
-0.000855 0.012418 0.000000
0.000000 0.000000 0.000000
0.005400 0.003484 0.000000
0.003484 0.010847 0.000000
0.000000 0.000000 0.000000
-0.003505 0.002110 0.000000
0.002110 -0.016323 0.000000
0.000000 0.000000 0.000000
-0.014982 -0.006085 0.000000
-0.006085 -0.037748 0.000000
0.000000 0.000000 0.000000
-0.010653 0.006701 0.000000
0.006701 0.012332 0.000000
0.000000 0.000000 0.000000
-0.009426 0.003425 0.000000
0.003425 -0.029696 0.000000
0.000000 0.000000 0.000000
-0.003036 0.017038 0.000000
0.017038 0.000159 0.000000
0.000000 0.000000 0.000000
-0.000908 0.001277 0.000000
0.001277 -0.007765 0.000000
0.000000 0.000000 0.000000
0.001980 -0.000558 0.000000
-0.000558 -0.001250 0.000000
0.000000 0.000000 0.000000
-0.007069 0.010252 0.000000
0.010252 -0.002979 0.000000
0.000000 0.000000 0.000000
0.011940 -0.017773 0.000000
-0.017773 0.011095 0.000000
0.000000 0.000000 0.000000
-0.015628 0.000810 0.000000
0.000810 -0.031912 0.000000
0.000000 0.000000 0.000000
0.022209 -0.011027 0.000000
-0.011027 0.019341 0.000000
0.000000 0.000000 0.000000
0.006621 -0.004820 0.000000
-0.004820 0.026727 0.000000
0.000000 0.000000 0.000000
0.012052 -0.000156 0.000000
-0.000156 0.023339 0.000000
0.000000 0.000000 0.000000
-0.008880 0.004525 0.000000
0.004525 0.007367 0.000000
0.000000 0.000000 0.000000
-0.001415 -0.005110 0.000000
-0.005110 -0.010557 0.000000
0.000000 0.000000 0.000000
-0.000434 0.009427 0.000000
0.009427 0.016817 0.000000
0.000000 0.000000 0.000000
0.012318 -0.005035 0.000000
-0.005035 -0.014669 0.000000
0.000000 0.000000 0.000000
0.013563 -0.002580 0.000000
-0.002580 -0.009066 0.000000
0.000000 0.000000 0.000000
0.017875 0.007968 0.000000
0.007968 -0.003266 0.000000
0.000000 0.000000 0.000000
-0.015642 0.006065 0.000000
0.006065 -0.011452 0.000000
0.000000 0.000000 0.000000
-0.010942 0.000964 0.000000
0.000964 -0.013802 0.000000
0.000000 0.000000 0.000000
-0.006505 0.007698 0.000000
0.007698 -0.011187 0.000000
0.000000 0.000000 0.000000
-0.011472 0.009572 0.000000
0.009572 0.007407 0.000000
0.000000 0.000000 0.000000
-0.007071 0.000017 0.000000
0.000017 -0.012153 0.000000
0.000000 0.000000 0.000000
0.016732 -0.000158 0.000000
-0.000158 0.011225 0.000000
0.000000 0.000000 0.000000
0.005014 0.003072 0.000000
0.003072 -0.007452 0.000000
0.000000 0.000000 0.000000
0.000654 -0.000594 0.000000
-0.000594 0.014214 0.000000
0.000000 0.000000 0.000000
0.004168 -0.003694 0.000000
-0.003694 -0.009363 0.000000
0.000000 0.000000 0.000000
0.010953 -0.002246 0.000000
-0.002246 -0.006739 0.000000
0.000000 0.000000 0.000000
-0.013257 -0.000600 0.000000
-0.000600 -0.001781 0.000000
0.000000 0.000000 0.000000
-0.006749 -0.001025 0.000000
-0.001025 -0.001742 0.000000
0.000000 0.000000 0.000000
-0.009911 -0.006586 0.000000
-0.006586 -0.012414 0.000000
0.000000 0.000000 0.000000
-0.009661 -0.005440 0.000000
-0.005440 -0.002841 0.000000
0.000000 0.000000 0.000000
-0.012993 0.000479 0.000000
0.000479 -0.007324 0.000000
0.000000 0.000000 0.000000
0.005638 0.002407 0.000000
0.002407 0.001328 0.000000
0.000000 0.000000 0.000000
0.009307 0.012135 0.000000
0.012135 0.002605 0.000000
0.000000 0.000000 0.000000
0.019678 -0.001605 0.000000
-0.001605 0.005473 0.000000
0.000000 0.000000 0.000000
0.001330 0.006862 0.000000
0.006862 -0.002717 0.000000
0.000000 0.000000 0.000000
0.059035 -0.002176 0.000000
-0.002176 0.023622 0.000000
0.000000 0.000000 0.000000
0.045143 -0.010305 0.000000
-0.010305 -0.010623 0.000000
0.000000 0.000000 0.000000
0.006862 -0.003305 0.000000
-0.003305 0.015189 0.000000
0.000000 0.000000 0.000000
-0.019260 0.008423 0.000000
0.008423 -0.007419 0.000000
0.000000 0.000000 0.000000
-0.011676 0.001519 0.000000
0.001519 -0.017061 0.000000
0.000000 0.000000 0.000000
-0.004390 -0.003482 0.000000
-0.003482 0.002204 0.000000
0.000000 0.000000 0.000000
-0.019035 -0.007721 0.000000
-0.007721 -0.009507 0.000000
0.000000 0.000000 0.000000
-0.008225 0.001612 0.000000
0.001612 0.004949 0.000000
0.000000 0.000000 0.000000
0.046397 -0.019271 0.000000
-0.019271 0.002423 0.000000
0.000000 0.000000 0.000000
-0.059904 0.006796 0.000000
0.006796 -0.014707 0.000000
0.000000 0.000000 0.000000
0.034955 -0.034385 0.000000
-0.034385 0.007116 0.000000
0.000000 0.000000 0.000000
-0.007543 0.011240 0.000000
0.011240 0.010570 0.000000
0.000000 0.000000 0.000000
0.008185 0.000854 0.000000
0.000854 0.029978 0.000000
0.000000 0.000000 0.000000
0.011959 -0.002333 0.000000
-0.002333 0.014812 0.000000
0.000000 0.000000 0.000000
-0.005479 -0.006970 0.000000
-0.006970 -0.016430 0.000000
0.000000 0.000000 0.000000
-0.001052 -0.004171 0.000000
-0.004171 -0.010552 0.000000
0.000000 0.000000 0.000000
0.005770 0.023649 0.000000
0.023649 -0.035683 0.000000
0.000000 0.000000 0.000000
0.014345 -0.001911 0.000000
-0.001911 0.006343 0.000000
0.000000 0.000000 0.000000
-0.025874 0.034831 0.000000
0.034831 0.031535 0.000000
0.000000 0.000000 0.000000
-0.008109 0.000639 0.000000
0.000639 -0.013587 0.000000
0.000000 0.000000 0.000000
-0.002412 -0.001189 0.000000
-0.001189 -0.012128 0.000000
0.000000 0.000000 0.000000
-0.001063 -0.000807 0.000000
-0.000807 -0.003923 0.000000
0.000000 0.000000 0.000000
0.006688 -0.009854 0.000000
-0.009854 0.000209 0.000000
0.000000 0.000000 0.000000
0.011415 -0.006350 0.000000
-0.006350 0.003010 0.000000
0.000000 0.000000 0.000000
-0.011664 -0.002677 0.000000
-0.002677 -0.039981 0.000000
0.000000 0.000000 0.000000
0.002072 0.005431 0.000000
0.005431 -0.010212 0.000000
0.000000 0.000000 0.000000
-0.010522 0.000261 0.000000
0.000261 -0.018148 0.000000
0.000000 0.000000 0.000000
0.002788 0.003719 0.000000
0.003719 -0.007756 0.000000
0.000000 0.000000 0.000000
-0.003770 -0.006199 0.000000
-0.006199 -0.010214 0.000000
0.000000 0.000000 0.000000
0.004481 0.000015 0.000000
0.000015 0.017761 0.000000
0.000000 0.000000 0.000000
0.001410 0.004021 0.000000
0.004021 0.006676 0.000000
0.000000 0.000000 0.000000
-0.011253 0.006119 0.000000
0.006119 0.036043 0.000000
0.000000 0.000000 0.000000
0.014638 0.010161 0.000000
0.010161 0.001449 0.000000
0.000000 0.000000 0.000000
-0.005989 0.000499 0.000000
0.000499 0.003957 0.000000
0.000000 0.000000 0.000000
-0.023751 0.001102 0.000000
0.001102 -0.001855 0.000000
0.000000 0.000000 0.000000
-0.000690 -0.003515 0.000000
-0.003515 0.009952 0.000000
0.000000 0.000000 0.000000
-0.002294 0.002463 0.000000
0.002463 -0.011939 0.000000
0.000000 0.000000 0.000000
0.005373 -0.002994 0.000000
-0.002994 0.012185 0.000000
0.000000 0.000000 0.000000
0.004340 -0.005036 0.000000
-0.005036 0.063598 0.000000
0.000000 0.000000 0.000000
0.000147 0.003634 0.000000
0.003634 0.002939 0.000000
0.000000 0.000000 0.000000
-0.073425 -0.024646 0.000000
-0.024646 -0.012195 0.000000
0.000000 0.000000 0.000000
0.000265 0.003788 0.000000
0.003788 0.017962 0.000000
0.000000 0.000000 0.000000
-0.003180 -0.008537 0.000000
-0.008537 0.010473 0.000000
0.000000 0.000000 0.000000
-0.001537 0.004410 0.000000
0.004410 0.002068 0.000000
0.000000 0.000000 0.000000
0.009955 -0.000702 0.000000
-0.000702 0.033498 0.000000
0.000000 0.000000 0.000000
0.000974 -0.006285 0.000000
-0.006285 -0.005111 0.000000
0.000000 0.000000 0.000000
0.007704 -0.001202 0.000000
-0.001202 0.003564 0.000000
0.000000 0.000000 0.000000
-0.011544 0.007390 0.000000
0.007390 -0.010509 0.000000
0.000000 0.000000 0.000000
-0.006506 0.010739 0.000000
0.010739 -0.034978 0.000000
0.000000 0.000000 0.000000
-0.000775 0.017021 0.000000
0.017021 -0.028496 0.000000
0.000000 0.000000 0.000000
0.008223 0.022935 0.000000
0.022935 -0.009782 0.000000
0.000000 0.000000 0.000000
0.031395 0.001576 0.000000
0.001576 0.007872 0.000000
0.000000 0.000000 0.000000
0.023497 -0.008867 0.000000
-0.008867 0.024116 0.000000
0.000000 0.000000 0.000000
-0.005728 0.001262 0.000000
0.001262 -0.019823 0.000000
0.000000 0.000000 0.000000
0.007902 0.004679 0.000000
0.004679 0.036854 0.000000
0.000000 0.000000 0.000000
-0.005822 -0.010659 0.000000
-0.010659 -0.000441 0.000000
0.000000 0.000000 0.000000
-0.004671 -0.000176 0.000000
-0.000176 0.007589 0.000000
0.000000 0.000000 0.000000
0.012619 0.002503 0.000000
0.002503 0.009206 0.000000
0.000000 0.000000 0.000000
-0.023647 0.006423 0.000000
0.006423 0.011650 0.000000
0.000000 0.000000 0.000000
-0.001752 0.003453 0.000000
0.003453 0.002116 0.000000
0.000000 0.000000 0.000000
-0.002194 -0.000452 0.000000
-0.000452 -0.003503 0.000000
0.000000 0.000000 0.000000
0.005860 -0.001228 0.000000
-0.001228 0.007244 0.000000
0.000000 0.000000 0.000000
0.000937 -0.000987 0.000000
-0.000987 0.007174 0.000000
0.000000 0.000000 0.000000
-0.001631 0.007666 0.000000
0.007666 -0.009460 0.000000
0.000000 0.000000 0.000000
-0.010061 -0.005449 0.000000
-0.005449 0.000087 0.000000
0.000000 0.000000 0.000000
0.000901 0.001343 0.000000
0.001343 0.005496 0.000000
0.000000 0.000000 0.000000
-0.001246 0.000682 0.000000
0.000682 -0.001666 0.000000
0.000000 0.000000 0.000000
-0.006167 0.003569 0.000000
0.003569 -0.001429 0.000000
0.000000 0.000000 0.000000
0.023535 0.008231 0.000000
0.008231 0.026164 0.000000
0.000000 0.000000 0.000000
0.011340 0.000238 0.000000
0.000238 -0.008857 0.000000
0.000000 0.000000 0.000000
0.000405 0.002622 0.000000
0.002622 0.003305 0.000000
0.000000 0.000000 0.000000
0.010277 0.001506 0.000000
0.001506 0.000434 0.000000
0.000000 0.000000 0.000000
-0.005583 -0.003917 0.000000
-0.003917 -0.001640 0.000000
0.000000 0.000000 0.000000
0.006243 -0.003682 0.000000
-0.003682 0.006080 0.000000
0.000000 0.000000 0.000000
0.015362 -0.015887 0.000000
-0.015887 0.020491 0.000000
0.000000 0.000000 0.000000
-0.001896 -0.008842 0.000000
-0.008842 0.002205 0.000000
0.000000 0.000000 0.000000
-0.006216 0.005749 0.000000
0.005749 -0.002752 0.000000
0.000000 0.000000 0.000000
0.006719 -0.000897 0.000000
-0.000897 0.000871 0.000000
0.000000 0.000000 0.000000
-0.011251 -0.001195 0.000000
-0.001195 -0.009335 0.000000
0.000000 0.000000 0.000000
-0.006967 -0.009706 0.000000
-0.009706 -0.009589 0.000000
0.000000 0.000000 0.000000
-0.006696 0.003894 0.000000
0.003894 -0.002069 0.000000
0.000000 0.000000 0.000000
-0.004940 -0.002903 0.000000
-0.002903 -0.001722 0.000000
0.000000 0.000000 0.000000
0.003339 0.006383 0.000000
0.006383 0.027042 0.000000
0.000000 0.000000 0.000000
-0.004251 0.002720 0.000000
0.002720 -0.000770 0.000000
0.000000 0.000000 0.000000
-0.017233 -0.003557 0.000000
-0.003557 -0.005306 0.000000
0.000000 0.000000 0.000000
0.006676 0.003697 0.000000
0.003697 0.007247 0.000000
0.000000 0.000000 0.000000
0.010288 -0.000881 0.000000
-0.000881 0.001914 0.000000
0.000000 0.000000 0.000000
0.000679 -0.000932 0.000000
-0.000932 -0.018520 0.000000
0.000000 0.000000 0.000000
-0.002687 -0.002552 0.000000
-0.002552 -0.006284 0.000000
0.000000 0.000000 0.000000
-0.006170 0.004195 0.000000
0.004195 0.008711 0.000000
0.000000 0.000000 0.000000
0.008764 0.002030 0.000000
0.002030 0.009411 0.000000
0.000000 0.000000 0.000000
0.009362 0.002817 0.000000
0.002817 0.003430 0.000000
0.000000 0.000000 0.000000
-0.009304 -0.003137 0.000000
-0.003137 -0.034163 0.000000
0.000000 0.000000 0.000000
0.005331 -0.001112 0.000000
-0.001112 -0.008838 0.000000
0.000000 0.000000 0.000000
-0.008589 -0.006137 0.000000
-0.006137 -0.002942 0.000000
0.000000 0.000000 0.000000
0.006209 0.005890 0.000000
0.005890 0.013869 0.000000
0.000000 0.000000 0.000000
-0.000896 0.007706 0.000000
0.007706 -0.009623 0.000000
0.000000 0.000000 0.000000
-0.002854 -0.001548 0.000000
-0.001548 0.003713 0.000000
0.000000 0.000000 0.000000
0.016091 0.004403 0.000000
0.004403 0.013082 0.000000
0.000000 0.000000 0.000000
-0.005454 -0.001693 0.000000
-0.001693 -0.020175 0.000000
0.000000 0.000000 0.000000
0.003218 -0.003168 0.000000
-0.003168 -0.017891 0.000000
0.000000 0.000000 0.000000
0.012892 0.005157 0.000000
0.005157 -0.014188 0.000000
0.000000 0.000000 0.000000
0.008642 0.008751 0.000000
0.008751 -0.022259 0.000000
0.000000 0.000000 0.000000
-0.009556 -0.005658 0.000000
-0.005658 -0.011043 0.000000
0.000000 0.000000 0.000000
-0.000810 0.000269 0.000000
0.000269 0.011436 0.000000
0.000000 0.000000 0.000000
-0.011099 -0.004650 0.000000
-0.004650 -0.013311 0.000000
0.000000 0.000000 0.000000
-0.026666 -0.005934 0.000000
-0.005934 -0.010519 0.000000
0.000000 0.000000 0.000000
-0.003332 -0.006640 0.000000
-0.006640 -0.004199 0.000000
0.000000 0.000000 0.000000
-0.012948 0.002866 0.000000
0.002866 0.016080 0.000000
0.000000 0.000000 0.000000
0.039148 0.002932 0.000000
0.002932 0.020510 0.000000
0.000000 0.000000 0.000000
0.011436 0.011812 0.000000
0.011812 -0.019675 0.000000
0.000000 0.000000 0.000000
0.030140 0.004353 0.000000
0.004353 -0.015068 0.000000
0.000000 0.000000 0.000000
0.004954 -0.001305 0.000000
-0.001305 0.009630 0.000000
0.000000 0.000000 0.000000
-0.004153 0.005876 0.000000
0.005876 0.014930 0.000000
0.000000 0.000000 0.000000
0.004255 0.000024 0.000000
0.000024 -0.004265 0.000000
0.000000 0.000000 0.000000
-0.001887 0.007154 0.000000
0.007154 -0.026790 0.000000
0.000000 0.000000 0.000000
0.022128 -0.011389 0.000000
-0.011389 0.012736 0.000000
0.000000 0.000000 0.000000
-0.011253 0.000691 0.000000
0.000691 0.004309 0.000000
0.000000 0.000000 0.000000
-0.006308 0.002701 0.000000
0.002701 -0.004715 0.000000
0.000000 0.000000 0.000000
0.009315 0.002050 0.000000
0.002050 -0.007102 0.000000
0.000000 0.000000 0.000000
-0.002423 -0.001604 0.000000
-0.001604 -0.001955 0.000000
0.000000 0.000000 0.000000
-0.014039 0.005694 0.000000
0.005694 -0.009357 0.000000
0.000000 0.000000 0.000000
0.009795 -0.000142 0.000000
-0.000142 0.011988 0.000000
0.000000 0.000000 0.000000
0.003442 0.000212 0.000000
0.000212 0.005302 0.000000
0.000000 0.000000 0.000000
0.005833 -0.000098 0.000000
-0.000098 0.013826 0.000000
0.000000 0.000000 0.000000
0.005104 -0.008851 0.000000
-0.008851 -0.007927 0.000000
0.000000 0.000000 0.000000
-0.032829 -0.007937 0.000000
-0.007937 -0.017912 0.000000
0.000000 0.000000 0.000000
-0.009427 -0.000933 0.000000
-0.000933 -0.002482 0.000000
0.000000 0.000000 0.000000
-0.003977 0.000877 0.000000
0.000877 -0.012342 0.000000
0.000000 0.000000 0.000000
-0.006762 0.000947 0.000000
0.000947 0.003590 0.000000
0.000000 0.000000 0.000000
-0.000822 0.000422 0.000000
0.000422 -0.008386 0.000000
0.000000 0.000000 0.000000
-0.002487 0.001101 0.000000
0.001101 0.004365 0.000000
0.000000 0.000000 0.000000
0.019345 0.009890 0.000000
0.009890 0.008356 0.000000
0.000000 0.000000 0.000000
0.006555 0.011954 0.000000
0.011954 0.011216 0.000000
0.000000 0.000000 0.000000
0.006225 0.003160 0.000000
0.003160 0.007831 0.000000
0.000000 0.000000 0.000000
0.033329 -0.001847 0.000000
-0.001847 0.011327 0.000000
0.000000 0.000000 0.000000
0.000517 -0.006938 0.000000
-0.006938 0.009136 0.000000
0.000000 0.000000 0.000000
0.005796 -0.017428 0.000000
-0.017428 0.012362 0.000000
0.000000 0.000000 0.000000
-0.005734 -0.006117 0.000000
-0.006117 -0.005482 0.000000
0.000000 0.000000 0.000000
0.005628 0.007656 0.000000
0.007656 -0.005383 0.000000
0.000000 0.000000 0.000000
-0.000568 -0.000530 0.000000
-0.000530 0.000310 0.000000
0.000000 0.000000 0.000000
0.002031 0.002246 0.000000
0.002246 0.006894 0.000000
0.000000 0.000000 0.000000
-0.014458 0.002865 0.000000
0.002865 -0.006154 0.000000
0.000000 0.000000 0.000000
0.002257 -0.000763 0.000000
-0.000763 -0.009716 0.000000
0.000000 0.000000 0.000000
-0.004573 -0.002777 0.000000
-0.002777 -0.006676 0.000000
0.000000 0.000000 0.000000
0.009925 -0.005783 0.000000
-0.005783 -0.005741 0.000000
0.000000 0.000000 0.000000
0.025089 -0.000041 0.000000
-0.000041 -0.011373 0.000000
0.000000 0.000000 0.000000
-0.002492 -0.003395 0.000000
-0.003395 0.000636 0.000000
0.000000 0.000000 0.000000
0.023269 -0.004895 0.000000
-0.004895 -0.005410 0.000000
0.000000 0.000000 0.000000
-0.005103 -0.004991 0.000000
-0.004991 -0.005337 0.000000
0.000000 0.000000 0.000000
0.027715 0.006561 0.000000
0.006561 -0.019518 0.000000
0.000000 0.000000 0.000000
0.002861 -0.007912 0.000000
-0.007912 0.007937 0.000000
0.000000 0.000000 0.000000
-0.001226 0.002371 0.000000
0.002371 -0.005043 0.000000
0.000000 0.000000 0.000000
0.006977 -0.000671 0.000000
-0.000671 0.004860 0.000000
0.000000 0.000000 0.000000
-0.008963 0.000178 0.000000
0.000178 -0.003465 0.000000
0.000000 0.000000 0.000000
0.019353 0.011424 0.000000
0.011424 0.005800 0.000000
0.000000 0.000000 0.000000
-0.005102 -0.015192 0.000000
-0.015192 -0.011991 0.000000
0.000000 0.000000 0.000000
0.017951 -0.007179 0.000000
-0.007179 0.021141 0.000000
0.000000 0.000000 0.000000
0.005502 -0.008918 0.000000
-0.008918 0.016524 0.000000
0.000000 0.000000 0.000000
-0.014697 0.001071 0.000000
0.001071 -0.004299 0.000000
0.000000 0.000000 0.000000
-0.006528 0.004185 0.000000
0.004185 -0.024616 0.000000
0.000000 0.000000 0.000000
-0.010438 0.003254 0.000000
0.003254 0.008625 0.000000
0.000000 0.000000 0.000000
0.000886 0.003767 0.000000
0.003767 -0.023167 0.000000
0.000000 0.000000 0.000000
-0.003097 -0.001054 0.000000
-0.001054 -0.005288 0.000000
0.000000 0.000000 0.000000
-0.001422 0.003554 0.000000
0.003554 -0.010552 0.000000
0.000000 0.000000 0.000000
0.002355 0.008540 0.000000
0.008540 -0.018529 0.000000
0.000000 0.000000 0.000000
0.005052 -0.007866 0.000000
-0.007866 0.015180 0.000000
0.000000 0.000000 0.000000
0.015804 0.013088 0.000000
0.013088 0.011245 0.000000
0.000000 0.000000 0.000000
0.020260 -0.001016 0.000000
-0.001016 0.013810 0.000000
0.000000 0.000000 0.000000
0.007709 0.010102 0.000000
0.010102 0.018179 0.000000
0.000000 0.000000 0.000000
0.011643 0.002326 0.000000
0.002326 -0.001840 0.000000
0.000000 0.000000 0.000000
0.021962 0.015812 0.000000
0.015812 0.010822 0.000000
0.000000 0.000000 0.000000
0.004935 -0.012707 0.000000
-0.012707 0.023106 0.000000
0.000000 0.000000 0.000000
0.009536 -0.001969 0.000000
-0.001969 0.015020 0.000000
0.000000 0.000000 0.000000
-0.000617 -0.008453 0.000000
-0.008453 -0.001002 0.000000
0.000000 0.000000 0.000000
0.000071 -0.002157 0.000000
-0.002157 -0.004080 0.000000
0.000000 0.000000 0.000000
-0.003014 -0.000109 0.000000
-0.000109 -0.006588 0.000000
0.000000 0.000000 0.000000
-0.003076 0.001232 0.000000
0.001232 -0.009964 0.000000
0.000000 0.000000 0.000000
-0.019433 0.002706 0.000000
0.002706 -0.009390 0.000000
0.000000 0.000000 0.000000
-0.014149 -0.002844 0.000000
-0.002844 -0.023535 0.000000
0.000000 0.000000 0.000000
-0.006446 -0.001624 0.000000
-0.001624 0.018781 0.000000
0.000000 0.000000 0.000000
-0.003845 -0.002962 0.000000
-0.002962 -0.009346 0.000000
0.000000 0.000000 0.000000
0.020088 0.002522 0.000000
0.002522 0.011446 0.000000
0.000000 0.000000 0.000000
0.016564 0.018701 0.000000
0.018701 0.064280 0.000000
0.000000 0.000000 0.000000
0.007205 -0.015282 0.000000
-0.015282 0.015142 0.000000
0.000000 0.000000 0.000000
0.003547 0.000823 0.000000
0.000823 0.010119 0.000000
0.000000 0.000000 0.000000
0.002976 0.000242 0.000000
0.000242 0.012024 0.000000
0.000000 0.000000 0.000000
0.007230 -0.001284 0.000000
-0.001284 0.012240 0.000000
0.000000 0.000000 0.000000
0.003595 0.005580 0.000000
0.005580 -0.006708 0.000000
0.000000 0.000000 0.000000
-0.005555 0.002004 0.000000
0.002004 0.002726 0.000000
0.000000 0.000000 0.000000
-0.006023 0.003283 0.000000
0.003283 -0.004076 0.000000
0.000000 0.000000 0.000000
0.005285 0.005086 0.000000
0.005086 0.002300 0.000000
0.000000 0.000000 0.000000
-0.001062 -0.000297 0.000000
-0.000297 0.015252 0.000000
0.000000 0.000000 0.000000
0.022239 -0.005187 0.000000
-0.005187 0.029249 0.000000
0.000000 0.000000 0.000000
0.015153 0.002383 0.000000
0.002383 0.030231 0.000000
0.000000 0.000000 0.000000
0.016276 -0.008558 0.000000
-0.008558 0.022494 0.000000
0.000000 0.000000 0.000000
-0.002729 -0.016973 0.000000
-0.016973 0.011863 0.000000
0.000000 0.000000 0.000000
0.008524 -0.006879 0.000000
-0.006879 0.000849 0.000000
0.000000 0.000000 0.000000
0.006112 -0.008593 0.000000
-0.008593 0.023569 0.000000
0.000000 0.000000 0.000000
0.004431 0.010617 0.000000
0.010617 0.016695 0.000000
0.000000 0.000000 0.000000
-0.002846 0.000431 0.000000
0.000431 -0.014191 0.000000
0.000000 0.000000 0.000000
-0.002176 0.006406 0.000000
0.006406 0.013139 0.000000
0.000000 0.000000 0.000000
-0.022546 -0.006096 0.000000
-0.006096 -0.006808 0.000000
0.000000 0.000000 0.000000
0.010628 -0.004886 0.000000
-0.004886 0.000110 0.000000
0.000000 0.000000 0.000000
-0.008881 0.007672 0.000000
0.007672 -0.031415 0.000000
0.000000 0.000000 0.000000
-0.005446 -0.003523 0.000000
-0.003523 0.002434 0.000000
0.000000 0.000000 0.000000
0.007769 0.001667 0.000000
0.001667 0.024973 0.000000
0.000000 0.000000 0.000000
0.006601 0.006880 0.000000
0.006880 0.001124 0.000000
0.000000 0.000000 0.000000
0.008501 0.007982 0.000000
0.007982 0.007660 0.000000
0.000000 0.000000 0.000000
0.008132 -0.004779 0.000000
-0.004779 -0.000434 0.000000
0.000000 0.000000 0.000000
0.002661 0.004887 0.000000
0.004887 -0.010664 0.000000
0.000000 0.000000 0.000000
-0.006839 0.000898 0.000000
0.000898 0.001216 0.000000
0.000000 0.000000 0.000000
-0.001871 0.000153 0.000000
0.000153 -0.009011 0.000000
0.000000 0.000000 0.000000
0.002388 -0.000781 0.000000
-0.000781 -0.015281 0.000000
0.000000 0.000000 0.000000
0.004546 -0.002965 0.000000
-0.002965 0.013312 0.000000
0.000000 0.000000 0.000000
0.003001 0.007967 0.000000
0.007967 0.008499 0.000000
0.000000 0.000000 0.000000
0.003010 -0.001045 0.000000
-0.001045 0.013326 0.000000
0.000000 0.000000 0.000000
0.002195 0.001402 0.000000
0.001402 -0.004390 0.000000
0.000000 0.000000 0.000000
0.004568 0.007475 0.000000
0.007475 0.000511 0.000000
0.000000 0.000000 0.000000
0.010423 -0.002565 0.000000
-0.002565 0.013120 0.000000
0.000000 0.000000 0.000000
-0.015178 0.001256 0.000000
0.001256 -0.003984 0.000000
0.000000 0.000000 0.000000
0.007852 -0.003864 0.000000
-0.003864 0.010842 0.000000
0.000000 0.000000 0.000000
0.000081 0.002906 0.000000
0.002906 0.002862 0.000000
0.000000 0.000000 0.000000
-0.009015 -0.001835 0.000000
-0.001835 -0.003292 0.000000
0.000000 0.000000 0.000000
-0.009664 0.001857 0.000000
0.001857 -0.009084 0.000000
0.000000 0.000000 0.000000
-0.016667 -0.000229 0.000000
-0.000229 -0.010441 0.000000
0.000000 0.000000 0.000000
0.012209 -0.003569 0.000000
-0.003569 0.003263 0.000000
0.000000 0.000000 0.000000
0.004389 -0.006560 0.000000
-0.006560 0.015187 0.000000
0.000000 0.000000 0.000000
0.014599 -0.006698 0.000000
-0.006698 0.014725 0.000000
0.000000 0.000000 0.000000
-0.013944 -0.008033 0.000000
-0.008033 0.006409 0.000000
0.000000 0.000000 0.000000
-0.000943 -0.007219 0.000000
-0.007219 -0.011865 0.000000
0.000000 0.000000 0.000000
-0.020955 -0.005968 0.000000
-0.005968 -0.021564 0.000000
0.000000 0.000000 0.000000
-0.002190 0.006165 0.000000
0.006165 -0.013703 0.000000
0.000000 0.000000 0.000000
-0.011269 0.006441 0.000000
0.006441 -0.007705 0.000000
0.000000 0.000000 0.000000
-0.007111 0.005636 0.000000
0.005636 0.008378 0.000000
0.000000 0.000000 0.000000
0.003845 -0.000287 0.000000
-0.000287 -0.006777 0.000000
0.000000 0.000000 0.000000
0.017457 -0.009063 0.000000
-0.009063 0.017046 0.000000
0.000000 0.000000 0.000000
0.012563 -0.003761 0.000000
-0.003761 0.001970 0.000000
0.000000 0.000000 0.000000
-0.003978 -0.007837 0.000000
-0.007837 0.005166 0.000000
0.000000 0.000000 0.000000
-0.002659 0.001872 0.000000
0.001872 0.000067 0.000000
0.000000 0.000000 0.000000
-0.003627 -0.001649 0.000000
-0.001649 0.000682 0.000000
0.000000 0.000000 0.000000
0.006206 -0.006027 0.000000
-0.006027 0.013172 0.000000
0.000000 0.000000 0.000000
-0.003448 0.001095 0.000000
0.001095 0.009120 0.000000
0.000000 0.000000 0.000000
-0.002164 0.001312 0.000000
0.001312 0.004728 0.000000
0.000000 0.000000 0.000000
0.009915 0.003690 0.000000
0.003690 0.004326 0.000000
0.000000 0.000000 0.000000
0.003424 -0.003486 0.000000
-0.003486 0.016394 0.000000
0.000000 0.000000 0.000000
-0.006910 0.001084 0.000000
0.001084 -0.021294 0.000000
0.000000 0.000000 0.000000
0.009018 -0.014448 0.000000
-0.014448 0.015882 0.000000
0.000000 0.000000 0.000000
-0.003342 0.005835 0.000000
0.005835 -0.014225 0.000000
0.000000 0.000000 0.000000
-0.005069 -0.000193 0.000000
-0.000193 0.010351 0.000000
0.000000 0.000000 0.000000
-0.006199 0.006654 0.000000
0.006654 0.025441 0.000000
0.000000 0.000000 0.000000
0.036559 0.008925 0.000000
0.008925 0.018808 0.000000
0.000000 0.000000 0.000000
0.008860 0.005737 0.000000
0.005737 -0.002449 0.000000
0.000000 0.000000 0.000000
-0.003479 0.014116 0.000000
0.014116 0.007515 0.000000
0.000000 0.000000 0.000000
0.001836 -0.010095 0.000000
-0.010095 -0.011547 0.000000
0.000000 0.000000 0.000000
-0.012383 0.004638 0.000000
0.004638 -0.028992 0.000000
0.000000 0.000000 0.000000
0.003972 0.008656 0.000000
0.008656 0.009068 0.000000
0.000000 0.000000 0.000000
0.002197 0.008284 0.000000
0.008284 0.008442 0.000000
0.000000 0.000000 0.000000
-0.013946 0.000665 0.000000
0.000665 0.009892 0.000000
0.000000 0.000000 0.000000
-0.001164 0.004787 0.000000
0.004787 0.006662 0.000000
0.000000 0.000000 0.000000
-0.009606 0.005992 0.000000
0.005992 0.000096 0.000000
0.000000 0.000000 0.000000
0.002928 0.001941 0.000000
0.001941 0.006478 0.000000
0.000000 0.000000 0.000000
-0.007747 0.002342 0.000000
0.002342 -0.016373 0.000000
0.000000 0.000000 0.000000
-0.017914 -0.000686 0.000000
-0.000686 -0.021177 0.000000
0.000000 0.000000 0.000000
0.008843 0.003804 0.000000
0.003804 -0.007626 0.000000
0.000000 0.000000 0.000000
-0.008539 -0.002646 0.000000
-0.002646 -0.012167 0.000000
0.000000 0.000000 0.000000
-0.025025 0.005775 0.000000
0.005775 0.001755 0.000000
0.000000 0.000000 0.000000
-0.018066 -0.001466 0.000000
-0.001466 -0.015097 0.000000
0.000000 0.000000 0.000000
0.058744 0.001074 0.000000
0.001074 0.021162 0.000000
0.000000 0.000000 0.000000
-0.003231 0.004245 0.000000
0.004245 -0.003339 0.000000
0.000000 0.000000 0.000000
0.001391 0.001727 0.000000
0.001727 0.017055 0.000000
0.000000 0.000000 0.000000
0.002899 0.008681 0.000000
0.008681 0.010251 0.000000
0.000000 0.000000 0.000000
-0.004165 -0.001388 0.000000
-0.001388 0.011966 0.000000
0.000000 0.000000 0.000000
-0.001162 -0.002246 0.000000
-0.002246 -0.017797 0.000000
0.000000 0.000000 0.000000
0.003689 0.008039 0.000000
0.008039 0.020113 0.000000
0.000000 0.000000 0.000000
0.014981 -0.000510 0.000000
-0.000510 -0.001543 0.000000
0.000000 0.000000 0.000000
-0.012164 -0.007676 0.000000
-0.007676 0.001505 0.000000
0.000000 0.000000 0.000000
-0.008101 -0.005300 0.000000
-0.005300 0.000579 0.000000
0.000000 0.000000 0.000000
-0.002526 -0.003912 0.000000
-0.003912 0.004035 0.000000
0.000000 0.000000 0.000000
0.004561 0.009027 0.000000
0.009027 -0.000647 0.000000
0.000000 0.000000 0.000000
-0.010889 -0.008450 0.000000
-0.008450 -0.023165 0.000000
0.000000 0.000000 0.000000
0.010469 -0.003553 0.000000
-0.003553 0.021074 0.000000
0.000000 0.000000 0.000000
0.003826 0.004876 0.000000
0.004876 0.001727 0.000000
0.000000 0.000000 0.000000
0.003281 0.003578 0.000000
0.003578 -0.009335 0.000000
0.000000 0.000000 0.000000
-0.001196 -0.001454 0.000000
-0.001454 0.006673 0.000000
0.000000 0.000000 0.000000
0.006761 0.004884 0.000000
0.004884 -0.007297 0.000000
0.000000 0.000000 0.000000
0.013288 0.002550 0.000000
0.002550 0.019385 0.000000
0.000000 0.000000 0.000000
0.012562 0.001029 0.000000
0.001029 0.008750 0.000000
0.000000 0.000000 0.000000
0.008477 -0.003552 0.000000
-0.003552 -0.005044 0.000000
0.000000 0.000000 0.000000
-0.005687 0.011556 0.000000
0.011556 -0.011441 0.000000
0.000000 0.000000 0.000000
0.014438 0.004219 0.000000
0.004219 0.001222 0.000000
0.000000 0.000000 0.000000
0.043724 -0.008379 0.000000
-0.008379 0.010827 0.000000
0.000000 0.000000 0.000000
-0.004978 -0.003519 0.000000
-0.003519 -0.004423 0.000000
0.000000 0.000000 0.000000
0.016308 -0.009475 0.000000
-0.009475 0.002836 0.000000
0.000000 0.000000 0.000000
-0.016280 -0.003910 0.000000
-0.003910 0.010054 0.000000
0.000000 0.000000 0.000000
0.009293 0.000093 0.000000
0.000093 0.004102 0.000000
0.000000 0.000000 0.000000
-0.001682 -0.020400 0.000000
-0.020400 0.003159 0.000000
0.000000 0.000000 0.000000
0.009246 0.013030 0.000000
0.013030 -0.006878 0.000000
0.000000 0.000000 0.000000
0.006953 0.008800 0.000000
0.008800 -0.025911 0.000000
0.000000 0.000000 0.000000
0.007531 -0.011059 0.000000
-0.011059 0.014615 0.000000
0.000000 0.000000 0.000000
0.006181 -0.000355 0.000000
-0.000355 0.020546 0.000000
0.000000 0.000000 0.000000
0.021703 -0.005809 0.000000
-0.005809 0.033178 0.000000
0.000000 0.000000 0.000000
0.005646 0.022364 0.000000
0.022364 0.007538 0.000000
0.000000 0.000000 0.000000
0.011121 -0.003868 0.000000
-0.003868 0.030744 0.000000
0.000000 0.000000 0.000000
0.005312 0.013644 0.000000
0.013644 0.003663 0.000000
0.000000 0.000000 0.000000
0.001180 -0.004031 0.000000
-0.004031 -0.004967 0.000000
0.000000 0.000000 0.000000
0.005120 0.000725 0.000000
0.000725 0.012840 0.000000
0.000000 0.000000 0.000000
-0.027867 -0.013012 0.000000
-0.013012 -0.023249 0.000000
0.000000 0.000000 0.000000
-0.004753 -0.000620 0.000000
-0.000620 0.004455 0.000000
0.000000 0.000000 0.000000
-0.003286 -0.003617 0.000000
-0.003617 -0.010762 0.000000
0.000000 0.000000 0.000000
0.001896 0.001024 0.000000
0.001024 0.004594 0.000000
0.000000 0.000000 0.000000
0.003648 0.001804 0.000000
0.001804 -0.007349 0.000000
0.000000 0.000000 0.000000
0.005403 -0.004146 0.000000
-0.004146 -0.009294 0.000000
0.000000 0.000000 0.000000
-0.004562 0.004444 0.000000
0.004444 0.013183 0.000000
0.000000 0.000000 0.000000
0.022329 -0.008142 0.000000
-0.008142 0.004152 0.000000
0.000000 0.000000 0.000000
0.010964 -0.013239 0.000000
-0.013239 0.028636 0.000000
0.000000 0.000000 0.000000
-0.000895 -0.001683 0.000000
-0.001683 -0.021924 0.000000
0.000000 0.000000 0.000000
0.024187 -0.002906 0.000000
-0.002906 0.034633 0.000000
0.000000 0.000000 0.000000
0.002251 -0.003743 0.000000
-0.003743 -0.014510 0.000000
0.000000 0.000000 0.000000
-0.020296 0.002605 0.000000
0.002605 0.000984 0.000000
0.000000 0.000000 0.000000
0.009717 0.005666 0.000000
0.005666 0.021102 0.000000
0.000000 0.000000 0.000000
0.003185 -0.004480 0.000000
-0.004480 0.017325 0.000000
0.000000 0.000000 0.000000
0.014898 0.002696 0.000000
0.002696 0.014281 0.000000
0.000000 0.000000 0.000000
0.022421 0.003729 0.000000
0.003729 0.029559 0.000000
0.000000 0.000000 0.000000
0.015494 0.008443 0.000000
0.008443 0.010242 0.000000
0.000000 0.000000 0.000000
0.005870 -0.003081 0.000000
-0.003081 0.008685 0.000000
0.000000 0.000000 0.000000
0.007622 0.007105 0.000000
0.007105 0.007673 0.000000
0.000000 0.000000 0.000000
0.013733 0.007331 0.000000
0.007331 0.017525 0.000000
0.000000 0.000000 0.000000
0.000316 0.000237 0.000000
0.000237 0.017799 0.000000
0.000000 0.000000 0.000000
-0.017436 0.003641 0.000000
0.003641 -0.022478 0.000000
0.000000 0.000000 0.000000
-0.002471 0.003816 0.000000
0.003816 0.017779 0.000000
0.000000 0.000000 0.000000
-0.001881 0.003875 0.000000
0.003875 0.006450 0.000000
0.000000 0.000000 0.000000
-0.014372 0.014000 0.000000
0.014000 0.005494 0.000000
0.000000 0.000000 0.000000
-0.029761 -0.011873 0.000000
-0.011873 -0.026510 0.000000
0.000000 0.000000 0.000000
-0.001633 -0.001634 0.000000
-0.001634 -0.017714 0.000000
0.000000 0.000000 0.000000
-0.003335 -0.004781 0.000000
-0.004781 -0.018665 0.000000
0.000000 0.000000 0.000000
0.011092 0.008658 0.000000
0.008658 0.008962 0.000000
0.000000 0.000000 0.000000
0.014122 -0.002826 0.000000
-0.002826 0.011014 0.000000
0.000000 0.000000 0.000000
-0.001021 0.018815 0.000000
0.018815 -0.014833 0.000000
0.000000 0.000000 0.000000
-0.010068 0.027306 0.000000
0.027306 -0.001917 0.000000
0.000000 0.000000 0.000000
-0.020096 0.006789 0.000000
0.006789 -0.011032 0.000000
0.000000 0.000000 0.000000
-0.005955 0.016176 0.000000
0.016176 -0.019236 0.000000
0.000000 0.000000 0.000000
-0.018256 -0.005127 0.000000
-0.005127 0.001269 0.000000
0.000000 0.000000 0.000000
-0.013161 0.007549 0.000000
0.007549 -0.028735 0.000000
0.000000 0.000000 0.000000
-0.011182 -0.002407 0.000000
-0.002407 -0.020253 0.000000
0.000000 0.000000 0.000000
0.007778 0.013239 0.000000
0.013239 -0.013916 0.000000
0.000000 0.000000 0.000000
-0.003819 -0.002476 0.000000
-0.002476 -0.018045 0.000000
0.000000 0.000000 0.000000
0.029457 -0.000487 0.000000
-0.000487 0.030203 0.000000
0.000000 0.000000 0.000000
-0.014852 -0.023256 0.000000
-0.023256 -0.011349 0.000000
0.000000 0.000000 0.000000
0.002957 0.003693 0.000000
0.003693 0.005576 0.000000
0.000000 0.000000 0.000000
-0.012681 0.008306 0.000000
0.008306 -0.013870 0.000000
0.000000 0.000000 0.000000
0.005927 -0.003179 0.000000
-0.003179 0.016520 0.000000
0.000000 0.000000 0.000000
-0.016896 -0.004740 0.000000
-0.004740 0.013039 0.000000
0.000000 0.000000 0.000000
-0.007575 0.002389 0.000000
0.002389 -0.013776 0.000000
0.000000 0.000000 0.000000
0.005597 -0.015755 0.000000
-0.015755 -0.022056 0.000000
0.000000 0.000000 0.000000
-0.012407 0.002311 0.000000
0.002311 -0.014469 0.000000
0.000000 0.000000 0.000000
-0.026907 -0.010186 0.000000
-0.010186 0.054454 0.000000
0.000000 0.000000 0.000000
-0.002937 -0.005093 0.000000
-0.005093 0.009049 0.000000
0.000000 0.000000 0.000000
0.014690 -0.044432 0.000000
-0.044432 -0.007829 0.000000
0.000000 0.000000 0.000000
-0.012016 0.006391 0.000000
0.006391 0.003455 0.000000
0.000000 0.000000 0.000000
0.025823 -0.044192 0.000000
-0.044192 0.031431 0.000000
0.000000 0.000000 0.000000
-0.015947 0.001134 0.000000
0.001134 -0.022064 0.000000
0.000000 0.000000 0.000000
-0.031367 -0.000847 0.000000
-0.000847 -0.002818 0.000000
0.000000 0.000000 0.000000
-0.012627 -0.001341 0.000000
-0.001341 -0.016190 0.000000
0.000000 0.000000 0.000000
0.000771 -0.003313 0.000000
-0.003313 0.015936 0.000000
0.000000 0.000000 0.000000
-0.013149 0.003255 0.000000
0.003255 0.006869 0.000000
0.000000 0.000000 0.000000
0.012905 -0.015681 0.000000
-0.015681 0.002321 0.000000
0.000000 0.000000 0.000000
0.003736 -0.004364 0.000000
-0.004364 0.018919 0.000000
0.000000 0.000000 0.000000
-0.002536 0.005214 0.000000
0.005214 0.000741 0.000000
0.000000 0.000000 0.000000
-0.013659 0.001375 0.000000
0.001375 -0.018603 0.000000
0.000000 0.000000 0.000000
-0.003633 -0.002425 0.000000
-0.002425 0.003500 0.000000
0.000000 0.000000 0.000000
-0.002866 -0.006267 0.000000
-0.006267 0.003158 0.000000
0.000000 0.000000 0.000000
0.000162 0.002741 0.000000
0.002741 0.002617 0.000000
0.000000 0.000000 0.000000
0.007031 -0.000012 0.000000
-0.000012 0.000670 0.000000
0.000000 0.000000 0.000000
-0.005179 -0.001140 0.000000
-0.001140 -0.000044 0.000000
0.000000 0.000000 0.000000
0.014552 -0.001422 0.000000
-0.001422 0.025636 0.000000
0.000000 0.000000 0.000000
0.018191 -0.003513 0.000000
-0.003513 0.004949 0.000000
0.000000 0.000000 0.000000
0.014475 -0.003424 0.000000
-0.003424 0.014140 0.000000
0.000000 0.000000 0.000000
-0.009184 0.002307 0.000000
0.002307 0.010258 0.000000
0.000000 0.000000 0.000000
0.031434 -0.000439 0.000000
-0.000439 0.018744 0.000000
0.000000 0.000000 0.000000
-0.000563 -0.004186 0.000000
-0.004186 0.013368 0.000000
0.000000 0.000000 0.000000
0.009103 -0.006217 0.000000
-0.006217 0.012815 0.000000
0.000000 0.000000 0.000000
0.011604 0.011179 0.000000
0.011179 0.019151 0.000000
0.000000 0.000000 0.000000
-0.007096 0.007032 0.000000
0.007032 -0.007126 0.000000
0.000000 0.000000 0.000000
0.011807 -0.020986 0.000000
-0.020986 -0.019125 0.000000
0.000000 0.000000 0.000000
-0.005403 0.005141 0.000000
0.005141 0.000357 0.000000
0.000000 0.000000 0.000000
0.027763 0.013666 0.000000
0.013666 0.012112 0.000000
0.000000 0.000000 0.000000
0.012590 0.022688 0.000000
0.022688 0.003518 0.000000
0.000000 0.000000 0.000000
-0.001190 0.001309 0.000000
0.001309 -0.018248 0.000000
0.000000 0.000000 0.000000
-0.008370 0.001302 0.000000
0.001302 -0.017778 0.000000
0.000000 0.000000 0.000000
-0.000942 0.001619 0.000000
0.001619 -0.019772 0.000000
0.000000 0.000000 0.000000
-0.003141 0.004373 0.000000
0.004373 0.018831 0.000000
0.000000 0.000000 0.000000
-0.001789 -0.001506 0.000000
-0.001506 -0.013219 0.000000
0.000000 0.000000 0.000000
0.003168 0.001872 0.000000
0.001872 0.000711 0.000000
0.000000 0.000000 0.000000
-0.009858 -0.001233 0.000000
-0.001233 -0.031151 0.000000
0.000000 0.000000 0.000000
0.019236 -0.000805 0.000000
-0.000805 -0.012397 0.000000
0.000000 0.000000 0.000000
0.006910 -0.009703 0.000000
-0.009703 -0.006960 0.000000
0.000000 0.000000 0.000000
0.006725 -0.003165 0.000000
-0.003165 0.014137 0.000000
0.000000 0.000000 0.000000
0.007838 0.002775 0.000000
0.002775 0.021217 0.000000
0.000000 0.000000 0.000000
-0.002141 0.006060 0.000000
0.006060 -0.001749 0.000000
0.000000 0.000000 0.000000
-0.009650 0.001782 0.000000
0.001782 -0.020578 0.000000
0.000000 0.000000 0.000000
-0.001396 0.001995 0.000000
0.001995 -0.006408 0.000000
0.000000 0.000000 0.000000
0.001485 -0.005486 0.000000
-0.005486 -0.000474 0.000000
0.000000 0.000000 0.000000
-0.004168 -0.008879 0.000000
-0.008879 0.006088 0.000000
0.000000 0.000000 0.000000
-0.003630 0.003378 0.000000
0.003378 -0.012013 0.000000
0.000000 0.000000 0.000000
-0.014557 0.008751 0.000000
0.008751 -0.012193 0.000000
0.000000 0.000000 0.000000
-0.016857 0.011215 0.000000
0.011215 -0.015016 0.000000
0.000000 0.000000 0.000000
0.000897 0.027018 0.000000
0.027018 0.011644 0.000000
0.000000 0.000000 0.000000
0.023216 0.018899 0.000000
0.018899 -0.007599 0.000000
0.000000 0.000000 0.000000
-0.009568 0.012455 0.000000
0.012455 -0.012333 0.000000
0.000000 0.000000 0.000000
-0.006262 0.008581 0.000000
0.008581 0.008912 0.000000
0.000000 0.000000 0.000000
-0.009776 0.010367 0.000000
0.010367 0.008342 0.000000
0.000000 0.000000 0.000000
-0.016532 -0.008815 0.000000
-0.008815 -0.007540 0.000000
0.000000 0.000000 0.000000
-0.010512 0.011792 0.000000
0.011792 -0.004293 0.000000
0.000000 0.000000 0.000000
-0.003918 0.005145 0.000000
0.005145 0.006157 0.000000
0.000000 0.000000 0.000000
0.000474 0.002150 0.000000
0.002150 0.006503 0.000000
0.000000 0.000000 0.000000
-0.009503 0.011967 0.000000
0.011967 -0.019621 0.000000
0.000000 0.000000 0.000000
0.003607 -0.002863 0.000000
-0.002863 -0.006308 0.000000
0.000000 0.000000 0.000000
0.023725 -0.009347 0.000000
-0.009347 -0.003916 0.000000
0.000000 0.000000 0.000000
-0.011075 0.001322 0.000000
0.001322 -0.015590 0.000000
0.000000 0.000000 0.000000
-0.000205 0.002281 0.000000
0.002281 -0.012249 0.000000
0.000000 0.000000 0.000000
0.015210 0.004433 0.000000
0.004433 0.007446 0.000000
0.000000 0.000000 0.000000
-0.006886 -0.006229 0.000000
-0.006229 0.007565 0.000000
0.000000 0.000000 0.000000
0.012105 0.005166 0.000000
0.005166 0.006515 0.000000
0.000000 0.000000 0.000000
0.007904 0.006888 0.000000
0.006888 0.003772 0.000000
0.000000 0.000000 0.000000
-0.009758 -0.008050 0.000000
-0.008050 0.003318 0.000000
0.000000 0.000000 0.000000
0.004166 0.001029 0.000000
0.001029 -0.004315 0.000000
0.000000 0.000000 0.000000
-0.016468 0.000739 0.000000
0.000739 0.009983 0.000000
0.000000 0.000000 0.000000
0.003932 0.005098 0.000000
0.005098 -0.014572 0.000000
0.000000 0.000000 0.000000
-0.004336 0.002969 0.000000
0.002969 -0.011700 0.000000
0.000000 0.000000 0.000000
0.002290 -0.004011 0.000000
-0.004011 -0.010252 0.000000
0.000000 0.000000 0.000000
-0.006528 0.015684 0.000000
0.015684 -0.011042 0.000000
0.000000 0.000000 0.000000
-0.007597 0.011952 0.000000
0.011952 0.002281 0.000000
0.000000 0.000000 0.000000
-0.013917 -0.002618 0.000000
-0.002618 -0.002543 0.000000
0.000000 0.000000 0.000000
-0.010747 0.003501 0.000000
0.003501 -0.005247 0.000000
0.000000 0.000000 0.000000
0.014066 -0.011349 0.000000
-0.011349 -0.012096 0.000000
0.000000 0.000000 0.000000
0.029606 0.000261 0.000000
0.000261 0.014503 0.000000
0.000000 0.000000 0.000000
-0.014031 0.001882 0.000000
0.001882 0.005767 0.000000
0.000000 0.000000 0.000000
0.008329 0.000737 0.000000
0.000737 0.029604 0.000000
0.000000 0.000000 0.000000
-0.016610 0.003923 0.000000
0.003923 -0.000611 0.000000
0.000000 0.000000 0.000000
0.006653 0.002200 0.000000
0.002200 0.027302 0.000000
0.000000 0.000000 0.000000
0.017323 -0.004477 0.000000
-0.004477 -0.008790 0.000000
0.000000 0.000000 0.000000
0.015753 -0.007640 0.000000
-0.007640 -0.010131 0.000000
0.000000 0.000000 0.000000
0.012557 0.006497 0.000000
0.006497 0.001078 0.000000
0.000000 0.000000 0.000000
-0.006669 -0.013638 0.000000
-0.013638 0.011849 0.000000
0.000000 0.000000 0.000000
-0.025829 0.008850 0.000000
0.008850 -0.010705 0.000000
0.000000 0.000000 0.000000
0.012599 0.004349 0.000000
0.004349 -0.018370 0.000000
0.000000 0.000000 0.000000
0.028497 0.003217 0.000000
0.003217 0.005538 0.000000
0.000000 0.000000 0.000000
-0.017642 -0.004663 0.000000
-0.004663 -0.008026 0.000000
0.000000 0.000000 0.000000
-0.008521 0.006575 0.000000
0.006575 0.018823 0.000000
0.000000 0.000000 0.000000
-0.008466 -0.001586 0.000000
-0.001586 -0.007236 0.000000
0.000000 0.000000 0.000000
0.004209 -0.010868 0.000000
-0.010868 0.007627 0.000000
0.000000 0.000000 0.000000
0.001181 -0.005699 0.000000
-0.005699 0.008952 0.000000
0.000000 0.000000 0.000000
0.017730 0.000496 0.000000
0.000496 0.000444 0.000000
0.000000 0.000000 0.000000
-0.001394 -0.004769 0.000000
-0.004769 -0.006564 0.000000
0.000000 0.000000 0.000000
0.004579 -0.000083 0.000000
-0.000083 0.005465 0.000000
0.000000 0.000000 0.000000
-0.004888 0.003726 0.000000
0.003726 0.003421 0.000000
0.000000 0.000000 0.000000
-0.002681 0.005512 0.000000
0.005512 0.006056 0.000000
0.000000 0.000000 0.000000
0.001133 -0.001099 0.000000
-0.001099 0.006358 0.000000
0.000000 0.000000 0.000000
0.001651 0.013669 0.000000
0.013669 -0.005403 0.000000
0.000000 0.000000 0.000000
-0.007644 0.005562 0.000000
0.005562 -0.008968 0.000000
0.000000 0.000000 0.000000
0.005787 0.001640 0.000000
0.001640 0.013382 0.000000
0.000000 0.000000 0.000000
-0.004774 0.004907 0.000000
0.004907 0.012008 0.000000
0.000000 0.000000 0.000000
-0.014322 0.009259 0.000000
0.009259 0.002824 0.000000
0.000000 0.000000 0.000000
-0.015032 0.001861 0.000000
0.001861 -0.022420 0.000000
0.000000 0.000000 0.000000
0.001855 -0.002852 0.000000
-0.002852 0.014593 0.000000
0.000000 0.000000 0.000000
-0.003139 0.013592 0.000000
0.013592 -0.008965 0.000000
0.000000 0.000000 0.000000
-0.007350 0.005107 0.000000
0.005107 0.000276 0.000000
0.000000 0.000000 0.000000
-0.019349 0.003860 0.000000
0.003860 -0.029679 0.000000
0.000000 0.000000 0.000000
-0.001248 0.003555 0.000000
0.003555 0.004322 0.000000
0.000000 0.000000 0.000000
-0.009763 -0.011447 0.000000
-0.011447 -0.004217 0.000000
0.000000 0.000000 0.000000
-0.017314 -0.009374 0.000000
-0.009374 -0.011658 0.000000
0.000000 0.000000 0.000000
-0.007564 0.004966 0.000000
0.004966 -0.003433 0.000000
0.000000 0.000000 0.000000
-0.004856 -0.001271 0.000000
-0.001271 0.012619 0.000000
0.000000 0.000000 0.000000
0.012346 -0.015556 0.000000
-0.015556 -0.015003 0.000000
0.000000 0.000000 0.000000
0.013637 -0.006581 0.000000
-0.006581 -0.001838 0.000000
0.000000 0.000000 0.000000
0.005505 0.002783 0.000000
0.002783 0.014538 0.000000
0.000000 0.000000 0.000000
-0.013472 0.010933 0.000000
0.010933 0.010946 0.000000
0.000000 0.000000 0.000000
0.005536 0.006945 0.000000
0.006945 -0.003267 0.000000
0.000000 0.000000 0.000000
-0.010098 0.000125 0.000000
0.000125 0.003833 0.000000
0.000000 0.000000 0.000000
0.000307 0.000583 0.000000
0.000583 0.010124 0.000000
0.000000 0.000000 0.000000
0.019285 -0.005135 0.000000
-0.005135 0.003066 0.000000
0.000000 0.000000 0.000000
-0.027027 0.006549 0.000000
0.006549 -0.006152 0.000000
0.000000 0.000000 0.000000
0.002910 0.001801 0.000000
0.001801 -0.009437 0.000000
0.000000 0.000000 0.000000
-0.005961 0.001299 0.000000
0.001299 0.035288 0.000000
0.000000 0.000000 0.000000
-0.010862 0.002681 0.000000
0.002681 -0.010714 0.000000
0.000000 0.000000 0.000000
-0.004644 -0.001584 0.000000
-0.001584 -0.002083 0.000000
0.000000 0.000000 0.000000
-0.010793 0.012909 0.000000
0.012909 -0.006388 0.000000
0.000000 0.000000 0.000000
0.003672 0.009878 0.000000
0.009878 0.000434 0.000000
0.000000 0.000000 0.000000
0.001043 -0.007682 0.000000
-0.007682 0.006379 0.000000
0.000000 0.000000 0.000000
0.005878 0.000900 0.000000
0.000900 0.004084 0.000000
0.000000 0.000000 0.000000
-0.002864 0.003135 0.000000
0.003135 -0.005339 0.000000
0.000000 0.000000 0.000000
-0.014806 0.006584 0.000000
0.006584 0.012232 0.000000
0.000000 0.000000 0.000000
-0.003489 0.008459 0.000000
0.008459 -0.008315 0.000000
0.000000 0.000000 0.000000
0.014779 0.004601 0.000000
0.004601 -0.000320 0.000000
0.000000 0.000000 0.000000
-0.000948 0.005027 0.000000
0.005027 -0.005478 0.000000
0.000000 0.000000 0.000000
-0.000557 -0.015033 0.000000
-0.015033 0.030243 0.000000
0.000000 0.000000 0.000000
-0.008499 -0.000912 0.000000
-0.000912 -0.011345 0.000000
0.000000 0.000000 0.000000
0.016738 0.017653 0.000000
0.017653 0.018266 0.000000
0.000000 0.000000 0.000000
0.006687 0.003150 0.000000
0.003150 -0.020838 0.000000
0.000000 0.000000 0.000000
0.012421 0.002882 0.000000
0.002882 0.004769 0.000000
0.000000 0.000000 0.000000
-0.017539 -0.013251 0.000000
-0.013251 -0.010457 0.000000
0.000000 0.000000 0.000000
0.004944 0.006353 0.000000
0.006353 -0.021052 0.000000
0.000000 0.000000 0.000000
-0.012488 0.002886 0.000000
0.002886 -0.022198 0.000000
0.000000 0.000000 0.000000
-0.002916 -0.002835 0.000000
-0.002835 0.008106 0.000000
0.000000 0.000000 0.000000
0.018879 0.001161 0.000000
0.001161 -0.014961 0.000000
0.000000 0.000000 0.000000
0.012584 0.004221 0.000000
0.004221 0.003616 0.000000
0.000000 0.000000 0.000000
0.005189 -0.008841 0.000000
-0.008841 0.004956 0.000000
0.000000 0.000000 0.000000
0.010668 -0.015321 0.000000
-0.015321 0.002674 0.000000
0.000000 0.000000 0.000000
0.013305 -0.007052 0.000000
-0.007052 -0.001764 0.000000
0.000000 0.000000 0.000000
0.003054 -0.009897 0.000000
-0.009897 0.017894 0.000000
0.000000 0.000000 0.000000
-0.017957 -0.006721 0.000000
-0.006721 -0.001717 0.000000
0.000000 0.000000 0.000000
0.002203 -0.001566 0.000000
-0.001566 0.002599 0.000000
0.000000 0.000000 0.000000
0.003634 -0.000291 0.000000
-0.000291 -0.000230 0.000000
0.000000 0.000000 0.000000
-0.018724 0.000174 0.000000
0.000174 -0.003382 0.000000
0.000000 0.000000 0.000000
0.014141 -0.004126 0.000000
-0.004126 0.017750 0.000000
0.000000 0.000000 0.000000
0.010333 -0.010680 0.000000
-0.010680 0.013059 0.000000
0.000000 0.000000 0.000000
-0.001814 -0.010551 0.000000
-0.010551 0.011467 0.000000
0.000000 0.000000 0.000000
-0.004390 -0.005790 0.000000
-0.005790 -0.014825 0.000000
0.000000 0.000000 0.000000
0.009079 -0.003900 0.000000
-0.003900 0.023305 0.000000
0.000000 0.000000 0.000000
0.045415 0.013606 0.000000
0.013606 -0.001550 0.000000
0.000000 0.000000 0.000000
0.001118 -0.004265 0.000000
-0.004265 -0.008807 0.000000
0.000000 0.000000 0.000000
-0.003310 0.001163 0.000000
0.001163 0.018773 0.000000
0.000000 0.000000 0.000000
-0.023996 0.006947 0.000000
0.006947 -0.011185 0.000000
0.000000 0.000000 0.000000
0.005718 -0.002102 0.000000
-0.002102 0.005961 0.000000
0.000000 0.000000 0.000000
-0.000995 0.001355 0.000000
0.001355 0.007475 0.000000
0.000000 0.000000 0.000000
-0.028225 0.005763 0.000000
0.005763 0.009846 0.000000
0.000000 0.000000 0.000000
-0.006911 -0.004142 0.000000
-0.004142 0.002962 0.000000
0.000000 0.000000 0.000000
-0.001590 0.002320 0.000000
0.002320 -0.003709 0.000000
0.000000 0.000000 0.000000
0.006392 -0.003441 0.000000
-0.003441 0.006194 0.000000
0.000000 0.000000 0.000000
-0.006418 -0.005324 0.000000
-0.005324 0.015279 0.000000
0.000000 0.000000 0.000000
0.004731 -0.011972 0.000000
-0.011972 -0.000453 0.000000
0.000000 0.000000 0.000000
-0.005799 -0.000901 0.000000
-0.000901 0.008126 0.000000
0.000000 0.000000 0.000000
-0.007438 0.007851 0.000000
0.007851 -0.002096 0.000000
0.000000 0.000000 0.000000
0.003501 0.002635 0.000000
0.002635 -0.018887 0.000000
0.000000 0.000000 0.000000
-0.010540 -0.005808 0.000000
-0.005808 -0.024559 0.000000
0.000000 0.000000 0.000000
-0.013786 -0.011393 0.000000
-0.011393 -0.009436 0.000000
0.000000 0.000000 0.000000
0.006709 -0.008231 0.000000
-0.008231 0.033944 0.000000
0.000000 0.000000 0.000000
-0.005240 0.005230 0.000000
0.005230 -0.022072 0.000000
0.000000 0.000000 0.000000
0.022304 -0.000744 0.000000
-0.000744 0.010011 0.000000
0.000000 0.000000 0.000000
-0.000899 0.007528 0.000000
0.007528 0.001959 0.000000
0.000000 0.000000 0.000000
0.017631 0.015289 0.000000
0.015289 0.025248 0.000000
0.000000 0.000000 0.000000
0.017291 -0.005646 0.000000
-0.005646 0.002402 0.000000
0.000000 0.000000 0.000000
-0.003276 0.002700 0.000000
0.002700 0.013579 0.000000
0.000000 0.000000 0.000000
-0.004991 -0.001653 0.000000
-0.001653 -0.018891 0.000000
0.000000 0.000000 0.000000
0.003290 0.006887 0.000000
0.006887 -0.010644 0.000000
0.000000 0.000000 0.000000
0.001334 0.003477 0.000000
0.003477 -0.016712 0.000000
0.000000 0.000000 0.000000
0.006457 0.010113 0.000000
0.010113 0.008886 0.000000
0.000000 0.000000 0.000000
0.008686 0.000372 0.000000
0.000372 0.007423 0.000000
0.000000 0.000000 0.000000
0.008883 0.011564 0.000000
0.011564 0.014852 0.000000
0.000000 0.000000 0.000000
0.006872 -0.003656 0.000000
-0.003656 0.007659 0.000000
0.000000 0.000000 0.000000
-0.012451 0.001874 0.000000
0.001874 -0.003358 0.000000
0.000000 0.000000 0.000000
-0.000869 0.008227 0.000000
0.008227 -0.001442 0.000000
0.000000 0.000000 0.000000
-0.009019 0.005947 0.000000
0.005947 0.002461 0.000000
0.000000 0.000000 0.000000
-0.006284 -0.001954 0.000000
-0.001954 -0.002231 0.000000
0.000000 0.000000 0.000000
-0.010483 -0.004638 0.000000
-0.004638 -0.013339 0.000000
0.000000 0.000000 0.000000
-0.012211 -0.002161 0.000000
-0.002161 -0.028180 0.000000
0.000000 0.000000 0.000000
0.002259 -0.000989 0.000000
-0.000989 0.004815 0.000000
0.000000 0.000000 0.000000
-0.006169 0.001217 0.000000
0.001217 0.004211 0.000000
0.000000 0.000000 0.000000
0.005307 0.001472 0.000000
0.001472 0.005679 0.000000
0.000000 0.000000 0.000000
0.002041 0.005942 0.000000
0.005942 -0.015971 0.000000
0.000000 0.000000 0.000000
0.003497 -0.002863 0.000000
-0.002863 -0.000390 0.000000
0.000000 0.000000 0.000000
0.001474 0.000723 0.000000
0.000723 0.012820 0.000000
0.000000 0.000000 0.000000
0.009235 -0.002688 0.000000
-0.002688 0.019068 0.000000
0.000000 0.000000 0.000000
0.006236 -0.001338 0.000000
-0.001338 -0.000883 0.000000
0.000000 0.000000 0.000000
0.007355 0.004564 0.000000
0.004564 0.003952 0.000000
0.000000 0.000000 0.000000
-0.001102 0.004655 0.000000
0.004655 0.008001 0.000000
0.000000 0.000000 0.000000
0.000679 0.016045 0.000000
0.016045 -0.000249 0.000000
0.000000 0.000000 0.000000
-0.005422 -0.012284 0.000000
-0.012284 0.002590 0.000000
0.000000 0.000000 0.000000
-0.015104 -0.030180 0.000000
-0.030180 -0.009907 0.000000
0.000000 0.000000 0.000000
-0.005395 0.004192 0.000000
0.004192 -0.005401 0.000000
0.000000 0.000000 0.000000
0.011017 -0.007294 0.000000
-0.007294 -0.013425 0.000000
0.000000 0.000000 0.000000
-0.007805 -0.000992 0.000000
-0.000992 -0.014515 0.000000
0.000000 0.000000 0.000000
-0.007500 0.028533 0.000000
0.028533 0.015053 0.000000
0.000000 0.000000 0.000000
0.010849 -0.002132 0.000000
-0.002132 -0.013137 0.000000
0.000000 0.000000 0.000000
-0.016450 -0.004861 0.000000
-0.004861 -0.027573 0.000000
0.000000 0.000000 0.000000
0.005077 0.001931 0.000000
0.001931 0.002959 0.000000
0.000000 0.000000 0.000000
-0.018157 0.009842 0.000000
0.009842 -0.030706 0.000000
0.000000 0.000000 0.000000
-0.000264 0.008969 0.000000
0.008969 -0.007175 0.000000
0.000000 0.000000 0.000000
0.014779 -0.004359 0.000000
-0.004359 0.013479 0.000000
0.000000 0.000000 0.000000
-0.003400 0.003087 0.000000
0.003087 0.003162 0.000000
0.000000 0.000000 0.000000
-0.019401 0.006696 0.000000
0.006696 -0.020055 0.000000
0.000000 0.000000 0.000000
-0.005209 0.003588 0.000000
0.003588 0.004928 0.000000
0.000000 0.000000 0.000000
-0.004360 0.003345 0.000000
0.003345 -0.008705 0.000000
0.000000 0.000000 0.000000
-0.003377 -0.000427 0.000000
-0.000427 -0.009983 0.000000
0.000000 0.000000 0.000000
-0.003594 0.007053 0.000000
0.007053 -0.006083 0.000000
0.000000 0.000000 0.000000
0.002116 -0.009736 0.000000
-0.009736 -0.011917 0.000000
0.000000 0.000000 0.000000
0.009550 0.005179 0.000000
0.005179 -0.002131 0.000000
0.000000 0.000000 0.000000
0.001779 -0.021032 0.000000
-0.021032 -0.006434 0.000000
0.000000 0.000000 0.000000
-0.022655 -0.011254 0.000000
-0.011254 -0.018492 0.000000
0.000000 0.000000 0.000000
0.004376 -0.004790 0.000000
-0.004790 -0.005267 0.000000
0.000000 0.000000 0.000000
0.008979 0.004544 0.000000
0.004544 0.004470 0.000000
0.000000 0.000000 0.000000
0.011559 0.001507 0.000000
0.001507 0.007752 0.000000
0.000000 0.000000 0.000000
0.001901 -0.001783 0.000000
-0.001783 -0.007342 0.000000
0.000000 0.000000 0.000000
-0.001240 -0.002227 0.000000
-0.002227 -0.008559 0.000000
0.000000 0.000000 0.000000
-0.010316 0.012337 0.000000
0.012337 0.020836 0.000000
0.000000 0.000000 0.000000
-0.044952 0.011686 0.000000
0.011686 -0.019421 0.000000
0.000000 0.000000 0.000000
-0.005141 0.011399 0.000000
0.011399 -0.004314 0.000000
0.000000 0.000000 0.000000
0.016377 -0.007809 0.000000
-0.007809 0.006269 0.000000
0.000000 0.000000 0.000000
-0.009661 -0.000656 0.000000
-0.000656 0.005491 0.000000
0.000000 0.000000 0.000000
0.003389 -0.000512 0.000000
-0.000512 0.007344 0.000000
0.000000 0.000000 0.000000
-0.006204 0.001930 0.000000
0.001930 0.006712 0.000000
0.000000 0.000000 0.000000
-0.003810 0.003842 0.000000
0.003842 -0.002865 0.000000
0.000000 0.000000 0.000000
0.006259 0.002421 0.000000
0.002421 0.002490 0.000000
0.000000 0.000000 0.000000
0.001645 0.004824 0.000000
0.004824 -0.007753 0.000000
0.000000 0.000000 0.000000
0.009790 0.007346 0.000000
0.007346 0.030353 0.000000
0.000000 0.000000 0.000000
-0.005827 0.002802 0.000000
0.002802 -0.009930 0.000000
0.000000 0.000000 0.000000
0.009901 0.002510 0.000000
0.002510 0.011675 0.000000
0.000000 0.000000 0.000000
0.001570 0.003410 0.000000
0.003410 0.004260 0.000000
0.000000 0.000000 0.000000
0.000624 0.000880 0.000000
0.000880 0.003851 0.000000
0.000000 0.000000 0.000000
-0.004650 0.003128 0.000000
0.003128 -0.001994 0.000000
0.000000 0.000000 0.000000
0.007672 0.002880 0.000000
0.002880 0.020759 0.000000
0.000000 0.000000 0.000000
-0.017190 -0.018884 0.000000
-0.018884 -0.026013 0.000000
0.000000 0.000000 0.000000
-0.005988 -0.007326 0.000000
-0.007326 -0.015629 0.000000
0.000000 0.000000 0.000000
0.002034 0.014997 0.000000
0.014997 -0.022760 0.000000
0.000000 0.000000 0.000000
-0.004438 0.003220 0.000000
0.003220 -0.004912 0.000000
0.000000 0.000000 0.000000
0.011912 0.000328 0.000000
0.000328 0.025646 0.000000
0.000000 0.000000 0.000000
-0.017805 0.003565 0.000000
0.003565 -0.008051 0.000000
0.000000 0.000000 0.000000
0.012725 -0.003227 0.000000
-0.003227 0.017667 0.000000
0.000000 0.000000 0.000000
0.017153 0.011980 0.000000
0.011980 0.019732 0.000000
0.000000 0.000000 0.000000
0.007977 0.000042 0.000000
0.000042 0.015047 0.000000
0.000000 0.000000 0.000000
0.007854 -0.002467 0.000000
-0.002467 0.013061 0.000000
0.000000 0.000000 0.000000
0.002121 0.001673 0.000000
0.001673 -0.006606 0.000000
0.000000 0.000000 0.000000
0.001761 0.005151 0.000000
0.005151 -0.008432 0.000000
0.000000 0.000000 0.000000
-0.000049 0.011092 0.000000
0.011092 -0.011035 0.000000
0.000000 0.000000 0.000000
-0.004436 0.007595 0.000000
0.007595 -0.021707 0.000000
0.000000 0.000000 0.000000
0.002355 0.001537 0.000000
0.001537 0.003583 0.000000
0.000000 0.000000 0.000000
0.003311 0.003972 0.000000
0.003972 -0.009108 0.000000
0.000000 0.000000 0.000000
0.026613 -0.007314 0.000000
-0.007314 0.009950 0.000000
0.000000 0.000000 0.000000
-0.026324 0.008932 0.000000
0.008932 0.004154 0.000000
0.000000 0.000000 0.000000
0.005755 0.014839 0.000000
0.014839 0.003250 0.000000
0.000000 0.000000 0.000000
0.000357 0.000251 0.000000
0.000251 0.004899 0.000000
0.000000 0.000000 0.000000
-0.008488 0.009720 0.000000
0.009720 0.005694 0.000000
0.000000 0.000000 0.000000
-0.010662 0.001061 0.000000
0.001061 0.008436 0.000000
0.000000 0.000000 0.000000
0.046781 -0.003775 0.000000
-0.003775 0.046889 0.000000
0.000000 0.000000 0.000000
0.013464 -0.013125 0.000000
-0.013125 0.013547 0.000000
0.000000 0.000000 0.000000
0.000803 0.030561 0.000000
0.030561 0.015621 0.000000
0.000000 0.000000 0.000000
0.011267 -0.005998 0.000000
-0.005998 -0.015817 0.000000
0.000000 0.000000 0.000000
0.001033 -0.001885 0.000000
-0.001885 0.005751 0.000000
0.000000 0.000000 0.000000
0.007987 0.003750 0.000000
0.003750 0.022343 0.000000
0.000000 0.000000 0.000000
0.007553 -0.004328 0.000000
-0.004328 0.007135 0.000000
0.000000 0.000000 0.000000
0.038695 -0.002650 0.000000
-0.002650 -0.034276 0.000000
0.000000 0.000000 0.000000
0.003406 0.006411 0.000000
0.006411 0.030650 0.000000
0.000000 0.000000 0.000000
-0.019353 0.013425 0.000000
0.013425 0.014886 0.000000
0.000000 0.000000 0.000000
0.019410 -0.022187 0.000000
-0.022187 -0.012410 0.000000
0.000000 0.000000 0.000000
0.035796 -0.034150 0.000000
-0.034150 0.046101 0.000000
0.000000 0.000000 0.000000
-0.002123 0.000609 0.000000
0.000609 0.001884 0.000000
0.000000 0.000000 0.000000
0.005233 -0.001377 0.000000
-0.001377 0.003920 0.000000
0.000000 0.000000 0.000000
0.003161 0.004235 0.000000
0.004235 0.005733 0.000000
0.000000 0.000000 0.000000
0.013525 0.001072 0.000000
0.001072 0.030582 0.000000
0.000000 0.000000 0.000000
0.001060 0.002539 0.000000
0.002539 0.001701 0.000000
0.000000 0.000000 0.000000
-0.002782 -0.001310 0.000000
-0.001310 0.003588 0.000000
0.000000 0.000000 0.000000
0.000315 0.001671 0.000000
0.001671 -0.004470 0.000000
0.000000 0.000000 0.000000
-0.002053 -0.000992 0.000000
-0.000992 0.009574 0.000000
0.000000 0.000000 0.000000
-0.028836 0.001606 0.000000
0.001606 -0.008751 0.000000
0.000000 0.000000 0.000000
-0.010714 -0.008252 0.000000
-0.008252 0.017575 0.000000
0.000000 0.000000 0.000000
0.000697 0.005951 0.000000
0.005951 -0.008987 0.000000
0.000000 0.000000 0.000000
-0.011368 -0.009200 0.000000
-0.009200 0.045850 0.000000
0.000000 0.000000 0.000000
-0.011478 -0.008516 0.000000
-0.008516 0.004879 0.000000
0.000000 0.000000 0.000000
-0.009211 -0.007851 0.000000
-0.007851 0.004553 0.000000
0.000000 0.000000 0.000000
-0.010146 -0.008723 0.000000
-0.008723 0.003410 0.000000
0.000000 0.000000 0.000000
0.003095 0.002084 0.000000
0.002084 0.006070 0.000000
0.000000 0.000000 0.000000
0.007582 0.009012 0.000000
0.009012 0.019203 0.000000
0.000000 0.000000 0.000000
0.014097 0.004508 0.000000
0.004508 0.005394 0.000000
0.000000 0.000000 0.000000
0.009941 -0.028420 0.000000
-0.028420 0.044650 0.000000
0.000000 0.000000 0.000000
0.002443 0.007130 0.000000
0.007130 0.001967 0.000000
0.000000 0.000000 0.000000
0.001961 0.005223 0.000000
0.005223 0.003259 0.000000
0.000000 0.000000 0.000000
-0.003880 -0.006632 0.000000
-0.006632 0.019875 0.000000
0.000000 0.000000 0.000000
-0.022632 -0.050273 0.000000
-0.050273 0.015735 0.000000
0.000000 0.000000 0.000000
0.014098 -0.002044 0.000000
-0.002044 0.023525 0.000000
0.000000 0.000000 0.000000
0.010169 0.000224 0.000000
0.000224 0.017276 0.000000
0.000000 0.000000 0.000000
-0.009655 -0.011163 0.000000
-0.011163 -0.033714 0.000000
0.000000 0.000000 0.000000
0.039887 0.017296 0.000000
0.017296 0.038236 0.000000
0.000000 0.000000 0.000000
0.008981 0.009437 0.000000
0.009437 -0.010666 0.000000
0.000000 0.000000 0.000000
-0.009374 -0.007157 0.000000
-0.007157 0.006947 0.000000
0.000000 0.000000 0.000000
0.011631 0.011391 0.000000
0.011391 -0.008040 0.000000
0.000000 0.000000 0.000000
-0.017074 -0.007258 0.000000
-0.007258 -0.003767 0.000000
0.000000 0.000000 0.000000
0.040499 0.000043 0.000000
0.000043 0.000966 0.000000
0.000000 0.000000 0.000000
0.041879 -0.011781 0.000000
-0.011781 0.024703 0.000000
0.000000 0.000000 0.000000
0.037317 0.001437 0.000000
0.001437 0.025902 0.000000
0.000000 0.000000 0.000000
0.028882 0.011863 0.000000
0.011863 -0.015269 0.000000
0.000000 0.000000 0.000000
-0.000669 -0.002910 0.000000
-0.002910 -0.008077 0.000000
0.000000 0.000000 0.000000
0.002286 -0.001954 0.000000
-0.001954 -0.006659 0.000000
0.000000 0.000000 0.000000
-0.037001 0.013584 0.000000
0.013584 -0.014579 0.000000
0.000000 0.000000 0.000000
-0.008318 0.012066 0.000000
0.012066 -0.005260 0.000000
0.000000 0.000000 0.000000
0.025395 -0.008049 0.000000
-0.008049 0.008092 0.000000
0.000000 0.000000 0.000000
-0.037110 0.013017 0.000000
0.013017 -0.011737 0.000000
0.000000 0.000000 0.000000
-0.001768 0.004323 0.000000
0.004323 -0.007857 0.000000
0.000000 0.000000 0.000000
0.007971 -0.002896 0.000000
-0.002896 0.005234 0.000000
0.000000 0.000000 0.000000
-0.014343 0.001420 0.000000
0.001420 -0.012059 0.000000
0.000000 0.000000 0.000000
0.008866 0.000473 0.000000
0.000473 -0.013924 0.000000
0.000000 0.000000 0.000000
-0.002222 0.004788 0.000000
0.004788 0.015617 0.000000
0.000000 0.000000 0.000000
-0.011263 0.011174 0.000000
0.011174 -0.007254 0.000000
0.000000 0.000000 0.000000
-0.015106 -0.000315 0.000000
-0.000315 -0.001097 0.000000
0.000000 0.000000 0.000000
-0.002831 0.006357 0.000000
0.006357 0.014282 0.000000
0.000000 0.000000 0.000000
0.012078 -0.005124 0.000000
-0.005124 -0.003226 0.000000
0.000000 0.000000 0.000000
0.009341 -0.005121 0.000000
-0.005121 -0.035006 0.000000
0.000000 0.000000 0.000000
0.001753 0.011236 0.000000
0.011236 -0.006511 0.000000
0.000000 0.000000 0.000000
-0.008856 0.002372 0.000000
0.002372 0.011234 0.000000
0.000000 0.000000 0.000000
0.017880 -0.004234 0.000000
-0.004234 0.008277 0.000000
0.000000 0.000000 0.000000
-0.002592 -0.007759 0.000000
-0.007759 0.000894 0.000000
0.000000 0.000000 0.000000
-0.003763 0.002007 0.000000
0.002007 -0.003610 0.000000
0.000000 0.000000 0.000000
-0.006916 -0.005302 0.000000
-0.005302 -0.003011 0.000000
0.000000 0.000000 0.000000
0.018024 0.002431 0.000000
0.002431 0.019042 0.000000
0.000000 0.000000 0.000000
0.008971 0.001072 0.000000
0.001072 0.003434 0.000000
0.000000 0.000000 0.000000
-0.004030 0.002951 0.000000
0.002951 0.012805 0.000000
0.000000 0.000000 0.000000
-0.001164 -0.005924 0.000000
-0.005924 0.009895 0.000000
0.000000 0.000000 0.000000
0.008736 -0.004136 0.000000
-0.004136 0.047750 0.000000
0.000000 0.000000 0.000000
0.003206 -0.007318 0.000000
-0.007318 -0.008482 0.000000
0.000000 0.000000 0.000000
-0.005451 -0.010777 0.000000
-0.010777 -0.009850 0.000000
0.000000 0.000000 0.000000
0.001446 -0.003749 0.000000
-0.003749 0.009365 0.000000
0.000000 0.000000 0.000000
0.041455 -0.011192 0.000000
-0.011192 0.039212 0.000000
0.000000 0.000000 0.000000
-0.008025 0.011539 0.000000
0.011539 0.013614 0.000000
0.000000 0.000000 0.000000
0.018992 -0.003913 0.000000
-0.003913 0.001154 0.000000
0.000000 0.000000 0.000000
0.001100 0.002617 0.000000
0.002617 -0.021440 0.000000
0.000000 0.000000 0.000000
0.015051 -0.000726 0.000000
-0.000726 0.010267 0.000000
0.000000 0.000000 0.000000
0.043066 -0.026353 0.000000
-0.026353 0.078752 0.000000
0.000000 0.000000 0.000000
-0.009452 -0.002757 0.000000
-0.002757 0.010300 0.000000
0.000000 0.000000 0.000000
-0.004985 0.005163 0.000000
0.005163 -0.021060 0.000000
0.000000 0.000000 0.000000
-0.001143 -0.005194 0.000000
-0.005194 -0.007858 0.000000
0.000000 0.000000 0.000000
-0.008017 0.006824 0.000000
0.006824 -0.008925 0.000000
0.000000 0.000000 0.000000
0.009748 -0.004270 0.000000
-0.004270 0.008808 0.000000
0.000000 0.000000 0.000000
-0.011377 -0.015068 0.000000
-0.015068 -0.019542 0.000000
0.000000 0.000000 0.000000
-0.006077 0.006311 0.000000
0.006311 -0.011607 0.000000
0.000000 0.000000 0.000000
0.015281 -0.009729 0.000000
-0.009729 0.026349 0.000000
0.000000 0.000000 0.000000
0.004510 -0.008118 0.000000
-0.008118 -0.004549 0.000000
0.000000 0.000000 0.000000
-0.001560 -0.015008 0.000000
-0.015008 0.018051 0.000000
0.000000 0.000000 0.000000
-0.010708 -0.006789 0.000000
-0.006789 -0.016617 0.000000
0.000000 0.000000 0.000000
-0.006608 -0.005720 0.000000
-0.005720 0.022067 0.000000
0.000000 0.000000 0.000000
0.004051 0.008264 0.000000
0.008264 0.003270 0.000000
0.000000 0.000000 0.000000
-0.010499 -0.001833 0.000000
-0.001833 -0.009701 0.000000
0.000000 0.000000 0.000000
-0.005876 -0.000400 0.000000
-0.000400 -0.013191 0.000000
0.000000 0.000000 0.000000
0.009052 0.003661 0.000000
0.003661 0.008749 0.000000
0.000000 0.000000 0.000000
0.005525 0.005531 0.000000
0.005531 0.007382 0.000000
0.000000 0.000000 0.000000
0.003460 -0.006584 0.000000
-0.006584 0.006718 0.000000
0.000000 0.000000 0.000000
-0.015054 -0.002070 0.000000
-0.002070 0.006153 0.000000
0.000000 0.000000 0.000000
-0.012205 -0.003462 0.000000
-0.003462 0.008464 0.000000
0.000000 0.000000 0.000000
0.008704 0.003330 0.000000
0.003330 0.010665 0.000000
0.000000 0.000000 0.000000
0.017377 -0.001430 0.000000
-0.001430 0.004746 0.000000
0.000000 0.000000 0.000000
-0.000672 0.001819 0.000000
0.001819 -0.013478 0.000000
0.000000 0.000000 0.000000
-0.014934 -0.003738 0.000000
-0.003738 -0.000581 0.000000
0.000000 0.000000 0.000000
-0.005518 -0.005174 0.000000
-0.005174 -0.022783 0.000000
0.000000 0.000000 0.000000
-0.014783 0.003538 0.000000
0.003538 -0.002390 0.000000
0.000000 0.000000 0.000000
-0.011310 0.016043 0.000000
0.016043 -0.018254 0.000000
0.000000 0.000000 0.000000
-0.016039 -0.026855 0.000000
-0.026855 0.023190 0.000000
0.000000 0.000000 0.000000
0.000926 -0.000905 0.000000
-0.000905 -0.015528 0.000000
0.000000 0.000000 0.000000
0.004476 -0.004794 0.000000
-0.004794 -0.009885 0.000000
0.000000 0.000000 0.000000
0.000626 -0.001093 0.000000
-0.001093 -0.015559 0.000000
0.000000 0.000000 0.000000
-0.014062 0.000231 0.000000
0.000231 -0.007074 0.000000
0.000000 0.000000 0.000000
0.004644 -0.003483 0.000000
-0.003483 0.001884 0.000000
0.000000 0.000000 0.000000
0.007673 -0.002650 0.000000
-0.002650 0.017284 0.000000
0.000000 0.000000 0.000000
0.015983 0.005450 0.000000
0.005450 0.001259 0.000000
0.000000 0.000000 0.000000
0.004062 -0.007866 0.000000
-0.007866 -0.007663 0.000000
0.000000 0.000000 0.000000
0.023176 0.043624 0.000000
0.043624 0.023385 0.000000
0.000000 0.000000 0.000000
-0.014595 -0.003250 0.000000
-0.003250 -0.015445 0.000000
0.000000 0.000000 0.000000
0.020326 0.023435 0.000000
0.023435 -0.020816 0.000000
0.000000 0.000000 0.000000
0.035584 -0.007221 0.000000
-0.007221 0.034126 0.000000
0.000000 0.000000 0.000000
0.011679 -0.009503 0.000000
-0.009503 -0.002918 0.000000
0.000000 0.000000 0.000000
0.013340 -0.007889 0.000000
-0.007889 0.001052 0.000000
0.000000 0.000000 0.000000
-0.000137 -0.006190 0.000000
-0.006190 -0.007483 0.000000
0.000000 0.000000 0.000000
0.000967 -0.025597 0.000000
-0.025597 0.018399 0.000000
0.000000 0.000000 0.000000
0.006101 -0.007575 0.000000
-0.007575 0.016294 0.000000
0.000000 0.000000 0.000000
-0.034236 0.006441 0.000000
0.006441 -0.038602 0.000000
0.000000 0.000000 0.000000
0.004489 0.003237 0.000000
0.003237 -0.008999 0.000000
0.000000 0.000000 0.000000
-0.018799 -0.003594 0.000000
-0.003594 -0.031618 0.000000
0.000000 0.000000 0.000000
0.003433 0.003257 0.000000
0.003257 -0.002556 0.000000
0.000000 0.000000 0.000000
-0.007157 0.001285 0.000000
0.001285 -0.019409 0.000000
0.000000 0.000000 0.000000
-0.008784 0.000350 0.000000
0.000350 0.001143 0.000000
0.000000 0.000000 0.000000
0.011044 -0.000495 0.000000
-0.000495 -0.003050 0.000000
0.000000 0.000000 0.000000
-0.035428 -0.000218 0.000000
-0.000218 -0.009159 0.000000
0.000000 0.000000 0.000000
-0.018614 -0.006082 0.000000
-0.006082 -0.005628 0.000000
0.000000 0.000000 0.000000
-0.002627 0.002659 0.000000
0.002659 -0.002564 0.000000
0.000000 0.000000 0.000000
-0.002261 -0.002015 0.000000
-0.002015 -0.027384 0.000000
0.000000 0.000000 0.000000
0.007222 -0.007688 0.000000
-0.007688 -0.016633 0.000000
0.000000 0.000000 0.000000
-0.001441 -0.001508 0.000000
-0.001508 0.005210 0.000000
0.000000 0.000000 0.000000
-0.010935 -0.003196 0.000000
-0.003196 0.003074 0.000000
0.000000 0.000000 0.000000
-0.005094 -0.008298 0.000000
-0.008298 0.005662 0.000000
0.000000 0.000000 0.000000
0.001364 0.007851 0.000000
0.007851 0.011178 0.000000
0.000000 0.000000 0.000000
0.031507 -0.032464 0.000000
-0.032464 0.052520 0.000000
0.000000 0.000000 0.000000
0.006911 0.008905 0.000000
0.008905 0.028713 0.000000
0.000000 0.000000 0.000000
0.032502 -0.032452 0.000000
-0.032452 0.056807 0.000000
0.000000 0.000000 0.000000
-0.002949 0.001280 0.000000
0.001280 -0.006828 0.000000
0.000000 0.000000 0.000000
0.008959 -0.003703 0.000000
-0.003703 0.017023 0.000000
0.000000 0.000000 0.000000
0.009079 -0.004196 0.000000
-0.004196 0.019962 0.000000
0.000000 0.000000 0.000000
0.005825 0.001696 0.000000
0.001696 0.009381 0.000000
0.000000 0.000000 0.000000
0.010199 0.002505 0.000000
0.002505 0.008350 0.000000
0.000000 0.000000 0.000000
-0.017910 -0.006751 0.000000
-0.006751 0.009332 0.000000
0.000000 0.000000 0.000000
0.010625 0.004648 0.000000
0.004648 0.011402 0.000000
0.000000 0.000000 0.000000
0.006516 0.003940 0.000000
0.003940 0.004372 0.000000
0.000000 0.000000 0.000000
0.007104 0.007539 0.000000
0.007539 -0.000746 0.000000
0.000000 0.000000 0.000000
0.001500 0.000426 0.000000
0.000426 -0.003290 0.000000
0.000000 0.000000 0.000000
-0.012765 0.005565 0.000000
0.005565 0.008111 0.000000
0.000000 0.000000 0.000000
0.019282 0.008755 0.000000
0.008755 0.003855 0.000000
0.000000 0.000000 0.000000
-0.017623 0.002628 0.000000
0.002628 -0.000333 0.000000
0.000000 0.000000 0.000000
-0.007765 0.001364 0.000000
0.001364 0.006170 0.000000
0.000000 0.000000 0.000000
0.010356 -0.002275 0.000000
-0.002275 0.022997 0.000000
0.000000 0.000000 0.000000
0.006148 -0.004356 0.000000
-0.004356 0.024007 0.000000
0.000000 0.000000 0.000000
-0.005890 0.003790 0.000000
0.003790 -0.020992 0.000000
0.000000 0.000000 0.000000
0.000183 -0.001598 0.000000
-0.001598 -0.007471 0.000000
0.000000 0.000000 0.000000
-0.000185 0.001584 0.000000
0.001584 0.004065 0.000000
0.000000 0.000000 0.000000
0.000812 0.005981 0.000000
0.005981 -0.018866 0.000000
0.000000 0.000000 0.000000
0.002731 0.003429 0.000000
0.003429 0.010603 0.000000
0.000000 0.000000 0.000000
-0.000637 -0.003450 0.000000
-0.003450 -0.018237 0.000000
0.000000 0.000000 0.000000
-0.021206 -0.007618 0.000000
-0.007618 -0.000328 0.000000
0.000000 0.000000 0.000000
0.022047 -0.010253 0.000000
-0.010253 -0.014066 0.000000
0.000000 0.000000 0.000000
-0.006849 0.001263 0.000000
0.001263 0.007727 0.000000
0.000000 0.000000 0.000000
0.004472 -0.003227 0.000000
-0.003227 -0.003702 0.000000
0.000000 0.000000 0.000000
0.011097 -0.002946 0.000000
-0.002946 -0.019872 0.000000
0.000000 0.000000 0.000000
-0.002531 -0.011184 0.000000
-0.011184 -0.009816 0.000000
0.000000 0.000000 0.000000
0.016789 -0.007144 0.000000
-0.007144 0.007686 0.000000
0.000000 0.000000 0.000000
0.000432 0.012406 0.000000
0.012406 0.013386 0.000000
0.000000 0.000000 0.000000
0.007956 -0.009459 0.000000
-0.009459 0.013732 0.000000
0.000000 0.000000 0.000000
0.004801 -0.000530 0.000000
-0.000530 0.002499 0.000000
0.000000 0.000000 0.000000
0.007233 -0.001654 0.000000
-0.001654 -0.016409 0.000000
0.000000 0.000000 0.000000
-0.024123 -0.004782 0.000000
-0.004782 -0.006166 0.000000
0.000000 0.000000 0.000000
0.009211 0.002968 0.000000
0.002968 0.002294 0.000000
0.000000 0.000000 0.000000
-0.006315 0.016957 0.000000
0.016957 0.034166 0.000000
0.000000 0.000000 0.000000
-0.023361 -0.023863 0.000000
-0.023863 -0.019837 0.000000
0.000000 0.000000 0.000000
0.000044 -0.000406 0.000000
-0.000406 -0.013937 0.000000
0.000000 0.000000 0.000000
-0.045946 -0.012626 0.000000
-0.012626 -0.028430 0.000000
0.000000 0.000000 0.000000
0.001026 -0.007760 0.000000
-0.007760 0.000406 0.000000
0.000000 0.000000 0.000000
-0.047251 0.025444 0.000000
0.025444 -0.064065 0.000000
0.000000 0.000000 0.000000
-0.004129 -0.001929 0.000000
-0.001929 0.004956 0.000000
0.000000 0.000000 0.000000
-0.003802 0.008369 0.000000
0.008369 -0.007097 0.000000
0.000000 0.000000 0.000000
0.004469 0.002940 0.000000
0.002940 0.008400 0.000000
0.000000 0.000000 0.000000
0.002870 -0.004779 0.000000
-0.004779 0.013891 0.000000
0.000000 0.000000 0.000000
0.000785 0.009788 0.000000
0.009788 0.001584 0.000000
0.000000 0.000000 0.000000
-0.009055 0.004525 0.000000
0.004525 -0.009166 0.000000
0.000000 0.000000 0.000000
0.013653 -0.005644 0.000000
-0.005644 -0.003317 0.000000
0.000000 0.000000 0.000000
-0.007982 -0.005729 0.000000
-0.005729 -0.010306 0.000000
0.000000 0.000000 0.000000
-0.003493 -0.009051 0.000000
-0.009051 -0.010709 0.000000
0.000000 0.000000 0.000000
-0.007566 -0.012061 0.000000
-0.012061 0.004838 0.000000
0.000000 0.000000 0.000000
-0.020065 -0.019583 0.000000
-0.019583 0.001605 0.000000
0.000000 0.000000 0.000000
-0.007631 0.002918 0.000000
0.002918 -0.021362 0.000000
0.000000 0.000000 0.000000
-0.004941 0.005300 0.000000
0.005300 -0.012408 0.000000
0.000000 0.000000 0.000000
0.003350 -0.001834 0.000000
-0.001834 0.017606 0.000000
0.000000 0.000000 0.000000
0.003810 0.001455 0.000000
0.001455 0.016134 0.000000
0.000000 0.000000 0.000000
-0.021617 -0.012942 0.000000
-0.012942 0.001048 0.000000
0.000000 0.000000 0.000000
-0.029808 -0.022145 0.000000
-0.022145 -0.019005 0.000000
0.000000 0.000000 0.000000
0.006111 -0.009468 0.000000
-0.009468 0.009472 0.000000
0.000000 0.000000 0.000000
-0.018590 -0.028378 0.000000
-0.028378 0.009779 0.000000
0.000000 0.000000 0.000000
-0.000033 -0.009046 0.000000
-0.009046 -0.003589 0.000000
0.000000 0.000000 0.000000
-0.007092 -0.006556 0.000000
-0.006556 0.007452 0.000000
0.000000 0.000000 0.000000
0.011024 0.001882 0.000000
0.001882 0.001217 0.000000
0.000000 0.000000 0.000000
0.008799 0.003061 0.000000
0.003061 0.012082 0.000000
0.000000 0.000000 0.000000
0.006097 0.003809 0.000000
0.003809 0.008192 0.000000
0.000000 0.000000 0.000000
0.001347 0.002666 0.000000
0.002666 0.004978 0.000000
0.000000 0.000000 0.000000
0.008038 -0.001762 0.000000
-0.001762 0.004431 0.000000
0.000000 0.000000 0.000000
0.029535 0.007489 0.000000
0.007489 0.028703 0.000000
0.000000 0.000000 0.000000
0.010839 -0.003333 0.000000
-0.003333 0.009218 0.000000
0.000000 0.000000 0.000000
-0.011604 0.007804 0.000000
0.007804 -0.019121 0.000000
0.000000 0.000000 0.000000
0.013788 -0.000091 0.000000
-0.000091 0.016335 0.000000
0.000000 0.000000 0.000000
-0.000157 0.001517 0.000000
0.001517 -0.017293 0.000000
0.000000 0.000000 0.000000
0.014726 -0.020165 0.000000
-0.020165 0.004152 0.000000
0.000000 0.000000 0.000000
0.030685 -0.004373 0.000000
-0.004373 0.016667 0.000000
0.000000 0.000000 0.000000
0.004438 0.008346 0.000000
0.008346 0.004274 0.000000
0.000000 0.000000 0.000000
0.031993 -0.037315 0.000000
-0.037315 -0.010115 0.000000
0.000000 0.000000 0.000000
0.006258 0.010179 0.000000
0.010179 0.093708 0.000000
0.000000 0.000000 0.000000
-0.002754 0.003724 0.000000
0.003724 -0.007858 0.000000
0.000000 0.000000 0.000000
0.013746 0.002169 0.000000
0.002169 0.020828 0.000000
0.000000 0.000000 0.000000
-0.009923 0.002912 0.000000
0.002912 -0.020444 0.000000
0.000000 0.000000 0.000000
-0.017413 0.005787 0.000000
0.005787 -0.002647 0.000000
0.000000 0.000000 0.000000
-0.007574 -0.006337 0.000000
-0.006337 0.010730 0.000000
0.000000 0.000000 0.000000
-0.017474 0.006314 0.000000
0.006314 -0.004911 0.000000
0.000000 0.000000 0.000000
-0.002011 -0.005512 0.000000
-0.005512 0.000163 0.000000
0.000000 0.000000 0.000000
-0.003913 -0.003009 0.000000
-0.003009 -0.007973 0.000000
0.000000 0.000000 0.000000
-0.007213 -0.004330 0.000000
-0.004330 0.009295 0.000000
0.000000 0.000000 0.000000
0.005111 -0.003947 0.000000
-0.003947 0.022479 0.000000
0.000000 0.000000 0.000000
0.002496 -0.001913 0.000000
-0.001913 0.007560 0.000000
0.000000 0.000000 0.000000
-0.001241 0.020944 0.000000
0.020944 0.000891 0.000000
0.000000 0.000000 0.000000
0.006438 0.008161 0.000000
0.008161 0.010870 0.000000
0.000000 0.000000 0.000000
0.005367 -0.003399 0.000000
-0.003399 0.005786 0.000000
0.000000 0.000000 0.000000
0.004207 0.004512 0.000000
0.004512 -0.012103 0.000000
0.000000 0.000000 0.000000
0.011285 0.000894 0.000000
0.000894 0.006942 0.000000
0.000000 0.000000 0.000000
0.006058 0.001774 0.000000
0.001774 0.017932 0.000000
0.000000 0.000000 0.000000
-0.005681 -0.003663 0.000000
-0.003663 0.008660 0.000000
0.000000 0.000000 0.000000
0.001873 -0.004469 0.000000
-0.004469 0.004685 0.000000
0.000000 0.000000 0.000000
0.001107 -0.001141 0.000000
-0.001141 0.008553 0.000000
0.000000 0.000000 0.000000
0.045653 0.007489 0.000000
0.007489 0.023565 0.000000
0.000000 0.000000 0.000000
-0.011236 -0.010002 0.000000
-0.010002 -0.004478 0.000000
0.000000 0.000000 0.000000
0.009218 -0.001502 0.000000
-0.001502 0.002667 0.000000
0.000000 0.000000 0.000000
0.007956 -0.010053 0.000000
-0.010053 -0.001281 0.000000
0.000000 0.000000 0.000000
-0.021169 0.008855 0.000000
0.008855 -0.013176 0.000000
0.000000 0.000000 0.000000
-0.002589 -0.009464 0.000000
-0.009464 -0.000751 0.000000
0.000000 0.000000 0.000000
-0.017605 0.003764 0.000000
0.003764 -0.006828 0.000000
0.000000 0.000000 0.000000
-0.019062 0.004919 0.000000
0.004919 -0.004319 0.000000
0.000000 0.000000 0.000000
0.011632 -0.002914 0.000000
-0.002914 0.005984 0.000000
0.000000 0.000000 0.000000
0.006714 -0.000127 0.000000
-0.000127 -0.025551 0.000000
0.000000 0.000000 0.000000
0.007718 -0.002738 0.000000
-0.002738 0.004968 0.000000
0.000000 0.000000 0.000000
-0.017651 0.004337 0.000000
0.004337 -0.003433 0.000000
0.000000 0.000000 0.000000
0.008396 0.000554 0.000000
0.000554 0.011848 0.000000
0.000000 0.000000 0.000000
-0.005273 0.019814 0.000000
0.019814 0.016735 0.000000
0.000000 0.000000 0.000000
0.007981 -0.002711 0.000000
-0.002711 -0.015822 0.000000
0.000000 0.000000 0.000000
-0.022564 0.016950 0.000000
0.016950 -0.001280 0.000000
0.000000 0.000000 0.000000
-0.004750 0.009008 0.000000
0.009008 0.009609 0.000000
0.000000 0.000000 0.000000
0.009861 -0.007862 0.000000
-0.007862 0.023137 0.000000
0.000000 0.000000 0.000000
-0.005364 0.002408 0.000000
0.002408 -0.017856 0.000000
0.000000 0.000000 0.000000
0.011614 0.010343 0.000000
0.010343 0.004482 0.000000
0.000000 0.000000 0.000000
-0.017805 0.014910 0.000000
0.014910 -0.018997 0.000000
0.000000 0.000000 0.000000
0.025341 -0.004241 0.000000
-0.004241 -0.001748 0.000000
0.000000 0.000000 0.000000
0.002707 -0.014464 0.000000
-0.014464 0.009460 0.000000
0.000000 0.000000 0.000000
0.001931 0.002630 0.000000
0.002630 0.014124 0.000000
0.000000 0.000000 0.000000
-0.003235 -0.009660 0.000000
-0.009660 -0.007443 0.000000
0.000000 0.000000 0.000000
-0.016504 -0.000267 0.000000
-0.000267 -0.003557 0.000000
0.000000 0.000000 0.000000
-0.001647 0.007061 0.000000
0.007061 -0.000194 0.000000
0.000000 0.000000 0.000000
0.011838 0.000690 0.000000
0.000690 0.014992 0.000000
0.000000 0.000000 0.000000
-0.005157 0.009486 0.000000
0.009486 0.025758 0.000000
0.000000 0.000000 0.000000
-0.004547 -0.001668 0.000000
-0.001668 -0.010817 0.000000
0.000000 0.000000 0.000000
0.005302 -0.002143 0.000000
-0.002143 0.054322 0.000000
0.000000 0.000000 0.000000
-0.005830 -0.000491 0.000000
-0.000491 -0.013717 0.000000
0.000000 0.000000 0.000000
0.000340 -0.000365 0.000000
-0.000365 0.005559 0.000000
0.000000 0.000000 0.000000
-0.014251 0.000453 0.000000
0.000453 0.009946 0.000000
0.000000 0.000000 0.000000
0.016900 0.007563 0.000000
0.007563 0.019839 0.000000
0.000000 0.000000 0.000000
0.013463 0.009704 0.000000
0.009704 0.016386 0.000000
0.000000 0.000000 0.000000
-0.008974 -0.002459 0.000000
-0.002459 -0.018466 0.000000
0.000000 0.000000 0.000000
0.006366 -0.001078 0.000000
-0.001078 0.009056 0.000000
0.000000 0.000000 0.000000
-0.001798 -0.006222 0.000000
-0.006222 -0.007969 0.000000
0.000000 0.000000 0.000000
0.000746 0.012647 0.000000
0.012647 0.001879 0.000000
0.000000 0.000000 0.000000
0.004681 -0.000040 0.000000
-0.000040 0.001757 0.000000
0.000000 0.000000 0.000000
0.005166 -0.007125 0.000000
-0.007125 0.004258 0.000000
0.000000 0.000000 0.000000
-0.000622 -0.010825 0.000000
-0.010825 -0.020349 0.000000
0.000000 0.000000 0.000000
-0.014520 -0.012628 0.000000
-0.012628 -0.010885 0.000000
0.000000 0.000000 0.000000
0.018650 -0.005411 0.000000
-0.005411 0.016847 0.000000
0.000000 0.000000 0.000000
0.012501 0.001506 0.000000
0.001506 0.006122 0.000000
0.000000 0.000000 0.000000
0.000923 -0.005972 0.000000
-0.005972 -0.012965 0.000000
0.000000 0.000000 0.000000
-0.006589 -0.000048 0.000000
-0.000048 -0.013365 0.000000
0.000000 0.000000 0.000000
-0.006197 -0.006502 0.000000
-0.006502 -0.001517 0.000000
0.000000 0.000000 0.000000
0.008002 0.002173 0.000000
0.002173 0.012555 0.000000
0.000000 0.000000 0.000000
-0.001244 0.005391 0.000000
0.005391 -0.009403 0.000000
0.000000 0.000000 0.000000
-0.000841 0.001459 0.000000
0.001459 0.009851 0.000000
0.000000 0.000000 0.000000
-0.003484 -0.007800 0.000000
-0.007800 -0.004956 0.000000
0.000000 0.000000 0.000000
-0.005644 0.004643 0.000000
0.004643 0.005587 0.000000
0.000000 0.000000 0.000000
-0.017849 0.003406 0.000000
0.003406 0.009498 0.000000
0.000000 0.000000 0.000000
0.011387 -0.006013 0.000000
-0.006013 -0.015702 0.000000
0.000000 0.000000 0.000000
-0.009125 0.007277 0.000000
0.007277 -0.004122 0.000000
0.000000 0.000000 0.000000
0.005282 0.004938 0.000000
0.004938 -0.008752 0.000000
0.000000 0.000000 0.000000
-0.001248 0.011011 0.000000
0.011011 0.016722 0.000000
0.000000 0.000000 0.000000
-0.011354 0.007300 0.000000
0.007300 -0.008568 0.000000
0.000000 0.000000 0.000000
0.000965 -0.008366 0.000000
-0.008366 0.000812 0.000000
0.000000 0.000000 0.000000
-0.014644 0.005400 0.000000
0.005400 0.007783 0.000000
0.000000 0.000000 0.000000
-0.005937 -0.004366 0.000000
-0.004366 -0.006634 0.000000
0.000000 0.000000 0.000000
0.000087 -0.008886 0.000000
-0.008886 0.016777 0.000000
0.000000 0.000000 0.000000
0.000779 -0.005787 0.000000
-0.005787 0.017383 0.000000
0.000000 0.000000 0.000000
-0.024961 -0.002599 0.000000
-0.002599 0.003432 0.000000
0.000000 0.000000 0.000000
-0.011214 0.005095 0.000000
0.005095 0.016030 0.000000
0.000000 0.000000 0.000000
-0.005736 -0.002180 0.000000
-0.002180 0.003218 0.000000
0.000000 0.000000 0.000000
-0.010094 -0.005155 0.000000
-0.005155 0.004069 0.000000
0.000000 0.000000 0.000000
0.007224 0.014158 0.000000
0.014158 0.008859 0.000000
0.000000 0.000000 0.000000
0.008730 0.005333 0.000000
0.005333 -0.004040 0.000000
0.000000 0.000000 0.000000
0.020474 0.009479 0.000000
0.009479 0.007259 0.000000
0.000000 0.000000 0.000000
0.001877 -0.008498 0.000000
-0.008498 0.011179 0.000000
0.000000 0.000000 0.000000
0.015658 -0.001921 0.000000
-0.001921 0.011664 0.000000
0.000000 0.000000 0.000000
-0.003017 0.007310 0.000000
0.007310 -0.000276 0.000000
0.000000 0.000000 0.000000
-0.006217 -0.004125 0.000000
-0.004125 -0.010191 0.000000
0.000000 0.000000 0.000000
-0.008768 0.000976 0.000000
0.000976 0.000679 0.000000
0.000000 0.000000 0.000000
-0.008794 0.000677 0.000000
0.000677 -0.002388 0.000000
0.000000 0.000000 0.000000
-0.015094 -0.015301 0.000000
-0.015301 -0.008469 0.000000
0.000000 0.000000 0.000000
-0.002979 0.002405 0.000000
0.002405 -0.006987 0.000000
0.000000 0.000000 0.000000
0.029321 -0.003407 0.000000
-0.003407 0.081220 0.000000
0.000000 0.000000 0.000000
0.018610 0.002259 0.000000
0.002259 0.006336 0.000000
0.000000 0.000000 0.000000
-0.022304 -0.027129 0.000000
-0.027129 0.048351 0.000000
0.000000 0.000000 0.000000
-0.002878 0.002015 0.000000
0.002015 -0.011481 0.000000
0.000000 0.000000 0.000000
0.006124 -0.007002 0.000000
-0.007002 -0.013859 0.000000
0.000000 0.000000 0.000000
-0.004128 0.001608 0.000000
0.001608 -0.005234 0.000000
0.000000 0.000000 0.000000
0.005532 -0.002985 0.000000
-0.002985 -0.001530 0.000000
0.000000 0.000000 0.000000
0.009077 0.007994 0.000000
0.007994 0.002662 0.000000
0.000000 0.000000 0.000000
-0.005895 -0.007507 0.000000
-0.007507 0.000131 0.000000
0.000000 0.000000 0.000000
0.007177 -0.002944 0.000000
-0.002944 0.010623 0.000000
0.000000 0.000000 0.000000
0.000212 -0.010415 0.000000
-0.010415 -0.002099 0.000000
0.000000 0.000000 0.000000
-0.017402 0.006626 0.000000
0.006626 -0.022525 0.000000
0.000000 0.000000 0.000000
0.016434 -0.017489 0.000000
-0.017489 0.024858 0.000000
0.000000 0.000000 0.000000
-0.004479 -0.005611 0.000000
-0.005611 -0.004147 0.000000
0.000000 0.000000 0.000000
-0.001611 -0.003393 0.000000
-0.003393 0.001995 0.000000
0.000000 0.000000 0.000000
-0.052418 0.002461 0.000000
0.002461 0.031586 0.000000
0.000000 0.000000 0.000000
0.016437 -0.003584 0.000000
-0.003584 0.010345 0.000000
0.000000 0.000000 0.000000
-0.019930 -0.001111 0.000000
-0.001111 -0.026040 0.000000
0.000000 0.000000 0.000000
0.004352 -0.002430 0.000000
-0.002430 0.008541 0.000000
0.000000 0.000000 0.000000
0.014827 -0.000015 0.000000
-0.000015 0.012362 0.000000
0.000000 0.000000 0.000000
-0.012454 0.004887 0.000000
0.004887 0.004606 0.000000
0.000000 0.000000 0.000000
-0.012023 0.003083 0.000000
0.003083 -0.018707 0.000000
0.000000 0.000000 0.000000
0.015456 0.008948 0.000000
0.008948 -0.009916 0.000000
0.000000 0.000000 0.000000
0.019484 -0.001918 0.000000
-0.001918 0.000052 0.000000
0.000000 0.000000 0.000000
0.008235 -0.000906 0.000000
-0.000906 0.013228 0.000000
0.000000 0.000000 0.000000
0.006864 -0.005147 0.000000
-0.005147 -0.000254 0.000000
0.000000 0.000000 0.000000
-0.013166 -0.026657 0.000000
-0.026657 0.006477 0.000000
0.000000 0.000000 0.000000
-0.014900 0.007717 0.000000
0.007717 -0.025729 0.000000
0.000000 0.000000 0.000000
0.009467 0.001843 0.000000
0.001843 0.000257 0.000000
0.000000 0.000000 0.000000
0.012100 0.015863 0.000000
0.015863 0.013272 0.000000
0.000000 0.000000 0.000000
0.010646 0.006836 0.000000
0.006836 0.010384 0.000000
0.000000 0.000000 0.000000
-0.008874 0.001105 0.000000
0.001105 -0.000624 0.000000
0.000000 0.000000 0.000000
-0.030732 0.014972 0.000000
0.014972 -0.003406 0.000000
0.000000 0.000000 0.000000
-0.006585 -0.002301 0.000000
-0.002301 0.001236 0.000000
0.000000 0.000000 0.000000
0.038926 0.016640 0.000000
0.016640 -0.036095 0.000000
0.000000 0.000000 0.000000
-0.013770 -0.023928 0.000000
-0.023928 -0.006461 0.000000
0.000000 0.000000 0.000000
-0.002303 -0.001147 0.000000
-0.001147 -0.015741 0.000000
0.000000 0.000000 0.000000
0.020745 -0.000881 0.000000
-0.000881 -0.014149 0.000000
0.000000 0.000000 0.000000
0.001785 0.001327 0.000000
0.001327 -0.013496 0.000000
0.000000 0.000000 0.000000
-0.006852 0.008332 0.000000
0.008332 0.003494 0.000000
0.000000 0.000000 0.000000
0.028691 -0.005996 0.000000
-0.005996 0.000684 0.000000
0.000000 0.000000 0.000000
-0.012997 0.046667 0.000000
0.046667 -0.066565 0.000000
0.000000 0.000000 0.000000
-0.009418 0.002406 0.000000
0.002406 0.007977 0.000000
0.000000 0.000000 0.000000
0.056883 0.016916 0.000000
0.016916 0.027162 0.000000
0.000000 0.000000 0.000000
0.004812 0.012976 0.000000
0.012976 -0.002862 0.000000
0.000000 0.000000 0.000000
0.001790 -0.005040 0.000000
-0.005040 -0.018549 0.000000
0.000000 0.000000 0.000000
0.000546 0.000529 0.000000
0.000529 -0.007892 0.000000
0.000000 0.000000 0.000000
0.004414 -0.006234 0.000000
-0.006234 0.009945 0.000000
0.000000 0.000000 0.000000
-0.003466 0.002773 0.000000
0.002773 0.010866 0.000000
0.000000 0.000000 0.000000
0.006375 0.005849 0.000000
0.005849 -0.014689 0.000000
0.000000 0.000000 0.000000
-0.000078 -0.004214 0.000000
-0.004214 0.009489 0.000000
0.000000 0.000000 0.000000
-0.002260 -0.006698 0.000000
-0.006698 0.008493 0.000000
0.000000 0.000000 0.000000
-0.006443 0.014260 0.000000
0.014260 0.001593 0.000000
0.000000 0.000000 0.000000
-0.001583 0.002679 0.000000
0.002679 0.004831 0.000000
0.000000 0.000000 0.000000
-0.023325 0.002451 0.000000
0.002451 0.000050 0.000000
0.000000 0.000000 0.000000
-0.004162 -0.001980 0.000000
-0.001980 -0.001213 0.000000
0.000000 0.000000 0.000000
-0.008120 0.012769 0.000000
0.012769 -0.006041 0.000000
0.000000 0.000000 0.000000
-0.021808 0.002306 0.000000
0.002306 0.006365 0.000000
0.000000 0.000000 0.000000
-0.015792 0.003516 0.000000
0.003516 -0.013788 0.000000
0.000000 0.000000 0.000000
-0.019422 -0.000883 0.000000
-0.000883 -0.030042 0.000000
0.000000 0.000000 0.000000
-0.005884 0.008443 0.000000
0.008443 -0.008947 0.000000
0.000000 0.000000 0.000000
-0.016736 -0.002039 0.000000
-0.002039 -0.028978 0.000000
0.000000 0.000000 0.000000
-0.015619 0.001415 0.000000
0.001415 -0.032382 0.000000
0.000000 0.000000 0.000000
0.011278 0.007081 0.000000
0.007081 -0.012763 0.000000
0.000000 0.000000 0.000000
-0.015563 0.007836 0.000000
0.007836 -0.014162 0.000000
0.000000 0.000000 0.000000
0.014973 -0.003907 0.000000
-0.003907 -0.003869 0.000000
0.000000 0.000000 0.000000
0.005855 -0.005587 0.000000
-0.005587 0.018329 0.000000
0.000000 0.000000 0.000000
-0.005488 -0.002347 0.000000
-0.002347 0.000720 0.000000
0.000000 0.000000 0.000000
0.008223 0.005264 0.000000
0.005264 -0.020919 0.000000
0.000000 0.000000 0.000000
-0.018227 0.003256 0.000000
0.003256 -0.002442 0.000000
0.000000 0.000000 0.000000
0.028327 -0.000676 0.000000
-0.000676 0.014252 0.000000
0.000000 0.000000 0.000000
-0.005391 0.003781 0.000000
0.003781 0.005955 0.000000
0.000000 0.000000 0.000000
-0.010368 -0.005846 0.000000
-0.005846 -0.000150 0.000000
0.000000 0.000000 0.000000
0.012767 -0.004097 0.000000
-0.004097 0.003766 0.000000
0.000000 0.000000 0.000000
-0.023987 -0.005579 0.000000
-0.005579 -0.003816 0.000000
0.000000 0.000000 0.000000
-0.002173 0.000541 0.000000
0.000541 -0.021542 0.000000
0.000000 0.000000 0.000000
-0.001469 -0.003170 0.000000
-0.003170 -0.004860 0.000000
0.000000 0.000000 0.000000
0.007325 -0.003013 0.000000
-0.003013 0.017485 0.000000
0.000000 0.000000 0.000000
0.000615 -0.002763 0.000000
-0.002763 0.016227 0.000000
0.000000 0.000000 0.000000
0.009185 -0.004068 0.000000
-0.004068 0.002262 0.000000
0.000000 0.000000 0.000000
-0.003990 0.006022 0.000000
0.006022 0.010791 0.000000
0.000000 0.000000 0.000000
-0.001833 0.002079 0.000000
0.002079 -0.007089 0.000000
0.000000 0.000000 0.000000
0.002083 -0.000256 0.000000
-0.000256 0.006804 0.000000
0.000000 0.000000 0.000000
-0.006500 0.002188 0.000000
0.002188 -0.004286 0.000000
0.000000 0.000000 0.000000
-0.002840 0.005926 0.000000
0.005926 -0.001260 0.000000
0.000000 0.000000 0.000000
-0.019019 -0.002799 0.000000
-0.002799 0.001454 0.000000
0.000000 0.000000 0.000000
0.006263 -0.003114 0.000000
-0.003114 -0.017025 0.000000
0.000000 0.000000 0.000000
-0.008196 -0.003748 0.000000
-0.003748 -0.019675 0.000000
0.000000 0.000000 0.000000
0.005873 -0.002328 0.000000
-0.002328 0.008604 0.000000
0.000000 0.000000 0.000000
-0.011404 0.004667 0.000000
0.004667 0.011201 0.000000
0.000000 0.000000 0.000000
-0.022853 -0.003102 0.000000
-0.003102 0.008624 0.000000
0.000000 0.000000 0.000000
0.010708 -0.001518 0.000000
-0.001518 0.001755 0.000000
0.000000 0.000000 0.000000
-0.007918 0.010574 0.000000
0.010574 0.000503 0.000000
0.000000 0.000000 0.000000
0.001926 0.002074 0.000000
0.002074 0.012038 0.000000
0.000000 0.000000 0.000000
0.022961 -0.009304 0.000000
-0.009304 0.011125 0.000000
0.000000 0.000000 0.000000
0.007262 0.003296 0.000000
0.003296 -0.001624 0.000000
0.000000 0.000000 0.000000
0.017203 -0.002607 0.000000
-0.002607 0.011993 0.000000
0.000000 0.000000 0.000000
-0.002629 -0.014451 0.000000
-0.014451 0.006856 0.000000
0.000000 0.000000 0.000000
-0.040044 -0.023779 0.000000
-0.023779 -0.020879 0.000000
0.000000 0.000000 0.000000
0.025411 -0.001492 0.000000
-0.001492 -0.053015 0.000000
0.000000 0.000000 0.000000
0.006945 0.004888 0.000000
0.004888 -0.003722 0.000000
0.000000 0.000000 0.000000
0.010687 0.004832 0.000000
0.004832 0.008849 0.000000
0.000000 0.000000 0.000000
-0.002922 0.007397 0.000000
0.007397 0.005170 0.000000
0.000000 0.000000 0.000000
0.006796 -0.005224 0.000000
-0.005224 0.017548 0.000000
0.000000 0.000000 0.000000
-0.013695 0.000234 0.000000
0.000234 -0.014132 0.000000
0.000000 0.000000 0.000000
-0.009345 -0.000136 0.000000
-0.000136 -0.014074 0.000000
0.000000 0.000000 0.000000
0.013997 -0.008593 0.000000
-0.008593 0.017570 0.000000
0.000000 0.000000 0.000000
0.010632 -0.009695 0.000000
-0.009695 -0.007223 0.000000
0.000000 0.000000 0.000000
0.022358 -0.005335 0.000000
-0.005335 0.020890 0.000000
0.000000 0.000000 0.000000
-0.009385 -0.009430 0.000000
-0.009430 -0.018365 0.000000
0.000000 0.000000 0.000000
-0.000591 0.001174 0.000000
0.001174 0.008375 0.000000
0.000000 0.000000 0.000000
0.002452 -0.000204 0.000000
-0.000204 0.003407 0.000000
0.000000 0.000000 0.000000
-0.012630 -0.006941 0.000000
-0.006941 0.008140 0.000000
0.000000 0.000000 0.000000
0.005920 0.002810 0.000000
0.002810 0.002993 0.000000
0.000000 0.000000 0.000000
-0.009251 -0.000416 0.000000
-0.000416 -0.001411 0.000000
0.000000 0.000000 0.000000
0.003043 0.002246 0.000000
0.002246 -0.000005 0.000000
0.000000 0.000000 0.000000
-0.026767 -0.008366 0.000000
-0.008366 -0.015639 0.000000
0.000000 0.000000 0.000000
-0.017986 -0.000658 0.000000
-0.000658 0.017254 0.000000
0.000000 0.000000 0.000000
-0.022469 0.001701 0.000000
0.001701 -0.002146 0.000000
0.000000 0.000000 0.000000
-0.018762 0.000121 0.000000
0.000121 0.017916 0.000000
0.000000 0.000000 0.000000
-0.004760 -0.005454 0.000000
-0.005454 -0.006851 0.000000
0.000000 0.000000 0.000000
0.001086 0.007130 0.000000
0.007130 0.009963 0.000000
0.000000 0.000000 0.000000
-0.011391 0.005014 0.000000
0.005014 -0.001083 0.000000
0.000000 0.000000 0.000000
0.004551 0.004937 0.000000
0.004937 0.013167 0.000000
0.000000 0.000000 0.000000
-0.015845 -0.010582 0.000000
-0.010582 -0.014005 0.000000
0.000000 0.000000 0.000000
0.003429 -0.001474 0.000000
-0.001474 0.025209 0.000000
0.000000 0.000000 0.000000
0.004407 0.007832 0.000000
0.007832 0.013393 0.000000
0.000000 0.000000 0.000000
-0.006090 -0.005430 0.000000
-0.005430 -0.007219 0.000000
0.000000 0.000000 0.000000
-0.003555 0.002989 0.000000
0.002989 0.010050 0.000000
0.000000 0.000000 0.000000
0.016921 0.008497 0.000000
0.008497 -0.002009 0.000000
0.000000 0.000000 0.000000
0.000328 0.001640 0.000000
0.001640 0.000884 0.000000
0.000000 0.000000 0.000000
0.030993 0.018793 0.000000
0.018793 0.018889 0.000000
0.000000 0.000000 0.000000
0.002462 0.003026 0.000000
0.003026 0.005200 0.000000
0.000000 0.000000 0.000000
-0.004687 0.009609 0.000000
0.009609 0.003917 0.000000
0.000000 0.000000 0.000000
-0.009107 -0.010695 0.000000
-0.010695 0.007598 0.000000
0.000000 0.000000 0.000000
0.002285 -0.002297 0.000000
-0.002297 -0.001942 0.000000
0.000000 0.000000 0.000000
-0.002991 -0.010277 0.000000
-0.010277 0.009407 0.000000
0.000000 0.000000 0.000000
-0.029606 -0.016817 0.000000
-0.016817 -0.052946 0.000000
0.000000 0.000000 0.000000
0.049684 0.015929 0.000000
0.015929 0.024915 0.000000
0.000000 0.000000 0.000000
0.016339 -0.008814 0.000000
-0.008814 0.013888 0.000000
0.000000 0.000000 0.000000
-0.013668 -0.003131 0.000000
-0.003131 0.001299 0.000000
0.000000 0.000000 0.000000
-0.001744 0.000812 0.000000
0.000812 -0.000001 0.000000
0.000000 0.000000 0.000000
-0.030831 0.007012 0.000000
0.007012 -0.012748 0.000000
0.000000 0.000000 0.000000
-0.110335 -0.039929 0.000000
-0.039929 -0.086652 0.000000
0.000000 0.000000 0.000000
-0.011113 0.003828 0.000000
0.003828 0.000183 0.000000
0.000000 0.000000 0.000000
0.004855 0.006626 0.000000
0.006626 0.007465 0.000000
0.000000 0.000000 0.000000
-0.005221 0.009260 0.000000
0.009260 -0.000470 0.000000
0.000000 0.000000 0.000000
-0.004985 -0.007826 0.000000
-0.007826 -0.007989 0.000000
0.000000 0.000000 0.000000
-0.008107 -0.004642 0.000000
-0.004642 0.003169 0.000000
0.000000 0.000000 0.000000
0.004400 -0.000489 0.000000
-0.000489 0.011211 0.000000
0.000000 0.000000 0.000000
0.006970 -0.006543 0.000000
-0.006543 0.006263 0.000000
0.000000 0.000000 0.000000
0.000544 0.005318 0.000000
0.005318 0.013142 0.000000
0.000000 0.000000 0.000000
-0.005462 0.001192 0.000000
0.001192 -0.006942 0.000000
0.000000 0.000000 0.000000
-0.010854 0.005745 0.000000
0.005745 -0.013226 0.000000
0.000000 0.000000 0.000000
-0.033952 -0.002296 0.000000
-0.002296 -0.016710 0.000000
0.000000 0.000000 0.000000
-0.004728 -0.005977 0.000000
-0.005977 -0.022650 0.000000
0.000000 0.000000 0.000000
-0.005947 -0.008019 0.000000
-0.008019 -0.027001 0.000000
0.000000 0.000000 0.000000
-0.007725 -0.003595 0.000000
-0.003595 -0.020867 0.000000
0.000000 0.000000 0.000000
0.000686 0.006883 0.000000
0.006883 0.007462 0.000000
0.000000 0.000000 0.000000
-0.004967 0.006648 0.000000
0.006648 0.012224 0.000000
0.000000 0.000000 0.000000
-0.005516 0.003408 0.000000
0.003408 0.001908 0.000000
0.000000 0.000000 0.000000
0.032215 0.000955 0.000000
0.000955 0.004154 0.000000
0.000000 0.000000 0.000000
-0.002965 0.008001 0.000000
0.008001 0.004600 0.000000
0.000000 0.000000 0.000000
0.032396 0.024079 0.000000
0.024079 0.003132 0.000000
0.000000 0.000000 0.000000
0.022849 0.009964 0.000000
0.009964 0.043055 0.000000
0.000000 0.000000 0.000000
-0.017588 0.002333 0.000000
0.002333 -0.018413 0.000000
0.000000 0.000000 0.000000
-0.003279 0.011118 0.000000
0.011118 -0.000480 0.000000
0.000000 0.000000 0.000000
0.013051 -0.004781 0.000000
-0.004781 0.008423 0.000000
0.000000 0.000000 0.000000
0.004460 -0.002304 0.000000
-0.002304 0.008386 0.000000
0.000000 0.000000 0.000000
-0.012462 -0.005046 0.000000
-0.005046 -0.011262 0.000000
0.000000 0.000000 0.000000
-0.019219 -0.013024 0.000000
-0.013024 0.007891 0.000000
0.000000 0.000000 0.000000
0.002958 0.001499 0.000000
0.001499 -0.016283 0.000000
0.000000 0.000000 0.000000
-0.004775 -0.008891 0.000000
-0.008891 -0.004607 0.000000
0.000000 0.000000 0.000000
-0.008796 -0.021095 0.000000
-0.021095 -0.003720 0.000000
0.000000 0.000000 0.000000
-0.001062 0.001868 0.000000
0.001868 -0.004176 0.000000
0.000000 0.000000 0.000000
-0.001006 -0.003166 0.000000
-0.003166 -0.007665 0.000000
0.000000 0.000000 0.000000
-0.010417 -0.001033 0.000000
-0.001033 -0.009058 0.000000
0.000000 0.000000 0.000000
0.021978 -0.010401 0.000000
-0.010401 -0.014481 0.000000
0.000000 0.000000 0.000000
-0.014084 0.014419 0.000000
0.014419 -0.040797 0.000000
0.000000 0.000000 0.000000
0.010559 0.010253 0.000000
0.010253 0.003282 0.000000
0.000000 0.000000 0.000000
0.002570 0.001735 0.000000
0.001735 0.011547 0.000000
0.000000 0.000000 0.000000
0.005392 0.005516 0.000000
0.005516 0.004747 0.000000
0.000000 0.000000 0.000000
0.010425 0.002934 0.000000
0.002934 0.003891 0.000000
0.000000 0.000000 0.000000
0.003809 -0.002520 0.000000
-0.002520 0.021829 0.000000
0.000000 0.000000 0.000000
0.001232 0.006692 0.000000
0.006692 -0.009439 0.000000
0.000000 0.000000 0.000000
-0.021793 -0.016047 0.000000
-0.016047 0.014360 0.000000
0.000000 0.000000 0.000000
0.005056 0.002706 0.000000
0.002706 0.014638 0.000000
0.000000 0.000000 0.000000
0.018187 0.033949 0.000000
0.033949 0.041491 0.000000
0.000000 0.000000 0.000000
-0.028885 0.000229 0.000000
0.000229 0.010129 0.000000
0.000000 0.000000 0.000000
0.005532 -0.000196 0.000000
-0.000196 0.014599 0.000000
0.000000 0.000000 0.000000
0.005974 -0.008985 0.000000
-0.008985 0.012241 0.000000
0.000000 0.000000 0.000000
-0.009325 -0.004915 0.000000
-0.004915 -0.007394 0.000000
0.000000 0.000000 0.000000
-0.018654 0.004148 0.000000
0.004148 0.021536 0.000000
0.000000 0.000000 0.000000
-0.000240 0.008421 0.000000
0.008421 0.025613 0.000000
0.000000 0.000000 0.000000
-0.007352 0.002978 0.000000
0.002978 0.017843 0.000000
0.000000 0.000000 0.000000
-0.012364 0.002760 0.000000
0.002760 -0.016035 0.000000
0.000000 0.000000 0.000000
0.004775 -0.021764 0.000000
-0.021764 0.000555 0.000000
0.000000 0.000000 0.000000
0.011580 -0.000678 0.000000
-0.000678 0.021660 0.000000
0.000000 0.000000 0.000000
0.011113 -0.011411 0.000000
-0.011411 -0.001522 0.000000
0.000000 0.000000 0.000000
-0.000080 0.003427 0.000000
0.003427 0.007279 0.000000
0.000000 0.000000 0.000000
0.007283 0.009424 0.000000
0.009424 0.018911 0.000000
0.000000 0.000000 0.000000
0.000595 0.002259 0.000000
0.002259 -0.011134 0.000000
0.000000 0.000000 0.000000
0.008546 -0.009859 0.000000
-0.009859 -0.007468 0.000000
0.000000 0.000000 0.000000
0.011696 -0.005472 0.000000
-0.005472 0.011457 0.000000
0.000000 0.000000 0.000000
0.006120 -0.010901 0.000000
-0.010901 0.001482 0.000000
0.000000 0.000000 0.000000
0.004842 0.001690 0.000000
0.001690 0.027849 0.000000
0.000000 0.000000 0.000000
0.022782 -0.009549 0.000000
-0.009549 -0.001955 0.000000
0.000000 0.000000 0.000000
0.001360 0.000676 0.000000
0.000676 0.007930 0.000000
0.000000 0.000000 0.000000
0.008611 -0.002128 0.000000
-0.002128 -0.000524 0.000000
0.000000 0.000000 0.000000
0.013443 -0.000665 0.000000
-0.000665 0.004137 0.000000
0.000000 0.000000 0.000000
-0.011877 0.008264 0.000000
0.008264 -0.012731 0.000000
0.000000 0.000000 0.000000
0.000931 0.007188 0.000000
0.007188 -0.001678 0.000000
0.000000 0.000000 0.000000
-0.012807 -0.002001 0.000000
-0.002001 0.008662 0.000000
0.000000 0.000000 0.000000
0.000177 0.004674 0.000000
0.004674 0.015429 0.000000
0.000000 0.000000 0.000000
0.001806 -0.003973 0.000000
-0.003973 -0.019955 0.000000
0.000000 0.000000 0.000000
0.020042 -0.009958 0.000000
-0.009958 0.021901 0.000000
0.000000 0.000000 0.000000
0.002270 0.008100 0.000000
0.008100 0.007260 0.000000
0.000000 0.000000 0.000000
0.005737 -0.002739 0.000000
-0.002739 0.000768 0.000000
0.000000 0.000000 0.000000
-0.003245 0.003645 0.000000
0.003645 -0.003740 0.000000
0.000000 0.000000 0.000000
-0.004972 -0.010096 0.000000
-0.010096 -0.017067 0.000000
0.000000 0.000000 0.000000
0.029701 0.006948 0.000000
0.006948 0.011760 0.000000
0.000000 0.000000 0.000000
0.002348 0.006088 0.000000
0.006088 -0.004897 0.000000
0.000000 0.000000 0.000000
0.008620 -0.001955 0.000000
-0.001955 0.002868 0.000000
0.000000 0.000000 0.000000
0.032622 0.009109 0.000000
0.009109 0.013379 0.000000
0.000000 0.000000 0.000000
-0.015478 -0.002169 0.000000
-0.002169 -0.029304 0.000000
0.000000 0.000000 0.000000
0.006164 -0.001687 0.000000
-0.001687 -0.012164 0.000000
0.000000 0.000000 0.000000
-0.006851 0.000762 0.000000
0.000762 0.006043 0.000000
0.000000 0.000000 0.000000
0.013112 0.005688 0.000000
0.005688 -0.002896 0.000000
0.000000 0.000000 0.000000
0.017973 0.004587 0.000000
0.004587 0.007512 0.000000
0.000000 0.000000 0.000000
-0.017182 0.000332 0.000000
0.000332 -0.004284 0.000000
0.000000 0.000000 0.000000
-0.016687 -0.014358 0.000000
-0.014358 -0.012020 0.000000
0.000000 0.000000 0.000000
-0.000969 -0.001362 0.000000
-0.001362 -0.013057 0.000000
0.000000 0.000000 0.000000
0.008507 -0.000567 0.000000
-0.000567 -0.001157 0.000000
0.000000 0.000000 0.000000
0.017656 -0.000888 0.000000
-0.000888 0.002038 0.000000
0.000000 0.000000 0.000000
-0.002047 -0.003028 0.000000
-0.003028 -0.008062 0.000000
0.000000 0.000000 0.000000
0.010094 -0.006632 0.000000
-0.006632 0.022844 0.000000
0.000000 0.000000 0.000000
0.013469 0.003119 0.000000
0.003119 -0.006590 0.000000
0.000000 0.000000 0.000000
0.013570 0.001531 0.000000
0.001531 -0.008020 0.000000
0.000000 0.000000 0.000000
0.006816 -0.001268 0.000000
-0.001268 0.033435 0.000000
0.000000 0.000000 0.000000
-0.000900 -0.004054 0.000000
-0.004054 0.009748 0.000000
0.000000 0.000000 0.000000
0.044216 0.000600 0.000000
0.000600 0.035236 0.000000
0.000000 0.000000 0.000000
-0.009242 0.008527 0.000000
0.008527 0.021595 0.000000
0.000000 0.000000 0.000000
-0.011162 -0.001983 0.000000
-0.001983 0.002374 0.000000
0.000000 0.000000 0.000000
-0.027974 -0.005600 0.000000
-0.005600 0.002570 0.000000
0.000000 0.000000 0.000000
0.009484 0.001903 0.000000
0.001903 0.016736 0.000000
0.000000 0.000000 0.000000
-0.017638 0.000757 0.000000
0.000757 -0.018603 0.000000
0.000000 0.000000 0.000000
-0.023683 0.017509 0.000000
0.017509 0.012071 0.000000
0.000000 0.000000 0.000000
-0.011387 -0.002049 0.000000
-0.002049 0.013333 0.000000
0.000000 0.000000 0.000000
0.007672 -0.003428 0.000000
-0.003428 0.000804 0.000000
0.000000 0.000000 0.000000
0.006698 -0.005762 0.000000
-0.005762 0.015665 0.000000
0.000000 0.000000 0.000000
0.010861 0.013692 0.000000
0.013692 0.012832 0.000000
0.000000 0.000000 0.000000
-0.002097 0.004680 0.000000
0.004680 -0.003685 0.000000
0.000000 0.000000 0.000000
0.009563 -0.014518 0.000000
-0.014518 -0.011436 0.000000
0.000000 0.000000 0.000000
0.041739 0.006629 0.000000
0.006629 0.097751 0.000000
0.000000 0.000000 0.000000
0.000211 -0.008775 0.000000
-0.008775 0.013144 0.000000
0.000000 0.000000 0.000000
-0.005005 0.010690 0.000000
0.010690 -0.038981 0.000000
0.000000 0.000000 0.000000
-0.025858 -0.000960 0.000000
-0.000960 -0.027158 0.000000
0.000000 0.000000 0.000000
0.000905 0.012526 0.000000
0.012526 -0.017971 0.000000
0.000000 0.000000 0.000000
-0.031479 -0.002513 0.000000
-0.002513 -0.050956 0.000000
0.000000 0.000000 0.000000
-0.006692 0.005489 0.000000
0.005489 -0.009348 0.000000
0.000000 0.000000 0.000000
-0.010256 0.002272 0.000000
0.002272 -0.020612 0.000000
0.000000 0.000000 0.000000
-0.013136 -0.009678 0.000000
-0.009678 -0.019147 0.000000
0.000000 0.000000 0.000000
-0.009795 0.000884 0.000000
0.000884 -0.018683 0.000000
0.000000 0.000000 0.000000
0.001725 0.000363 0.000000
0.000363 0.016550 0.000000
0.000000 0.000000 0.000000
-0.023544 0.004407 0.000000
0.004407 0.006169 0.000000
0.000000 0.000000 0.000000
0.009038 -0.008654 0.000000
-0.008654 0.004303 0.000000
0.000000 0.000000 0.000000
0.011723 -0.005542 0.000000
-0.005542 -0.007033 0.000000
0.000000 0.000000 0.000000
0.010701 0.004466 0.000000
0.004466 0.001119 0.000000
0.000000 0.000000 0.000000
-0.000672 0.002221 0.000000
0.002221 -0.003968 0.000000
0.000000 0.000000 0.000000
0.003835 -0.002557 0.000000
-0.002557 0.005975 0.000000
0.000000 0.000000 0.000000
-0.028104 -0.000909 0.000000
-0.000909 -0.009523 0.000000
0.000000 0.000000 0.000000
-0.006497 0.010205 0.000000
0.010205 0.000892 0.000000
0.000000 0.000000 0.000000
-0.015223 0.008095 0.000000
0.008095 0.010586 0.000000
0.000000 0.000000 0.000000
-0.047446 0.026401 0.000000
0.026401 0.066107 0.000000
0.000000 0.000000 0.000000
0.002337 0.010251 0.000000
0.010251 0.017672 0.000000
0.000000 0.000000 0.000000
0.007618 0.000143 0.000000
0.000143 -0.012973 0.000000
0.000000 0.000000 0.000000
-0.008660 -0.006882 0.000000
-0.006882 -0.026948 0.000000
0.000000 0.000000 0.000000
0.011687 0.002443 0.000000
0.002443 0.014655 0.000000
0.000000 0.000000 0.000000
0.022303 -0.011583 0.000000
-0.011583 0.018122 0.000000
0.000000 0.000000 0.000000
0.019708 -0.007009 0.000000
-0.007009 0.023586 0.000000
0.000000 0.000000 0.000000
0.022344 -0.019354 0.000000
-0.019354 0.016225 0.000000
0.000000 0.000000 0.000000
0.011823 -0.003726 0.000000
-0.003726 -0.055035 0.000000
0.000000 0.000000 0.000000
0.054239 -0.014613 0.000000
-0.014613 -0.018378 0.000000
0.000000 0.000000 0.000000
-0.012113 0.003209 0.000000
0.003209 -0.003358 0.000000
0.000000 0.000000 0.000000
0.008987 0.002606 0.000000
0.002606 0.001449 0.000000
0.000000 0.000000 0.000000
-0.003680 0.001875 0.000000
0.001875 0.001804 0.000000
0.000000 0.000000 0.000000
0.000253 0.004597 0.000000
0.004597 -0.008851 0.000000
0.000000 0.000000 0.000000
0.000413 -0.000950 0.000000
-0.000950 0.011688 0.000000
0.000000 0.000000 0.000000
0.015644 -0.002240 0.000000
-0.002240 -0.005973 0.000000
0.000000 0.000000 0.000000
0.004332 -0.001317 0.000000
-0.001317 -0.001049 0.000000
0.000000 0.000000 0.000000
0.012494 0.001842 0.000000
0.001842 0.011210 0.000000
0.000000 0.000000 0.000000
0.010850 0.001321 0.000000
0.001321 -0.001456 0.000000
0.000000 0.000000 0.000000
0.001178 -0.002354 0.000000
-0.002354 0.001748 0.000000
0.000000 0.000000 0.000000
0.007327 -0.000485 0.000000
-0.000485 -0.006017 0.000000
0.000000 0.000000 0.000000
-0.007032 -0.006833 0.000000
-0.006833 -0.015594 0.000000
0.000000 0.000000 0.000000
-0.004032 0.020147 0.000000
0.020147 -0.020194 0.000000
0.000000 0.000000 0.000000
0.015796 -0.004233 0.000000
-0.004233 0.003282 0.000000
0.000000 0.000000 0.000000
-0.015211 -0.019727 0.000000
-0.019727 -0.016459 0.000000
0.000000 0.000000 0.000000
0.002585 -0.012748 0.000000
-0.012748 0.015310 0.000000
0.000000 0.000000 0.000000
0.019390 0.004959 0.000000
0.004959 -0.002193 0.000000
0.000000 0.000000 0.000000
0.010407 -0.002468 0.000000
-0.002468 -0.012257 0.000000
0.000000 0.000000 0.000000
0.021551 0.009159 0.000000
0.009159 0.009452 0.000000
0.000000 0.000000 0.000000
-0.024497 -0.000301 0.000000
-0.000301 -0.038746 0.000000
0.000000 0.000000 0.000000
-0.000575 -0.001467 0.000000
-0.001467 -0.004770 0.000000
0.000000 0.000000 0.000000
0.001334 -0.008289 0.000000
-0.008289 0.006351 0.000000
0.000000 0.000000 0.000000
0.010569 -0.008787 0.000000
-0.008787 0.008201 0.000000
0.000000 0.000000 0.000000
0.010936 -0.001363 0.000000
-0.001363 0.012410 0.000000
0.000000 0.000000 0.000000
0.008928 0.003382 0.000000
0.003382 0.011818 0.000000
0.000000 0.000000 0.000000
-0.008304 -0.010312 0.000000
-0.010312 -0.016613 0.000000
0.000000 0.000000 0.000000
-0.011178 -0.002699 0.000000
-0.002699 0.009637 0.000000
0.000000 0.000000 0.000000
0.026772 0.040393 0.000000
0.040393 0.030860 0.000000
0.000000 0.000000 0.000000
0.007522 -0.003528 0.000000
-0.003528 0.012284 0.000000
0.000000 0.000000 0.000000
-0.006887 -0.003512 0.000000
-0.003512 0.008922 0.000000
0.000000 0.000000 0.000000
0.019978 0.003009 0.000000
0.003009 0.019174 0.000000
0.000000 0.000000 0.000000
-0.014163 -0.013917 0.000000
-0.013917 0.001564 0.000000
0.000000 0.000000 0.000000
0.005180 0.007359 0.000000
0.007359 -0.000476 0.000000
0.000000 0.000000 0.000000
-0.008748 -0.003031 0.000000
-0.003031 0.001213 0.000000
0.000000 0.000000 0.000000
0.001635 0.009761 0.000000
0.009761 -0.004242 0.000000
0.000000 0.000000 0.000000
0.014766 0.000649 0.000000
0.000649 0.010798 0.000000
0.000000 0.000000 0.000000
-0.000320 0.010982 0.000000
0.010982 -0.007097 0.000000
0.000000 0.000000 0.000000
0.005163 0.000366 0.000000
0.000366 0.014012 0.000000
0.000000 0.000000 0.000000
0.004270 0.004253 0.000000
0.004253 -0.017123 0.000000
0.000000 0.000000 0.000000
0.003256 -0.004957 0.000000
-0.004957 -0.005467 0.000000
0.000000 0.000000 0.000000
0.020398 0.002012 0.000000
0.002012 -0.011919 0.000000
0.000000 0.000000 0.000000
0.002468 -0.005395 0.000000
-0.005395 0.007793 0.000000
0.000000 0.000000 0.000000
0.016148 -0.005259 0.000000
-0.005259 0.005949 0.000000
0.000000 0.000000 0.000000
-0.015675 0.004999 0.000000
0.004999 -0.017457 0.000000
0.000000 0.000000 0.000000
-0.023055 -0.015225 0.000000
-0.015225 -0.008807 0.000000
0.000000 0.000000 0.000000
-0.023158 0.002322 0.000000
0.002322 -0.036010 0.000000
0.000000 0.000000 0.000000
-0.017342 -0.006100 0.000000
-0.006100 -0.027998 0.000000
0.000000 0.000000 0.000000
0.007089 -0.000856 0.000000
-0.000856 -0.008042 0.000000
0.000000 0.000000 0.000000
0.010952 -0.006126 0.000000
-0.006126 0.012327 0.000000
0.000000 0.000000 0.000000
0.021554 -0.001667 0.000000
-0.001667 0.022012 0.000000
0.000000 0.000000 0.000000
-0.008881 0.000843 0.000000
0.000843 0.004105 0.000000
0.000000 0.000000 0.000000
-0.009954 -0.002964 0.000000
-0.002964 0.012596 0.000000
0.000000 0.000000 0.000000
-0.006372 -0.002427 0.000000
-0.002427 0.003012 0.000000
0.000000 0.000000 0.000000
0.014092 -0.010417 0.000000
-0.010417 0.037327 0.000000
0.000000 0.000000 0.000000
0.011828 -0.000595 0.000000
-0.000595 0.016383 0.000000
0.000000 0.000000 0.000000
0.028535 -0.014188 0.000000
-0.014188 -0.005897 0.000000
0.000000 0.000000 0.000000
0.011606 -0.003929 0.000000
-0.003929 -0.003969 0.000000
0.000000 0.000000 0.000000
-0.016553 0.002775 0.000000
0.002775 -0.024382 0.000000
0.000000 0.000000 0.000000
-0.018854 -0.008338 0.000000
-0.008338 -0.004936 0.000000
0.000000 0.000000 0.000000
-0.017686 -0.019083 0.000000
-0.019083 -0.012445 0.000000
0.000000 0.000000 0.000000
-0.012088 -0.003472 0.000000
-0.003472 -0.026285 0.000000
0.000000 0.000000 0.000000
-0.007131 0.000192 0.000000
0.000192 0.007271 0.000000
0.000000 0.000000 0.000000
0.005261 -0.001007 0.000000
-0.001007 0.006512 0.000000
0.000000 0.000000 0.000000
0.006986 0.015266 0.000000
0.015266 0.031213 0.000000
0.000000 0.000000 0.000000
-0.005326 0.013669 0.000000
0.013669 -0.026332 0.000000
0.000000 0.000000 0.000000
-0.008316 0.010306 0.000000
0.010306 -0.033023 0.000000
0.000000 0.000000 0.000000
0.008528 0.001632 0.000000
0.001632 -0.015350 0.000000
0.000000 0.000000 0.000000
-0.002366 0.004734 0.000000
0.004734 -0.002275 0.000000
0.000000 0.000000 0.000000
0.010464 0.002301 0.000000
0.002301 -0.000373 0.000000
0.000000 0.000000 0.000000
0.009358 -0.002539 0.000000
-0.002539 0.019150 0.000000
0.000000 0.000000 0.000000
-0.007660 0.000674 0.000000
0.000674 -0.009421 0.000000
0.000000 0.000000 0.000000
-0.004729 -0.003687 0.000000
-0.003687 -0.032140 0.000000
0.000000 0.000000 0.000000
0.035909 -0.015144 0.000000
-0.015144 -0.040003 0.000000
0.000000 0.000000 0.000000
-0.004418 -0.005853 0.000000
-0.005853 0.007133 0.000000
0.000000 0.000000 0.000000
-0.008324 -0.003787 0.000000
-0.003787 -0.004632 0.000000
0.000000 0.000000 0.000000
0.019406 0.000108 0.000000
0.000108 0.037356 0.000000
0.000000 0.000000 0.000000
0.003003 0.007017 0.000000
0.007017 0.030046 0.000000
0.000000 0.000000 0.000000
-0.000649 0.001892 0.000000
0.001892 0.033607 0.000000
0.000000 0.000000 0.000000
0.005805 0.011037 0.000000
0.011037 -0.000239 0.000000
0.000000 0.000000 0.000000
-0.003438 0.009033 0.000000
0.009033 -0.012062 0.000000
0.000000 0.000000 0.000000
0.015087 -0.011010 0.000000
-0.011010 0.012864 0.000000
0.000000 0.000000 0.000000
0.002603 -0.001108 0.000000
-0.001108 0.016837 0.000000
0.000000 0.000000 0.000000
-0.002363 0.006770 0.000000
0.006770 0.000932 0.000000
0.000000 0.000000 0.000000
0.000388 -0.006380 0.000000
-0.006380 -0.007855 0.000000
0.000000 0.000000 0.000000
-0.010878 -0.002526 0.000000
-0.002526 -0.026930 0.000000
0.000000 0.000000 0.000000
0.002145 0.000362 0.000000
0.000362 0.002464 0.000000
0.000000 0.000000 0.000000
-0.002950 0.001671 0.000000
0.001671 -0.005584 0.000000
0.000000 0.000000 0.000000
-0.000444 0.000046 0.000000
0.000046 -0.004624 0.000000
0.000000 0.000000 0.000000
-0.006081 -0.004074 0.000000
-0.004074 -0.011984 0.000000
0.000000 0.000000 0.000000
0.025798 0.004108 0.000000
0.004108 0.026929 0.000000
0.000000 0.000000 0.000000
-0.010761 -0.005668 0.000000
-0.005668 -0.006027 0.000000
0.000000 0.000000 0.000000
0.004650 -0.004075 0.000000
-0.004075 0.003914 0.000000
0.000000 0.000000 0.000000
0.012968 -0.002651 0.000000
-0.002651 0.026608 0.000000
0.000000 0.000000 0.000000
0.001876 0.001269 0.000000
0.001269 0.007951 0.000000
0.000000 0.000000 0.000000
0.036742 0.001109 0.000000
0.001109 0.020740 0.000000
0.000000 0.000000 0.000000
0.006672 0.000333 0.000000
0.000333 0.005382 0.000000
0.000000 0.000000 0.000000
-0.000483 -0.014775 0.000000
-0.014775 0.001190 0.000000
0.000000 0.000000 0.000000
-0.014490 -0.006353 0.000000
-0.006353 0.027019 0.000000
0.000000 0.000000 0.000000
0.028234 0.002378 0.000000
0.002378 -0.011792 0.000000
0.000000 0.000000 0.000000
0.003886 0.006484 0.000000
0.006484 0.025737 0.000000
0.000000 0.000000 0.000000
0.014137 0.001154 0.000000
0.001154 0.016172 0.000000
0.000000 0.000000 0.000000
0.002662 -0.005884 0.000000
-0.005884 0.018374 0.000000
0.000000 0.000000 0.000000
-0.001523 0.002133 0.000000
0.002133 0.000690 0.000000
0.000000 0.000000 0.000000
0.002300 0.011967 0.000000
0.011967 0.014184 0.000000
0.000000 0.000000 0.000000
0.013570 0.001875 0.000000
0.001875 0.004977 0.000000
0.000000 0.000000 0.000000
-0.003259 -0.004359 0.000000
-0.004359 0.022890 0.000000
0.000000 0.000000 0.000000
0.006918 -0.000083 0.000000
-0.000083 -0.004961 0.000000
0.000000 0.000000 0.000000
-0.001751 0.000820 0.000000
0.000820 0.000506 0.000000
0.000000 0.000000 0.000000
0.014710 -0.009891 0.000000
-0.009891 -0.004362 0.000000
0.000000 0.000000 0.000000
-0.012025 0.000056 0.000000
0.000056 -0.018635 0.000000
0.000000 0.000000 0.000000
0.002546 0.004367 0.000000
0.004367 0.016050 0.000000
0.000000 0.000000 0.000000
-0.005266 -0.001934 0.000000
-0.001934 -0.017205 0.000000
0.000000 0.000000 0.000000
0.012391 -0.011315 0.000000
-0.011315 0.018128 0.000000
0.000000 0.000000 0.000000
0.008301 -0.005268 0.000000
-0.005268 0.013641 0.000000
0.000000 0.000000 0.000000
-0.016725 -0.004816 0.000000
-0.004816 -0.011617 0.000000
0.000000 0.000000 0.000000
-0.003137 0.010442 0.000000
0.010442 -0.002823 0.000000
0.000000 0.000000 0.000000
0.017707 0.003700 0.000000
0.003700 -0.013444 0.000000
0.000000 0.000000 0.000000
-0.026555 0.006536 0.000000
0.006536 -0.021753 0.000000
0.000000 0.000000 0.000000
0.000286 0.001613 0.000000
0.001613 0.011263 0.000000
0.000000 0.000000 0.000000
0.026268 -0.004393 0.000000
-0.004393 0.002600 0.000000
0.000000 0.000000 0.000000
-0.004436 -0.006011 0.000000
-0.006011 -0.005492 0.000000
0.000000 0.000000 0.000000
-0.034067 -0.003233 0.000000
-0.003233 -0.006889 0.000000
0.000000 0.000000 0.000000
-0.008883 0.000887 0.000000
0.000887 -0.023361 0.000000
0.000000 0.000000 0.000000
-0.014420 0.005582 0.000000
0.005582 -0.004508 0.000000
0.000000 0.000000 0.000000
-0.011977 0.007205 0.000000
0.007205 -0.021008 0.000000
0.000000 0.000000 0.000000
0.000159 -0.001203 0.000000
-0.001203 -0.005751 0.000000
0.000000 0.000000 0.000000
0.010408 -0.001934 0.000000
-0.001934 0.020499 0.000000
0.000000 0.000000 0.000000
-0.003910 -0.000465 0.000000
-0.000465 -0.001731 0.000000
0.000000 0.000000 0.000000
0.006340 0.003784 0.000000
0.003784 0.007259 0.000000
0.000000 0.000000 0.000000
-0.005195 -0.001056 0.000000
-0.001056 0.000623 0.000000
0.000000 0.000000 0.000000
-0.002581 -0.004040 0.000000
-0.004040 -0.012735 0.000000
0.000000 0.000000 0.000000
0.003831 -0.005138 0.000000
-0.005138 -0.003146 0.000000
0.000000 0.000000 0.000000
-0.002743 0.000206 0.000000
0.000206 0.007913 0.000000
0.000000 0.000000 0.000000
-0.026696 -0.008472 0.000000
-0.008472 -0.019892 0.000000
0.000000 0.000000 0.000000
-0.014592 -0.006923 0.000000
-0.006923 0.010923 0.000000
0.000000 0.000000 0.000000
-0.007870 -0.005502 0.000000
-0.005502 -0.010312 0.000000
0.000000 0.000000 0.000000
-0.003468 0.013904 0.000000
0.013904 -0.030926 0.000000
0.000000 0.000000 0.000000
0.008222 0.004387 0.000000
0.004387 0.012184 0.000000
0.000000 0.000000 0.000000
0.044266 -0.035940 0.000000
-0.035940 -0.004927 0.000000
0.000000 0.000000 0.000000
0.012060 0.008269 0.000000
0.008269 -0.014088 0.000000
0.000000 0.000000 0.000000
-0.003384 0.004980 0.000000
0.004980 -0.004957 0.000000
0.000000 0.000000 0.000000
0.071682 -0.021639 0.000000
-0.021639 0.068904 0.000000
0.000000 0.000000 0.000000
0.013668 0.012799 0.000000
0.012799 0.029558 0.000000
0.000000 0.000000 0.000000
-0.010601 -0.005415 0.000000
-0.005415 0.004184 0.000000
0.000000 0.000000 0.000000
0.020577 -0.004265 0.000000
-0.004265 -0.024512 0.000000
0.000000 0.000000 0.000000
-0.015039 -0.005392 0.000000
-0.005392 0.018619 0.000000
0.000000 0.000000 0.000000
0.021264 0.008972 0.000000
0.008972 -0.002777 0.000000
0.000000 0.000000 0.000000
0.002315 -0.007193 0.000000
-0.007193 0.003623 0.000000
0.000000 0.000000 0.000000
0.020467 0.009633 0.000000
0.009633 -0.008054 0.000000
0.000000 0.000000 0.000000
-0.003982 0.006945 0.000000
0.006945 -0.003070 0.000000
0.000000 0.000000 0.000000
0.011930 -0.009936 0.000000
-0.009936 0.002735 0.000000
0.000000 0.000000 0.000000
-0.002848 0.003439 0.000000
0.003439 -0.007114 0.000000
0.000000 0.000000 0.000000
-0.001144 0.007964 0.000000
0.007964 -0.002152 0.000000
0.000000 0.000000 0.000000
0.011810 -0.010859 0.000000
-0.010859 0.002301 0.000000
0.000000 0.000000 0.000000
0.007111 -0.001537 0.000000
-0.001537 -0.004573 0.000000
0.000000 0.000000 0.000000
0.002708 -0.004205 0.000000
-0.004205 0.002569 0.000000
0.000000 0.000000 0.000000
0.001543 0.003032 0.000000
0.003032 0.016764 0.000000
0.000000 0.000000 0.000000
-0.010504 0.012260 0.000000
0.012260 -0.019250 0.000000
0.000000 0.000000 0.000000
-0.009844 -0.009480 0.000000
-0.009480 0.014158 0.000000
0.000000 0.000000 0.000000
0.002251 0.030224 0.000000
0.030224 0.002213 0.000000
0.000000 0.000000 0.000000
0.020585 0.005705 0.000000
0.005705 0.033668 0.000000
0.000000 0.000000 0.000000
0.015112 0.005339 0.000000
0.005339 -0.006608 0.000000
0.000000 0.000000 0.000000
0.012136 0.007397 0.000000
0.007397 -0.002755 0.000000
0.000000 0.000000 0.000000
0.005457 0.005860 0.000000
0.005860 -0.001063 0.000000
0.000000 0.000000 0.000000
0.002964 0.002847 0.000000
0.002847 -0.002399 0.000000
0.000000 0.000000 0.000000
0.001985 0.004038 0.000000
0.004038 0.006302 0.000000
0.000000 0.000000 0.000000
0.022896 0.000491 0.000000
0.000491 0.013980 0.000000
0.000000 0.000000 0.000000
-0.007833 0.004857 0.000000
0.004857 0.007437 0.000000
0.000000 0.000000 0.000000
0.006567 0.004966 0.000000
0.004966 0.006096 0.000000
0.000000 0.000000 0.000000
0.043405 0.011136 0.000000
0.011136 0.053574 0.000000
0.000000 0.000000 0.000000
-0.007325 0.005916 0.000000
0.005916 -0.002132 0.000000
0.000000 0.000000 0.000000
0.053045 0.006321 0.000000
0.006321 -0.023973 0.000000
0.000000 0.000000 0.000000
0.007760 -0.000028 0.000000
-0.000028 0.008842 0.000000
0.000000 0.000000 0.000000
-0.009993 0.017744 0.000000
0.017744 0.012927 0.000000
0.000000 0.000000 0.000000
-0.003693 0.000358 0.000000
0.000358 -0.001620 0.000000
0.000000 0.000000 0.000000
-0.022189 0.010014 0.000000
0.010014 -0.006696 0.000000
0.000000 0.000000 0.000000
0.005537 0.006961 0.000000
0.006961 0.001883 0.000000
0.000000 0.000000 0.000000
0.012676 -0.015117 0.000000
-0.015117 0.036638 0.000000
0.000000 0.000000 0.000000
-0.009573 0.007047 0.000000
0.007047 -0.004013 0.000000
0.000000 0.000000 0.000000
0.007512 -0.001609 0.000000
-0.001609 -0.007075 0.000000
0.000000 0.000000 0.000000
-0.015344 -0.005361 0.000000
-0.005361 -0.004449 0.000000
0.000000 0.000000 0.000000
-0.008875 -0.002501 0.000000
-0.002501 -0.003848 0.000000
0.000000 0.000000 0.000000
0.002166 -0.004174 0.000000
-0.004174 -0.000862 0.000000
0.000000 0.000000 0.000000
0.002570 -0.000306 0.000000
-0.000306 0.008706 0.000000
0.000000 0.000000 0.000000
0.002662 -0.002826 0.000000
-0.002826 0.009736 0.000000
0.000000 0.000000 0.000000
0.002878 -0.000403 0.000000
-0.000403 0.009688 0.000000
0.000000 0.000000 0.000000
-0.002729 0.002882 0.000000
0.002882 0.000431 0.000000
0.000000 0.000000 0.000000
-0.004057 -0.010793 0.000000
-0.010793 -0.017326 0.000000
0.000000 0.000000 0.000000
0.002542 0.005273 0.000000
0.005273 -0.003674 0.000000
0.000000 0.000000 0.000000
-0.002490 0.006045 0.000000
0.006045 0.023618 0.000000
0.000000 0.000000 0.000000
0.002325 0.001849 0.000000
0.001849 0.011051 0.000000
0.000000 0.000000 0.000000
0.014694 0.001461 0.000000
0.001461 0.002410 0.000000
0.000000 0.000000 0.000000
-0.002207 0.008031 0.000000
0.008031 -0.009880 0.000000
0.000000 0.000000 0.000000
-0.005340 -0.002106 0.000000
-0.002106 0.012709 0.000000
0.000000 0.000000 0.000000
-0.006561 -0.003846 0.000000
-0.003846 -0.035012 0.000000
0.000000 0.000000 0.000000
-0.013247 -0.006509 0.000000
-0.006509 -0.029916 0.000000
0.000000 0.000000 0.000000
0.000514 -0.002672 0.000000
-0.002672 -0.004127 0.000000
0.000000 0.000000 0.000000
-0.001192 -0.001484 0.000000
-0.001484 -0.006407 0.000000
0.000000 0.000000 0.000000
-0.006173 0.001558 0.000000
0.001558 -0.009377 0.000000
0.000000 0.000000 0.000000
-0.002914 -0.001270 0.000000
-0.001270 0.006403 0.000000
0.000000 0.000000 0.000000
-0.004123 -0.001403 0.000000
-0.001403 -0.012439 0.000000
0.000000 0.000000 0.000000
-0.012524 -0.001605 0.000000
-0.001605 -0.001449 0.000000
0.000000 0.000000 0.000000
0.006804 0.005418 0.000000
0.005418 -0.013710 0.000000
0.000000 0.000000 0.000000
-0.018987 -0.014749 0.000000
-0.014749 -0.007806 0.000000
0.000000 0.000000 0.000000
0.019915 -0.008046 0.000000
-0.008046 -0.003177 0.000000
0.000000 0.000000 0.000000
0.004037 0.000359 0.000000
0.000359 -0.000852 0.000000
0.000000 0.000000 0.000000
0.002746 -0.004005 0.000000
-0.004005 0.010851 0.000000
0.000000 0.000000 0.000000
0.008739 -0.015972 0.000000
-0.015972 0.024860 0.000000
0.000000 0.000000 0.000000
-0.009360 -0.003478 0.000000
-0.003478 -0.003184 0.000000
0.000000 0.000000 0.000000
-0.004577 0.011224 0.000000
0.011224 -0.010471 0.000000
0.000000 0.000000 0.000000
0.001770 -0.007299 0.000000
-0.007299 0.010208 0.000000
0.000000 0.000000 0.000000
-0.000126 -0.003445 0.000000
-0.003445 0.013146 0.000000
0.000000 0.000000 0.000000
-0.007998 -0.001179 0.000000
-0.001179 0.009610 0.000000
0.000000 0.000000 0.000000
0.006842 -0.000641 0.000000
-0.000641 0.003363 0.000000
0.000000 0.000000 0.000000
0.010273 -0.003376 0.000000
-0.003376 0.008432 0.000000
0.000000 0.000000 0.000000
-0.009052 0.002314 0.000000
0.002314 0.003429 0.000000
0.000000 0.000000 0.000000
0.002236 0.002778 0.000000
0.002778 -0.000102 0.000000
0.000000 0.000000 0.000000
0.004160 -0.004932 0.000000
-0.004932 0.028301 0.000000
0.000000 0.000000 0.000000
-0.029317 -0.005069 0.000000
-0.005069 0.015896 0.000000
0.000000 0.000000 0.000000
-0.010957 -0.017453 0.000000
-0.017453 -0.043913 0.000000
0.000000 0.000000 0.000000
-0.003014 -0.003642 0.000000
-0.003642 0.001945 0.000000
0.000000 0.000000 0.000000
-0.016659 -0.002799 0.000000
-0.002799 -0.030150 0.000000
0.000000 0.000000 0.000000
-0.020272 0.001664 0.000000
0.001664 0.005236 0.000000
0.000000 0.000000 0.000000
0.010585 -0.007126 0.000000
-0.007126 0.004057 0.000000
0.000000 0.000000 0.000000
0.011940 0.007665 0.000000
0.007665 -0.029568 0.000000
0.000000 0.000000 0.000000
0.015419 0.015352 0.000000
0.015352 -0.019541 0.000000
0.000000 0.000000 0.000000
0.009301 0.002039 0.000000
0.002039 -0.016270 0.000000
0.000000 0.000000 0.000000
0.012400 0.001038 0.000000
0.001038 0.001339 0.000000
0.000000 0.000000 0.000000
0.010942 -0.006812 0.000000
-0.006812 -0.001343 0.000000
0.000000 0.000000 0.000000
0.001871 0.020044 0.000000
0.020044 -0.030126 0.000000
0.000000 0.000000 0.000000
-0.005373 -0.012820 0.000000
-0.012820 0.020630 0.000000
0.000000 0.000000 0.000000
-0.025687 0.001100 0.000000
0.001100 -0.015851 0.000000
0.000000 0.000000 0.000000
0.015348 -0.002719 0.000000
-0.002719 0.018100 0.000000
0.000000 0.000000 0.000000
-0.012668 -0.010397 0.000000
-0.010397 -0.002586 0.000000
0.000000 0.000000 0.000000
0.003041 -0.010500 0.000000
-0.010500 -0.001420 0.000000
0.000000 0.000000 0.000000
0.008369 0.007280 0.000000
0.007280 0.017282 0.000000
0.000000 0.000000 0.000000
0.004419 -0.005791 0.000000
-0.005791 0.015568 0.000000
0.000000 0.000000 0.000000
0.016904 -0.003067 0.000000
-0.003067 -0.027265 0.000000
0.000000 0.000000 0.000000
-0.001294 -0.003677 0.000000
-0.003677 0.000944 0.000000
0.000000 0.000000 0.000000
0.005937 -0.002094 0.000000
-0.002094 0.008154 0.000000
0.000000 0.000000 0.000000
-0.003315 -0.005564 0.000000
-0.005564 -0.004301 0.000000
0.000000 0.000000 0.000000
-0.001722 0.005234 0.000000
0.005234 0.008272 0.000000
0.000000 0.000000 0.000000
0.005858 -0.013162 0.000000
-0.013162 0.023892 0.000000
0.000000 0.000000 0.000000
0.006485 -0.018097 0.000000
-0.018097 0.015902 0.000000
0.000000 0.000000 0.000000
0.001917 -0.006815 0.000000
-0.006815 0.008973 0.000000
0.000000 0.000000 0.000000
-0.004607 0.002385 0.000000
0.002385 -0.007086 0.000000
0.000000 0.000000 0.000000
0.001463 -0.003320 0.000000
-0.003320 0.007725 0.000000
0.000000 0.000000 0.000000
-0.008595 -0.003137 0.000000
-0.003137 0.004812 0.000000
0.000000 0.000000 0.000000
0.008981 -0.002613 0.000000
-0.002613 0.034673 0.000000
0.000000 0.000000 0.000000
0.006414 0.009728 0.000000
0.009728 0.020410 0.000000
0.000000 0.000000 0.000000
-0.023930 -0.010385 0.000000
-0.010385 0.002442 0.000000
0.000000 0.000000 0.000000
-0.023960 0.002735 0.000000
0.002735 0.008586 0.000000
0.000000 0.000000 0.000000
0.004989 0.004699 0.000000
0.004699 0.015971 0.000000
0.000000 0.000000 0.000000
0.003123 0.003876 0.000000
0.003876 0.016942 0.000000
0.000000 0.000000 0.000000
0.000062 0.000161 0.000000
0.000161 -0.010365 0.000000
0.000000 0.000000 0.000000
-0.007206 -0.001156 0.000000
-0.001156 -0.012936 0.000000
0.000000 0.000000 0.000000
0.018957 0.002763 0.000000
0.002763 -0.015950 0.000000
0.000000 0.000000 0.000000
-0.021839 0.010113 0.000000
0.010113 -0.005232 0.000000
0.000000 0.000000 0.000000
-0.011228 -0.000293 0.000000
-0.000293 0.012177 0.000000
0.000000 0.000000 0.000000
0.009816 -0.000235 0.000000
-0.000235 0.004354 0.000000
0.000000 0.000000 0.000000
-0.004792 0.001382 0.000000
0.001382 -0.003721 0.000000
0.000000 0.000000 0.000000
-0.007005 0.004220 0.000000
0.004220 0.003106 0.000000
0.000000 0.000000 0.000000
-0.006890 0.003888 0.000000
0.003888 0.005252 0.000000
0.000000 0.000000 0.000000
-0.004995 0.003865 0.000000
0.003865 0.002964 0.000000
0.000000 0.000000 0.000000
-0.003182 -0.002168 0.000000
-0.002168 0.018257 0.000000
0.000000 0.000000 0.000000
0.003131 -0.001358 0.000000
-0.001358 -0.003080 0.000000
0.000000 0.000000 0.000000
-0.006898 0.002066 0.000000
0.002066 -0.007846 0.000000
0.000000 0.000000 0.000000
0.023496 -0.001676 0.000000
-0.001676 0.000597 0.000000
0.000000 0.000000 0.000000
0.010854 -0.002204 0.000000
-0.002204 -0.002259 0.000000
0.000000 0.000000 0.000000
-0.014550 -0.001950 0.000000
-0.001950 0.008568 0.000000
0.000000 0.000000 0.000000
0.028323 0.007173 0.000000
0.007173 -0.008049 0.000000
0.000000 0.000000 0.000000
0.008926 0.000057 0.000000
0.000057 0.008937 0.000000
0.000000 0.000000 0.000000
-0.000294 0.013995 0.000000
0.013995 -0.009920 0.000000
0.000000 0.000000 0.000000
0.002209 0.002861 0.000000
0.002861 -0.014106 0.000000
0.000000 0.000000 0.000000
0.006246 0.001406 0.000000
0.001406 -0.004560 0.000000
0.000000 0.000000 0.000000
-0.012650 0.004929 0.000000
0.004929 -0.008725 0.000000
0.000000 0.000000 0.000000
-0.002131 -0.001770 0.000000
-0.001770 0.004055 0.000000
0.000000 0.000000 0.000000
0.012334 -0.005688 0.000000
-0.005688 -0.016857 0.000000
0.000000 0.000000 0.000000
0.000207 0.007584 0.000000
0.007584 0.015157 0.000000
0.000000 0.000000 0.000000
-0.046357 0.006939 0.000000
0.006939 -0.009209 0.000000
0.000000 0.000000 0.000000
-0.025805 -0.002516 0.000000
-0.002516 0.000120 0.000000
0.000000 0.000000 0.000000
-0.005537 0.013029 0.000000
0.013029 -0.004149 0.000000
0.000000 0.000000 0.000000
0.010182 0.024756 0.000000
0.024756 -0.014959 0.000000
0.000000 0.000000 0.000000
0.012146 -0.005577 0.000000
-0.005577 -0.017085 0.000000
0.000000 0.000000 0.000000
0.016355 0.022895 0.000000
0.022895 0.004592 0.000000
0.000000 0.000000 0.000000
-0.015215 0.003522 0.000000
0.003522 -0.017533 0.000000
0.000000 0.000000 0.000000
0.017444 -0.001783 0.000000
-0.001783 0.007099 0.000000
0.000000 0.000000 0.000000
-0.001292 -0.008285 0.000000
-0.008285 -0.002954 0.000000
0.000000 0.000000 0.000000
0.016797 0.008814 0.000000
0.008814 0.000868 0.000000
0.000000 0.000000 0.000000
0.007520 0.000290 0.000000
0.000290 0.004615 0.000000
0.000000 0.000000 0.000000
-0.009878 -0.007205 0.000000
-0.007205 0.028474 0.000000
0.000000 0.000000 0.000000
0.016701 -0.000546 0.000000
-0.000546 0.014598 0.000000
0.000000 0.000000 0.000000
-0.005892 -0.014229 0.000000
-0.014229 0.010027 0.000000
0.000000 0.000000 0.000000
-0.018299 0.001367 0.000000
0.001367 -0.000090 0.000000
0.000000 0.000000 0.000000
0.023344 0.004592 0.000000
0.004592 -0.008361 0.000000
0.000000 0.000000 0.000000
-0.029566 0.009506 0.000000
0.009506 0.012862 0.000000
0.000000 0.000000 0.000000
-0.029433 -0.014676 0.000000
-0.014676 -0.029539 0.000000
0.000000 0.000000 0.000000
-0.000821 0.008021 0.000000
0.008021 0.009842 0.000000
0.000000 0.000000 0.000000
0.007468 -0.000661 0.000000
-0.000661 -0.018560 0.000000
0.000000 0.000000 0.000000
0.008234 0.007717 0.000000
0.007717 -0.008580 0.000000
0.000000 0.000000 0.000000
-0.008820 -0.006474 0.000000
-0.006474 0.006789 0.000000
0.000000 0.000000 0.000000
-0.003217 -0.003510 0.000000
-0.003510 -0.002685 0.000000
0.000000 0.000000 0.000000
0.002134 0.008239 0.000000
0.008239 -0.006498 0.000000
0.000000 0.000000 0.000000
0.054721 0.011574 0.000000
0.011574 0.003807 0.000000
0.000000 0.000000 0.000000
-0.000057 -0.001770 0.000000
-0.001770 -0.001434 0.000000
0.000000 0.000000 0.000000
0.003006 0.000592 0.000000
0.000592 0.019608 0.000000
0.000000 0.000000 0.000000
0.045165 -0.005390 0.000000
-0.005390 0.037471 0.000000
0.000000 0.000000 0.000000
0.003839 0.001433 0.000000
0.001433 0.026912 0.000000
0.000000 0.000000 0.000000
0.008493 0.000042 0.000000
0.000042 0.004820 0.000000
0.000000 0.000000 0.000000
-0.035791 -0.010912 0.000000
-0.010912 -0.001134 0.000000
0.000000 0.000000 0.000000
0.026133 -0.011840 0.000000
-0.011840 0.019831 0.000000
0.000000 0.000000 0.000000
0.003128 -0.007038 0.000000
-0.007038 0.006783 0.000000
0.000000 0.000000 0.000000
0.017981 -0.006624 0.000000
-0.006624 -0.009388 0.000000
0.000000 0.000000 0.000000
-0.007622 -0.002007 0.000000
-0.002007 -0.006151 0.000000
0.000000 0.000000 0.000000
0.006847 -0.001211 0.000000
-0.001211 0.001146 0.000000
0.000000 0.000000 0.000000
-0.018724 0.002879 0.000000
0.002879 0.024339 0.000000
0.000000 0.000000 0.000000
0.010091 -0.001684 0.000000
-0.001684 0.037119 0.000000
0.000000 0.000000 0.000000
0.010194 -0.006822 0.000000
-0.006822 0.013471 0.000000
0.000000 0.000000 0.000000
0.009597 0.004003 0.000000
0.004003 -0.000601 0.000000
0.000000 0.000000 0.000000
-0.005059 -0.001406 0.000000
-0.001406 -0.004169 0.000000
0.000000 0.000000 0.000000
-0.003882 0.006008 0.000000
0.006008 -0.005128 0.000000
0.000000 0.000000 0.000000
-0.004984 -0.000329 0.000000
-0.000329 -0.008754 0.000000
0.000000 0.000000 0.000000
0.014524 0.000164 0.000000
0.000164 0.001346 0.000000
0.000000 0.000000 0.000000
0.020764 -0.008512 0.000000
-0.008512 -0.002253 0.000000
0.000000 0.000000 0.000000
-0.015366 0.010308 0.000000
0.010308 -0.011920 0.000000
0.000000 0.000000 0.000000
0.000873 0.001308 0.000000
0.001308 0.002384 0.000000
0.000000 0.000000 0.000000
0.004455 0.018363 0.000000
0.018363 -0.005435 0.000000
0.000000 0.000000 0.000000
0.001605 -0.002816 0.000000
-0.002816 -0.008271 0.000000
0.000000 0.000000 0.000000
-0.007468 -0.015276 0.000000
-0.015276 -0.023684 0.000000
0.000000 0.000000 0.000000
0.016148 0.020597 0.000000
0.020597 -0.005112 0.000000
0.000000 0.000000 0.000000
-0.007703 -0.000952 0.000000
-0.000952 -0.011138 0.000000
0.000000 0.000000 0.000000
0.005464 0.001796 0.000000
0.001796 -0.003837 0.000000
0.000000 0.000000 0.000000
-0.011957 -0.009454 0.000000
-0.009454 -0.000754 0.000000
0.000000 0.000000 0.000000
0.000103 0.000491 0.000000
0.000491 -0.014320 0.000000
0.000000 0.000000 0.000000
-0.007402 0.000496 0.000000
0.000496 -0.017274 0.000000
0.000000 0.000000 0.000000
-0.003562 0.001757 0.000000
0.001757 -0.016259 0.000000
0.000000 0.000000 0.000000
-0.011732 -0.006029 0.000000
-0.006029 0.006537 0.000000
0.000000 0.000000 0.000000
0.008800 0.003996 0.000000
0.003996 -0.001170 0.000000
0.000000 0.000000 0.000000
0.005484 0.003700 0.000000
0.003700 0.014307 0.000000
0.000000 0.000000 0.000000
0.016586 0.003593 0.000000
0.003593 -0.007420 0.000000
0.000000 0.000000 0.000000
-0.013570 0.003169 0.000000
0.003169 0.002997 0.000000
0.000000 0.000000 0.000000
-0.010300 -0.006902 0.000000
-0.006902 0.007744 0.000000
0.000000 0.000000 0.000000
-0.004400 0.004266 0.000000
0.004266 -0.001793 0.000000
0.000000 0.000000 0.000000
-0.001571 -0.000967 0.000000
-0.000967 -0.015284 0.000000
0.000000 0.000000 0.000000
-0.001824 -0.002771 0.000000
-0.002771 0.005680 0.000000
0.000000 0.000000 0.000000
-0.029696 0.000718 0.000000
0.000718 -0.034841 0.000000
0.000000 0.000000 0.000000
-0.001778 0.000961 0.000000
0.000961 -0.009609 0.000000
0.000000 0.000000 0.000000
-0.012192 -0.000613 0.000000
-0.000613 0.012191 0.000000
0.000000 0.000000 0.000000
-0.005583 0.002511 0.000000
0.002511 0.005454 0.000000
0.000000 0.000000 0.000000
0.001713 0.012593 0.000000
0.012593 0.006841 0.000000
0.000000 0.000000 0.000000
0.002594 -0.009828 0.000000
-0.009828 -0.014012 0.000000
0.000000 0.000000 0.000000
-0.004694 -0.004774 0.000000
-0.004774 -0.020454 0.000000
0.000000 0.000000 0.000000
0.003683 -0.004063 0.000000
-0.004063 -0.005863 0.000000
0.000000 0.000000 0.000000
-0.014385 -0.000203 0.000000
-0.000203 0.017044 0.000000
0.000000 0.000000 0.000000
-0.015007 -0.008982 0.000000
-0.008982 -0.014991 0.000000
0.000000 0.000000 0.000000
0.025806 0.020068 0.000000
0.020068 0.037386 0.000000
0.000000 0.000000 0.000000
0.000095 -0.028301 0.000000
-0.028301 0.024634 0.000000
0.000000 0.000000 0.000000
-0.004376 -0.004132 0.000000
-0.004132 0.001850 0.000000
0.000000 0.000000 0.000000
0.053953 0.027987 0.000000
0.027987 0.056057 0.000000
0.000000 0.000000 0.000000
-0.006768 0.007101 0.000000
0.007101 -0.024374 0.000000
0.000000 0.000000 0.000000
-0.007215 -0.003117 0.000000
-0.003117 -0.006991 0.000000
0.000000 0.000000 0.000000
-0.022560 -0.024239 0.000000
-0.024239 -0.015321 0.000000
0.000000 0.000000 0.000000
0.010930 0.006070 0.000000
0.006070 -0.012976 0.000000
0.000000 0.000000 0.000000
0.079646 0.009315 0.000000
0.009315 0.036930 0.000000
0.000000 0.000000 0.000000
-0.006327 -0.015497 0.000000
-0.015497 0.007364 0.000000
0.000000 0.000000 0.000000
-0.004622 0.008237 0.000000
0.008237 0.005998 0.000000
0.000000 0.000000 0.000000
-0.009365 -0.003186 0.000000
-0.003186 -0.064945 0.000000
0.000000 0.000000 0.000000
0.011136 0.008915 0.000000
0.008915 0.008932 0.000000
0.000000 0.000000 0.000000
0.014368 -0.002998 0.000000
-0.002998 -0.001284 0.000000
0.000000 0.000000 0.000000
-0.007804 0.001980 0.000000
0.001980 -0.009802 0.000000
0.000000 0.000000 0.000000
-0.003410 0.001189 0.000000
0.001189 0.007716 0.000000
0.000000 0.000000 0.000000
0.009709 0.012907 0.000000
0.012907 -0.002697 0.000000
0.000000 0.000000 0.000000
-0.011961 -0.004973 0.000000
-0.004973 -0.015283 0.000000
0.000000 0.000000 0.000000
-0.008218 0.004979 0.000000
0.004979 -0.009119 0.000000
0.000000 0.000000 0.000000
-0.000091 0.012484 0.000000
0.012484 -0.014212 0.000000
0.000000 0.000000 0.000000
-0.062735 -0.000857 0.000000
-0.000857 -0.022945 0.000000
0.000000 0.000000 0.000000
-0.017703 0.000038 0.000000
0.000038 -0.039549 0.000000
0.000000 0.000000 0.000000
-0.008113 -0.027516 0.000000
-0.027516 0.024822 0.000000
0.000000 0.000000 0.000000
-0.001947 0.022190 0.000000
0.022190 0.021235 0.000000
0.000000 0.000000 0.000000
0.045329 0.007005 0.000000
0.007005 -0.001234 0.000000
0.000000 0.000000 0.000000
-0.017936 0.022704 0.000000
0.022704 0.018812 0.000000
0.000000 0.000000 0.000000
0.014443 0.005632 0.000000
0.005632 0.001448 0.000000
0.000000 0.000000 0.000000
0.031082 0.000105 0.000000
0.000105 0.029908 0.000000
0.000000 0.000000 0.000000
-0.012322 -0.000002 0.000000
-0.000002 -0.025276 0.000000
0.000000 0.000000 0.000000
0.034456 0.013922 0.000000
0.013922 0.020992 0.000000
0.000000 0.000000 0.000000
-0.002117 -0.001987 0.000000
-0.001987 -0.022823 0.000000
0.000000 0.000000 0.000000
0.053783 -0.004449 0.000000
-0.004449 0.045932 0.000000
0.000000 0.000000 0.000000
0.011934 -0.007576 0.000000
-0.007576 0.006924 0.000000
0.000000 0.000000 0.000000
0.000841 -0.000283 0.000000
-0.000283 -0.015892 0.000000
0.000000 0.000000 0.000000
-0.008925 -0.001455 0.000000
-0.001455 0.008679 0.000000
0.000000 0.000000 0.000000
-0.000124 0.002310 0.000000
0.002310 0.028103 0.000000
0.000000 0.000000 0.000000
0.000865 -0.001235 0.000000
-0.001235 0.001871 0.000000
0.000000 0.000000 0.000000
-0.018196 0.009910 0.000000
0.009910 0.002430 0.000000
0.000000 0.000000 0.000000
-0.016357 -0.014494 0.000000
-0.014494 0.002229 0.000000
0.000000 0.000000 0.000000
-0.005930 0.007006 0.000000
0.007006 0.001503 0.000000
0.000000 0.000000 0.000000
-0.001802 -0.001755 0.000000
-0.001755 -0.012750 0.000000
0.000000 0.000000 0.000000
-0.019057 -0.005300 0.000000
-0.005300 0.025243 0.000000
0.000000 0.000000 0.000000
0.010963 -0.013897 0.000000
-0.013897 0.018849 0.000000
0.000000 0.000000 0.000000
-0.010465 0.007695 0.000000
0.007695 -0.004080 0.000000
0.000000 0.000000 0.000000
0.001046 0.009720 0.000000
0.009720 -0.013142 0.000000
0.000000 0.000000 0.000000
0.009880 -0.005022 0.000000
-0.005022 0.017998 0.000000
0.000000 0.000000 0.000000
-0.001637 0.010254 0.000000
0.010254 -0.005748 0.000000
0.000000 0.000000 0.000000
-0.015331 -0.001988 0.000000
-0.001988 0.010595 0.000000
0.000000 0.000000 0.000000
0.002064 0.008075 0.000000
0.008075 0.005053 0.000000
0.000000 0.000000 0.000000
0.002666 0.002345 0.000000
0.002345 0.003126 0.000000
0.000000 0.000000 0.000000
-0.016653 0.012229 0.000000
0.012229 0.004476 0.000000
0.000000 0.000000 0.000000
-0.002807 -0.004358 0.000000
-0.004358 -0.000163 0.000000
0.000000 0.000000 0.000000
-0.007087 -0.011157 0.000000
-0.011157 -0.009471 0.000000
0.000000 0.000000 0.000000
-0.018289 -0.002624 0.000000
-0.002624 -0.009842 0.000000
0.000000 0.000000 0.000000
-0.002565 -0.004981 0.000000
-0.004981 0.001079 0.000000
0.000000 0.000000 0.000000
-0.001757 0.007715 0.000000
0.007715 0.019743 0.000000
0.000000 0.000000 0.000000
0.010277 0.002875 0.000000
0.002875 0.010066 0.000000
0.000000 0.000000 0.000000
0.005524 0.006047 0.000000
0.006047 0.001582 0.000000
0.000000 0.000000 0.000000
0.002008 -0.006589 0.000000
-0.006589 0.009364 0.000000
0.000000 0.000000 0.000000
0.005111 -0.004539 0.000000
-0.004539 -0.020307 0.000000
0.000000 0.000000 0.000000
-0.006637 -0.003722 0.000000
-0.003722 0.005917 0.000000
0.000000 0.000000 0.000000
-0.003444 0.001332 0.000000
0.001332 -0.021963 0.000000
0.000000 0.000000 0.000000
-0.013099 -0.005416 0.000000
-0.005416 -0.009765 0.000000
0.000000 0.000000 0.000000
-0.002767 -0.002465 0.000000
-0.002465 -0.015765 0.000000
0.000000 0.000000 0.000000
0.017579 0.018149 0.000000
0.018149 0.021402 0.000000
0.000000 0.000000 0.000000
-0.016107 -0.003320 0.000000
-0.003320 0.006981 0.000000
0.000000 0.000000 0.000000
0.004791 0.005722 0.000000
0.005722 -0.020032 0.000000
0.000000 0.000000 0.000000
0.007230 -0.000474 0.000000
-0.000474 -0.009981 0.000000
0.000000 0.000000 0.000000
-0.010473 0.008908 0.000000
0.008908 0.009152 0.000000
0.000000 0.000000 0.000000
0.006459 -0.000340 0.000000
-0.000340 0.024018 0.000000
0.000000 0.000000 0.000000
-0.049462 -0.014395 0.000000
-0.014395 -0.034994 0.000000
0.000000 0.000000 0.000000
0.007973 -0.012643 0.000000
-0.012643 0.040283 0.000000
0.000000 0.000000 0.000000
0.013317 0.004981 0.000000
0.004981 -0.000353 0.000000
0.000000 0.000000 0.000000
-0.011562 -0.000331 0.000000
-0.000331 0.009009 0.000000
0.000000 0.000000 0.000000
0.001622 -0.002297 0.000000
-0.002297 0.000444 0.000000
0.000000 0.000000 0.000000
0.001079 -0.006934 0.000000
-0.006934 -0.006324 0.000000
0.000000 0.000000 0.000000
-0.002816 -0.001566 0.000000
-0.001566 -0.006753 0.000000
0.000000 0.000000 0.000000
-0.001275 0.007420 0.000000
0.007420 -0.006023 0.000000
0.000000 0.000000 0.000000
0.001804 0.007035 0.000000
0.007035 0.007841 0.000000
0.000000 0.000000 0.000000
-0.000206 0.005994 0.000000
0.005994 -0.002044 0.000000
0.000000 0.000000 0.000000
0.001230 0.000652 0.000000
0.000652 0.012429 0.000000
0.000000 0.000000 0.000000
-0.022295 0.011982 0.000000
0.011982 -0.015864 0.000000
0.000000 0.000000 0.000000
-0.047201 0.007744 0.000000
0.007744 -0.025378 0.000000
0.000000 0.000000 0.000000
0.010360 -0.000264 0.000000
-0.000264 0.012741 0.000000
0.000000 0.000000 0.000000
-0.007723 -0.000963 0.000000
-0.000963 0.019320 0.000000
0.000000 0.000000 0.000000
-0.024704 -0.004462 0.000000
-0.004462 -0.003520 0.000000
0.000000 0.000000 0.000000
0.005641 -0.004750 0.000000
-0.004750 0.009348 0.000000
0.000000 0.000000 0.000000
0.011252 -0.004214 0.000000
-0.004214 0.006287 0.000000
0.000000 0.000000 0.000000
0.001146 -0.012318 0.000000
-0.012318 -0.011653 0.000000
0.000000 0.000000 0.000000
-0.003453 -0.002362 0.000000
-0.002362 -0.015135 0.000000
0.000000 0.000000 0.000000
-0.011158 0.002319 0.000000
0.002319 -0.000694 0.000000
0.000000 0.000000 0.000000
-0.019627 -0.000772 0.000000
-0.000772 -0.021904 0.000000
0.000000 0.000000 0.000000
-0.002841 -0.002779 0.000000
-0.002779 0.009355 0.000000
0.000000 0.000000 0.000000
-0.005525 0.000904 0.000000
0.000904 -0.012586 0.000000
0.000000 0.000000 0.000000
-0.000575 -0.009545 0.000000
-0.009545 -0.007673 0.000000
0.000000 0.000000 0.000000
0.028649 -0.000998 0.000000
-0.000998 0.006476 0.000000
0.000000 0.000000 0.000000
-0.016589 -0.013058 0.000000
-0.013058 -0.013050 0.000000
0.000000 0.000000 0.000000
0.022595 0.007552 0.000000
0.007552 0.012469 0.000000
0.000000 0.000000 0.000000
-0.004906 0.001020 0.000000
0.001020 -0.004761 0.000000
0.000000 0.000000 0.000000
-0.010862 0.031510 0.000000
0.031510 0.003357 0.000000
0.000000 0.000000 0.000000
0.002314 -0.002048 0.000000
-0.002048 -0.008770 0.000000
0.000000 0.000000 0.000000
-0.023281 0.014685 0.000000
0.014685 -0.005292 0.000000
0.000000 0.000000 0.000000
-0.009625 0.002559 0.000000
0.002559 0.000250 0.000000
0.000000 0.000000 0.000000
-0.003593 -0.007164 0.000000
-0.007164 -0.003430 0.000000
0.000000 0.000000 0.000000
-0.026414 -0.003048 0.000000
-0.003048 -0.015090 0.000000
0.000000 0.000000 0.000000
0.000123 -0.007375 0.000000
-0.007375 0.008941 0.000000
0.000000 0.000000 0.000000
0.022678 0.003385 0.000000
0.003385 -0.000067 0.000000
0.000000 0.000000 0.000000
0.005758 0.004360 0.000000
0.004360 0.018799 0.000000
0.000000 0.000000 0.000000
-0.000043 0.001759 0.000000
0.001759 0.015182 0.000000
0.000000 0.000000 0.000000
0.013144 -0.000589 0.000000
-0.000589 0.019822 0.000000
0.000000 0.000000 0.000000
-0.004983 0.003637 0.000000
0.003637 0.014956 0.000000
0.000000 0.000000 0.000000
-0.015453 -0.000533 0.000000
-0.000533 0.018963 0.000000
0.000000 0.000000 0.000000
-0.010638 -0.000379 0.000000
-0.000379 0.001960 0.000000
0.000000 0.000000 0.000000
0.000411 0.002704 0.000000
0.002704 0.024088 0.000000
0.000000 0.000000 0.000000
-0.003482 -0.002221 0.000000
-0.002221 -0.026625 0.000000
0.000000 0.000000 0.000000
-0.002312 -0.001156 0.000000
-0.001156 0.006442 0.000000
0.000000 0.000000 0.000000
0.011088 -0.004329 0.000000
-0.004329 -0.001328 0.000000
0.000000 0.000000 0.000000
0.009015 0.001719 0.000000
0.001719 0.009852 0.000000
0.000000 0.000000 0.000000
-0.021013 -0.008634 0.000000
-0.008634 -0.010406 0.000000
0.000000 0.000000 0.000000
0.009052 -0.009013 0.000000
-0.009013 -0.019550 0.000000
0.000000 0.000000 0.000000
0.013364 -0.008775 0.000000
-0.008775 -0.023881 0.000000
0.000000 0.000000 0.000000
0.004794 0.011769 0.000000
0.011769 -0.009927 0.000000
0.000000 0.000000 0.000000
-0.013674 0.003613 0.000000
0.003613 -0.008161 0.000000
0.000000 0.000000 0.000000
-0.004957 0.002370 0.000000
0.002370 0.020588 0.000000
0.000000 0.000000 0.000000
-0.013439 -0.000927 0.000000
-0.000927 0.017132 0.000000
0.000000 0.000000 0.000000
0.008248 -0.016690 0.000000
-0.016690 0.014602 0.000000
0.000000 0.000000 0.000000
-0.023248 -0.016767 0.000000
-0.016767 -0.049860 0.000000
0.000000 0.000000 0.000000
0.007719 -0.001260 0.000000
-0.001260 0.018894 0.000000
0.000000 0.000000 0.000000
0.004869 -0.002410 0.000000
-0.002410 0.017588 0.000000
0.000000 0.000000 0.000000
0.006104 -0.002446 0.000000
-0.002446 0.017349 0.000000
0.000000 0.000000 0.000000
-0.017753 0.007497 0.000000
0.007497 -0.002445 0.000000
0.000000 0.000000 0.000000
-0.009693 0.006841 0.000000
0.006841 0.000291 0.000000
0.000000 0.000000 0.000000
-0.007112 0.004123 0.000000
0.004123 -0.023589 0.000000
0.000000 0.000000 0.000000
-0.009959 -0.001195 0.000000
-0.001195 0.025987 0.000000
0.000000 0.000000 0.000000
-0.009126 -0.034387 0.000000
-0.034387 -0.008142 0.000000
0.000000 0.000000 0.000000
-0.006504 -0.005739 0.000000
-0.005739 -0.005451 0.000000
0.000000 0.000000 0.000000
0.011553 -0.006290 0.000000
-0.006290 0.002264 0.000000
0.000000 0.000000 0.000000
-0.004002 -0.006686 0.000000
-0.006686 0.007102 0.000000
0.000000 0.000000 0.000000
0.005483 0.004312 0.000000
0.004312 -0.001153 0.000000
0.000000 0.000000 0.000000
0.013404 -0.011866 0.000000
-0.011866 0.025699 0.000000
0.000000 0.000000 0.000000
0.002632 0.003695 0.000000
0.003695 -0.012148 0.000000
0.000000 0.000000 0.000000
-0.006659 -0.000106 0.000000
-0.000106 -0.005996 0.000000
0.000000 0.000000 0.000000
0.013075 -0.011554 0.000000
-0.011554 -0.019853 0.000000
0.000000 0.000000 0.000000
0.009621 0.000690 0.000000
0.000690 0.018171 0.000000
0.000000 0.000000 0.000000
-0.000180 0.006324 0.000000
0.006324 -0.016891 0.000000
0.000000 0.000000 0.000000
0.001052 0.003954 0.000000
0.003954 -0.022866 0.000000
0.000000 0.000000 0.000000
0.001314 -0.000492 0.000000
-0.000492 -0.002265 0.000000
0.000000 0.000000 0.000000
0.045451 -0.023503 0.000000
-0.023503 0.022422 0.000000
0.000000 0.000000 0.000000
-0.001959 -0.001529 0.000000
-0.001529 0.001943 0.000000
0.000000 0.000000 0.000000
0.002600 -0.005089 0.000000
-0.005089 0.028732 0.000000
0.000000 0.000000 0.000000
-0.005031 0.000100 0.000000
0.000100 -0.000231 0.000000
0.000000 0.000000 0.000000
0.001773 -0.000282 0.000000
-0.000282 -0.011342 0.000000
0.000000 0.000000 0.000000
0.010345 0.008712 0.000000
0.008712 -0.006807 0.000000
0.000000 0.000000 0.000000
-0.011905 -0.000097 0.000000
-0.000097 -0.015139 0.000000
0.000000 0.000000 0.000000
0.009362 -0.002606 0.000000
-0.002606 -0.001633 0.000000
0.000000 0.000000 0.000000
-0.059600 0.013494 0.000000
0.013494 -0.032796 0.000000
0.000000 0.000000 0.000000
-0.060064 0.021568 0.000000
0.021568 -0.028100 0.000000
0.000000 0.000000 0.000000
0.007321 -0.001235 0.000000
-0.001235 -0.003399 0.000000
0.000000 0.000000 0.000000
0.007178 -0.002237 0.000000
-0.002237 -0.002336 0.000000
0.000000 0.000000 0.000000
-0.037165 -0.011065 0.000000
-0.011065 -0.010833 0.000000
0.000000 0.000000 0.000000
-0.018130 0.007230 0.000000
0.007230 -0.004067 0.000000
0.000000 0.000000 0.000000
-0.003157 0.002105 0.000000
0.002105 -0.002275 0.000000
0.000000 0.000000 0.000000
-0.000981 0.004310 0.000000
0.004310 0.020459 0.000000
0.000000 0.000000 0.000000
0.005677 -0.007496 0.000000
-0.007496 0.007719 0.000000
0.000000 0.000000 0.000000
-0.002963 0.003021 0.000000
0.003021 -0.067073 0.000000
0.000000 0.000000 0.000000
-0.010346 -0.005415 0.000000
-0.005415 -0.014874 0.000000
0.000000 0.000000 0.000000
0.000363 -0.007019 0.000000
-0.007019 -0.050776 0.000000
0.000000 0.000000 0.000000
-0.002134 -0.002893 0.000000
-0.002893 0.015563 0.000000
0.000000 0.000000 0.000000
0.041283 0.042545 0.000000
0.042545 0.010377 0.000000
0.000000 0.000000 0.000000
0.007494 -0.004540 0.000000
-0.004540 0.015397 0.000000
0.000000 0.000000 0.000000
-0.019171 -0.003812 0.000000
-0.003812 -0.014889 0.000000
0.000000 0.000000 0.000000
0.002264 -0.015546 0.000000
-0.015546 -0.022214 0.000000
0.000000 0.000000 0.000000
0.016349 -0.007518 0.000000
-0.007518 0.018389 0.000000
0.000000 0.000000 0.000000
-0.038371 0.033908 0.000000
0.033908 -0.053572 0.000000
0.000000 0.000000 0.000000
0.001615 0.020555 0.000000
0.020555 0.031682 0.000000
0.000000 0.000000 0.000000
-0.005464 0.004307 0.000000
0.004307 0.015463 0.000000
0.000000 0.000000 0.000000
-0.006365 -0.010212 0.000000
-0.010212 0.010034 0.000000
0.000000 0.000000 0.000000
0.008847 0.008773 0.000000
0.008773 -0.007086 0.000000
0.000000 0.000000 0.000000
0.014935 -0.004607 0.000000
-0.004607 0.016462 0.000000
0.000000 0.000000 0.000000
0.023085 0.019865 0.000000
0.019865 0.005707 0.000000
0.000000 0.000000 0.000000
-0.031222 0.030954 0.000000
0.030954 0.020191 0.000000
0.000000 0.000000 0.000000
0.018183 0.005074 0.000000
0.005074 0.020991 0.000000
0.000000 0.000000 0.000000
-0.016858 -0.013755 0.000000
-0.013755 -0.011715 0.000000
0.000000 0.000000 0.000000
0.003421 0.001605 0.000000
0.001605 -0.006999 0.000000
0.000000 0.000000 0.000000
-0.018026 0.003318 0.000000
0.003318 -0.006712 0.000000
0.000000 0.000000 0.000000
0.020202 0.001245 0.000000
0.001245 -0.002299 0.000000
0.000000 0.000000 0.000000
-0.008631 -0.024231 0.000000
-0.024231 -0.003556 0.000000
0.000000 0.000000 0.000000
-0.001388 -0.000650 0.000000
-0.000650 0.015983 0.000000
0.000000 0.000000 0.000000
-0.016646 -0.009389 0.000000
-0.009389 -0.029840 0.000000
0.000000 0.000000 0.000000
-0.000858 0.006188 0.000000
0.006188 0.007406 0.000000
0.000000 0.000000 0.000000
-0.004565 0.003964 0.000000
0.003964 -0.006998 0.000000
0.000000 0.000000 0.000000
0.002878 0.001051 0.000000
0.001051 0.012183 0.000000
0.000000 0.000000 0.000000
-0.004237 -0.005648 0.000000
-0.005648 -0.014931 0.000000
0.000000 0.000000 0.000000
-0.005883 0.010278 0.000000
0.010278 -0.020604 0.000000
0.000000 0.000000 0.000000
0.004542 0.004319 0.000000
0.004319 0.014424 0.000000
0.000000 0.000000 0.000000
-0.000096 0.001928 0.000000
0.001928 -0.022273 0.000000
0.000000 0.000000 0.000000
0.029580 -0.001737 0.000000
-0.001737 -0.001689 0.000000
0.000000 0.000000 0.000000
0.011494 -0.013507 0.000000
-0.013507 0.023765 0.000000
0.000000 0.000000 0.000000
0.002250 0.007287 0.000000
0.007287 0.021881 0.000000
0.000000 0.000000 0.000000
-0.004618 0.001034 0.000000
0.001034 -0.020206 0.000000
0.000000 0.000000 0.000000
0.000628 0.001891 0.000000
0.001891 0.007283 0.000000
0.000000 0.000000 0.000000
-0.012678 -0.006629 0.000000
-0.006629 -0.006187 0.000000
0.000000 0.000000 0.000000
0.004973 0.003879 0.000000
0.003879 0.015114 0.000000
0.000000 0.000000 0.000000
0.002388 -0.006161 0.000000
-0.006161 0.010019 0.000000
0.000000 0.000000 0.000000
0.016291 -0.010775 0.000000
-0.010775 -0.026238 0.000000
0.000000 0.000000 0.000000
-0.009110 0.019663 0.000000
0.019663 0.000608 0.000000
0.000000 0.000000 0.000000
0.006588 -0.005837 0.000000
-0.005837 -0.011570 0.000000
0.000000 0.000000 0.000000
-0.005969 0.003307 0.000000
0.003307 -0.007015 0.000000
0.000000 0.000000 0.000000
0.010000 -0.004913 0.000000
-0.004913 0.036641 0.000000
0.000000 0.000000 0.000000
-0.009011 0.002855 0.000000
0.002855 -0.000672 0.000000
0.000000 0.000000 0.000000
0.025196 0.013166 0.000000
0.013166 0.027879 0.000000
0.000000 0.000000 0.000000
-0.006756 0.008950 0.000000
0.008950 -0.001978 0.000000
0.000000 0.000000 0.000000
0.006563 -0.009870 0.000000
-0.009870 -0.000026 0.000000
0.000000 0.000000 0.000000
-0.009557 -0.014267 0.000000
-0.014267 -0.003864 0.000000
0.000000 0.000000 0.000000
-0.007120 -0.003520 0.000000
-0.003520 -0.000368 0.000000
0.000000 0.000000 0.000000
0.000420 -0.004846 0.000000
-0.004846 -0.005252 0.000000
0.000000 0.000000 0.000000
0.012477 -0.004275 0.000000
-0.004275 0.002934 0.000000
0.000000 0.000000 0.000000
-0.000744 0.000135 0.000000
0.000135 0.006287 0.000000
0.000000 0.000000 0.000000
0.043233 0.014305 0.000000
0.014305 0.038328 0.000000
0.000000 0.000000 0.000000
-0.021791 0.010966 0.000000
0.010966 0.003624 0.000000
0.000000 0.000000 0.000000
-0.013695 0.012390 0.000000
0.012390 -0.015915 0.000000
0.000000 0.000000 0.000000
0.002630 0.002323 0.000000
0.002323 0.002958 0.000000
0.000000 0.000000 0.000000
-0.013752 0.005573 0.000000
0.005573 -0.025208 0.000000
0.000000 0.000000 0.000000
0.018290 -0.002861 0.000000
-0.002861 0.008620 0.000000
0.000000 0.000000 0.000000
-0.006086 -0.003649 0.000000
-0.003649 -0.020075 0.000000
0.000000 0.000000 0.000000
0.005385 0.000883 0.000000
0.000883 0.003494 0.000000
0.000000 0.000000 0.000000
-0.002617 -0.008344 0.000000
-0.008344 -0.016670 0.000000
0.000000 0.000000 0.000000
-0.021877 -0.011626 0.000000
-0.011626 -0.016304 0.000000
0.000000 0.000000 0.000000
-0.003118 -0.007625 0.000000
-0.007625 -0.022287 0.000000
0.000000 0.000000 0.000000
0.005108 0.004412 0.000000
0.004412 -0.013353 0.000000
0.000000 0.000000 0.000000
-0.008776 -0.021176 0.000000
-0.021176 -0.007872 0.000000
0.000000 0.000000 0.000000
-0.001770 0.013162 0.000000
0.013162 0.004631 0.000000
0.000000 0.000000 0.000000
0.020350 0.006375 0.000000
0.006375 0.008023 0.000000
0.000000 0.000000 0.000000
0.008921 -0.001139 0.000000
-0.001139 -0.001611 0.000000
0.000000 0.000000 0.000000
-0.008633 -0.008080 0.000000
-0.008080 0.010634 0.000000
0.000000 0.000000 0.000000
-0.008901 -0.006023 0.000000
-0.006023 -0.029756 0.000000
0.000000 0.000000 0.000000
-0.010106 0.005913 0.000000
0.005913 -0.005966 0.000000
0.000000 0.000000 0.000000
0.023140 -0.012525 0.000000
-0.012525 0.010537 0.000000
0.000000 0.000000 0.000000
0.133089 0.021180 0.000000
0.021180 0.024219 0.000000
0.000000 0.000000 0.000000
-0.010878 0.004953 0.000000
0.004953 -0.018769 0.000000
0.000000 0.000000 0.000000
-0.007650 -0.003271 0.000000
-0.003271 0.003686 0.000000
0.000000 0.000000 0.000000
0.004490 0.001686 0.000000
0.001686 -0.003335 0.000000
0.000000 0.000000 0.000000
0.009740 0.001997 0.000000
0.001997 0.012419 0.000000
0.000000 0.000000 0.000000
0.008541 0.003031 0.000000
0.003031 0.007449 0.000000
0.000000 0.000000 0.000000
0.002980 -0.002338 0.000000
-0.002338 -0.017602 0.000000
0.000000 0.000000 0.000000
0.015551 -0.000823 0.000000
-0.000823 0.011814 0.000000
0.000000 0.000000 0.000000
0.008420 -0.003158 0.000000
-0.003158 0.016056 0.000000
0.000000 0.000000 0.000000
0.010022 -0.012181 0.000000
-0.012181 -0.003643 0.000000
0.000000 0.000000 0.000000
-0.042967 0.006794 0.000000
0.006794 -0.024849 0.000000
0.000000 0.000000 0.000000
0.009663 -0.000348 0.000000
-0.000348 0.006348 0.000000
0.000000 0.000000 0.000000
-0.014753 -0.005006 0.000000
-0.005006 -0.011803 0.000000
0.000000 0.000000 0.000000
-0.033189 0.003542 0.000000
0.003542 0.007841 0.000000
0.000000 0.000000 0.000000
0.038548 0.002067 0.000000
0.002067 0.005425 0.000000
0.000000 0.000000 0.000000
-0.012324 -0.000038 0.000000
-0.000038 0.011224 0.000000
0.000000 0.000000 0.000000
-0.026969 -0.009628 0.000000
-0.009628 -0.017747 0.000000
0.000000 0.000000 0.000000
0.006062 0.005295 0.000000
0.005295 0.013730 0.000000
0.000000 0.000000 0.000000
-0.004445 -0.001391 0.000000
-0.001391 -0.009674 0.000000
0.000000 0.000000 0.000000
0.015191 0.014945 0.000000
0.014945 -0.000728 0.000000
0.000000 0.000000 0.000000
0.015554 0.007367 0.000000
0.007367 0.011578 0.000000
0.000000 0.000000 0.000000
0.010248 0.009784 0.000000
0.009784 -0.003703 0.000000
0.000000 0.000000 0.000000
0.000131 0.008174 0.000000
0.008174 -0.008533 0.000000
0.000000 0.000000 0.000000
-0.014259 0.001916 0.000000
0.001916 -0.006298 0.000000
0.000000 0.000000 0.000000
0.004200 0.010021 0.000000
0.010021 0.007154 0.000000
0.000000 0.000000 0.000000
-0.003791 -0.005528 0.000000
-0.005528 -0.013220 0.000000
0.000000 0.000000 0.000000
0.004843 0.008558 0.000000
0.008558 0.009169 0.000000
0.000000 0.000000 0.000000
-0.002260 0.007719 0.000000
0.007719 0.007537 0.000000
0.000000 0.000000 0.000000
-0.013342 -0.012577 0.000000
-0.012577 0.004206 0.000000
0.000000 0.000000 0.000000
-0.004663 -0.000709 0.000000
-0.000709 -0.011173 0.000000
0.000000 0.000000 0.000000
-0.016663 -0.000797 0.000000
-0.000797 -0.012331 0.000000
0.000000 0.000000 0.000000
0.013290 0.002270 0.000000
0.002270 0.007001 0.000000
0.000000 0.000000 0.000000
0.017292 -0.003016 0.000000
-0.003016 0.014754 0.000000
0.000000 0.000000 0.000000
-0.000838 -0.003080 0.000000
-0.003080 -0.014660 0.000000
0.000000 0.000000 0.000000
-0.006245 -0.005562 0.000000
-0.005562 -0.017052 0.000000
0.000000 0.000000 0.000000
0.008598 0.003947 0.000000
0.003947 0.009603 0.000000
0.000000 0.000000 0.000000
0.020213 0.007539 0.000000
0.007539 0.004140 0.000000
0.000000 0.000000 0.000000
-0.009076 -0.000044 0.000000
-0.000044 0.010185 0.000000
0.000000 0.000000 0.000000
0.008117 -0.005914 0.000000
-0.005914 -0.013444 0.000000
0.000000 0.000000 0.000000
-0.001003 -0.006770 0.000000
-0.006770 0.010782 0.000000
0.000000 0.000000 0.000000
0.002001 0.000162 0.000000
0.000162 0.001739 0.000000
0.000000 0.000000 0.000000
-0.007621 0.002284 0.000000
0.002284 -0.014663 0.000000
0.000000 0.000000 0.000000
0.007857 -0.005313 0.000000
-0.005313 0.025519 0.000000
0.000000 0.000000 0.000000
-0.003451 0.001968 0.000000
0.001968 -0.013640 0.000000
0.000000 0.000000 0.000000
0.007461 -0.028970 0.000000
-0.028970 0.006999 0.000000
0.000000 0.000000 0.000000
-0.009731 0.007466 0.000000
0.007466 -0.011235 0.000000
0.000000 0.000000 0.000000
0.027997 -0.018103 0.000000
-0.018103 0.025064 0.000000
0.000000 0.000000 0.000000
-0.022478 0.004709 0.000000
0.004709 -0.023415 0.000000
0.000000 0.000000 0.000000
0.005091 -0.001052 0.000000
-0.001052 0.002528 0.000000
0.000000 0.000000 0.000000
0.000306 -0.007625 0.000000
-0.007625 0.007450 0.000000
0.000000 0.000000 0.000000
0.000244 0.003123 0.000000
0.003123 0.016256 0.000000
0.000000 0.000000 0.000000
0.003367 -0.005145 0.000000
-0.005145 0.008785 0.000000
0.000000 0.000000 0.000000
0.019194 0.003075 0.000000
0.003075 -0.037654 0.000000
0.000000 0.000000 0.000000
0.010567 -0.007283 0.000000
-0.007283 0.005522 0.000000
0.000000 0.000000 0.000000
0.003176 -0.006002 0.000000
-0.006002 0.004262 0.000000
0.000000 0.000000 0.000000
0.058556 0.029620 0.000000
0.029620 0.051671 0.000000
0.000000 0.000000 0.000000
-0.019557 0.000218 0.000000
0.000218 -0.015476 0.000000
0.000000 0.000000 0.000000
-0.006054 0.003383 0.000000
0.003383 -0.003236 0.000000
0.000000 0.000000 0.000000
-0.023767 -0.001944 0.000000
-0.001944 -0.032950 0.000000
0.000000 0.000000 0.000000
0.014073 0.009344 0.000000
0.009344 -0.015070 0.000000
0.000000 0.000000 0.000000
0.006436 0.010648 0.000000
0.010648 0.019276 0.000000
0.000000 0.000000 0.000000
-0.004422 0.002255 0.000000
0.002255 0.018879 0.000000
0.000000 0.000000 0.000000
0.001024 0.005173 0.000000
0.005173 0.003117 0.000000
0.000000 0.000000 0.000000
0.010791 0.002783 0.000000
0.002783 -0.005950 0.000000
0.000000 0.000000 0.000000
-0.011085 -0.011812 0.000000
-0.011812 -0.004600 0.000000
0.000000 0.000000 0.000000
-0.013463 -0.013762 0.000000
-0.013762 -0.007096 0.000000
0.000000 0.000000 0.000000
0.004900 0.003560 0.000000
0.003560 0.008496 0.000000
0.000000 0.000000 0.000000
0.005971 0.003708 0.000000
0.003708 0.014395 0.000000
0.000000 0.000000 0.000000
0.006860 0.001304 0.000000
0.001304 -0.004694 0.000000
0.000000 0.000000 0.000000
-0.008478 0.005961 0.000000
0.005961 -0.010887 0.000000
0.000000 0.000000 0.000000
0.006533 0.001566 0.000000
0.001566 -0.013008 0.000000
0.000000 0.000000 0.000000
-0.009671 -0.020619 0.000000
-0.020619 -0.008158 0.000000
0.000000 0.000000 0.000000
-0.010286 0.005407 0.000000
0.005407 -0.008026 0.000000
0.000000 0.000000 0.000000
0.006033 0.003109 0.000000
0.003109 -0.006689 0.000000
0.000000 0.000000 0.000000
0.036420 0.003160 0.000000
0.003160 0.005643 0.000000
0.000000 0.000000 0.000000
0.007069 0.006008 0.000000
0.006008 -0.002818 0.000000
0.000000 0.000000 0.000000
0.003490 0.000889 0.000000
0.000889 -0.008867 0.000000
0.000000 0.000000 0.000000
0.008142 0.000486 0.000000
0.000486 0.008702 0.000000
0.000000 0.000000 0.000000
-0.016891 0.007820 0.000000
0.007820 0.001175 0.000000
0.000000 0.000000 0.000000
-0.010051 0.012357 0.000000
0.012357 0.010535 0.000000
0.000000 0.000000 0.000000
0.004022 -0.004760 0.000000
-0.004760 -0.002679 0.000000
0.000000 0.000000 0.000000
0.005947 -0.005617 0.000000
-0.005617 0.005848 0.000000
0.000000 0.000000 0.000000
-0.014303 0.001016 0.000000
0.001016 -0.010338 0.000000
0.000000 0.000000 0.000000
-0.000175 0.007834 0.000000
0.007834 -0.000491 0.000000
0.000000 0.000000 0.000000
-0.006241 0.002955 0.000000
0.002955 -0.003538 0.000000
0.000000 0.000000 0.000000
-0.012950 -0.012160 0.000000
-0.012160 -0.007549 0.000000
0.000000 0.000000 0.000000
-0.004035 0.004189 0.000000
0.004189 -0.002562 0.000000
0.000000 0.000000 0.000000
-0.004635 -0.007847 0.000000
-0.007847 0.010593 0.000000
0.000000 0.000000 0.000000
0.008914 0.002616 0.000000
0.002616 0.021569 0.000000
0.000000 0.000000 0.000000
-0.003412 0.005461 0.000000
0.005461 -0.013286 0.000000
0.000000 0.000000 0.000000
0.003891 -0.006691 0.000000
-0.006691 0.009211 0.000000
0.000000 0.000000 0.000000
-0.014192 -0.012612 0.000000
-0.012612 -0.004104 0.000000
0.000000 0.000000 0.000000
0.031042 -0.021636 0.000000
-0.021636 0.034901 0.000000
0.000000 0.000000 0.000000
-0.024099 -0.007174 0.000000
-0.007174 -0.023474 0.000000
0.000000 0.000000 0.000000
0.006442 0.006798 0.000000
0.006798 0.013903 0.000000
0.000000 0.000000 0.000000
-0.015721 0.000913 0.000000
0.000913 -0.002619 0.000000
0.000000 0.000000 0.000000
-0.001707 -0.005467 0.000000
-0.005467 0.011939 0.000000
0.000000 0.000000 0.000000
-0.001246 -0.003256 0.000000
-0.003256 -0.000917 0.000000
0.000000 0.000000 0.000000
0.003465 -0.003705 0.000000
-0.003705 0.003057 0.000000
0.000000 0.000000 0.000000
-0.001015 0.000983 0.000000
0.000983 0.005562 0.000000
0.000000 0.000000 0.000000
0.005830 -0.002123 0.000000
-0.002123 0.011158 0.000000
0.000000 0.000000 0.000000
0.019017 -0.002156 0.000000
-0.002156 0.005407 0.000000
0.000000 0.000000 0.000000
-0.010121 -0.001852 0.000000
-0.001852 0.014999 0.000000
0.000000 0.000000 0.000000
0.013417 -0.004125 0.000000
-0.004125 0.015586 0.000000
0.000000 0.000000 0.000000
0.000496 -0.000304 0.000000
-0.000304 0.025219 0.000000
0.000000 0.000000 0.000000
0.008198 -0.014493 0.000000
-0.014493 0.003737 0.000000
0.000000 0.000000 0.000000
0.008090 -0.004916 0.000000
-0.004916 0.013252 0.000000
0.000000 0.000000 0.000000
0.014213 0.006542 0.000000
0.006542 0.002768 0.000000
0.000000 0.000000 0.000000
0.016407 0.008762 0.000000
0.008762 -0.010106 0.000000
0.000000 0.000000 0.000000
0.002923 -0.003844 0.000000
-0.003844 -0.003609 0.000000
0.000000 0.000000 0.000000
0.000860 0.000796 0.000000
0.000796 0.006457 0.000000
0.000000 0.000000 0.000000
-0.003768 -0.002603 0.000000
-0.002603 0.000486 0.000000
0.000000 0.000000 0.000000
-0.018716 -0.014274 0.000000
-0.014274 0.008385 0.000000
0.000000 0.000000 0.000000
0.000934 -0.007696 0.000000
-0.007696 0.015897 0.000000
0.000000 0.000000 0.000000
-0.002767 -0.000592 0.000000
-0.000592 -0.000303 0.000000
0.000000 0.000000 0.000000
-0.009978 -0.004920 0.000000
-0.004920 -0.005501 0.000000
0.000000 0.000000 0.000000
0.001722 0.012235 0.000000
0.012235 -0.016808 0.000000
0.000000 0.000000 0.000000
0.022912 -0.004946 0.000000
-0.004946 -0.007238 0.000000
0.000000 0.000000 0.000000
0.007446 0.008279 0.000000
0.008279 -0.005757 0.000000
0.000000 0.000000 0.000000
-0.000581 -0.007951 0.000000
-0.007951 -0.011024 0.000000
0.000000 0.000000 0.000000
-0.010253 -0.005951 0.000000
-0.005951 -0.007970 0.000000
0.000000 0.000000 0.000000
-0.012086 -0.008510 0.000000
-0.008510 -0.002494 0.000000
0.000000 0.000000 0.000000
-0.002901 -0.003724 0.000000
-0.003724 -0.004239 0.000000
0.000000 0.000000 0.000000
-0.004107 0.001354 0.000000
0.001354 0.029355 0.000000
0.000000 0.000000 0.000000
0.019271 -0.012572 0.000000
-0.012572 -0.001106 0.000000
0.000000 0.000000 0.000000
-0.019194 0.012659 0.000000
0.012659 0.027851 0.000000
0.000000 0.000000 0.000000
0.005554 -0.004419 0.000000
-0.004419 -0.001186 0.000000
0.000000 0.000000 0.000000
0.002893 -0.006878 0.000000
-0.006878 0.001213 0.000000
0.000000 0.000000 0.000000
-0.009847 0.018109 0.000000
0.018109 -0.007212 0.000000
0.000000 0.000000 0.000000
-0.019237 -0.009776 0.000000
-0.009776 0.022960 0.000000
0.000000 0.000000 0.000000
0.007130 -0.000748 0.000000
-0.000748 0.003126 0.000000
0.000000 0.000000 0.000000
0.006648 -0.004354 0.000000
-0.004354 0.028622 0.000000
0.000000 0.000000 0.000000
0.001859 0.004209 0.000000
0.004209 0.022046 0.000000
0.000000 0.000000 0.000000
0.000398 0.004265 0.000000
0.004265 -0.018718 0.000000
0.000000 0.000000 0.000000
-0.010468 -0.004562 0.000000
-0.004562 -0.027723 0.000000
0.000000 0.000000 0.000000
-0.010238 -0.002937 0.000000
-0.002937 -0.040610 0.000000
0.000000 0.000000 0.000000
-0.013906 -0.000025 0.000000
-0.000025 -0.040900 0.000000
0.000000 0.000000 0.000000
0.016841 -0.004099 0.000000
-0.004099 -0.007769 0.000000
0.000000 0.000000 0.000000
-0.018340 0.001041 0.000000
0.001041 -0.000515 0.000000
0.000000 0.000000 0.000000
-0.005297 0.001280 0.000000
0.001280 -0.007149 0.000000
0.000000 0.000000 0.000000
-0.010577 0.009152 0.000000
0.009152 -0.029041 0.000000
0.000000 0.000000 0.000000
0.005333 0.000482 0.000000
0.000482 -0.001178 0.000000
0.000000 0.000000 0.000000
0.001320 0.001374 0.000000
0.001374 -0.005283 0.000000
0.000000 0.000000 0.000000
0.004442 0.000687 0.000000
0.000687 -0.004282 0.000000
0.000000 0.000000 0.000000
-0.009956 -0.009470 0.000000
-0.009470 -0.008247 0.000000
0.000000 0.000000 0.000000
-0.000157 0.002042 0.000000
0.002042 -0.009964 0.000000
0.000000 0.000000 0.000000
-0.008266 -0.004074 0.000000
-0.004074 -0.025655 0.000000
0.000000 0.000000 0.000000
0.002731 -0.005379 0.000000
-0.005379 0.010332 0.000000
0.000000 0.000000 0.000000
-0.006726 -0.014558 0.000000
-0.014558 0.004585 0.000000
0.000000 0.000000 0.000000
-0.011636 0.004126 0.000000
0.004126 -0.014198 0.000000
0.000000 0.000000 0.000000
-0.020068 0.042030 0.000000
0.042030 -0.006466 0.000000
0.000000 0.000000 0.000000
0.005646 0.018731 0.000000
0.018731 0.019404 0.000000
0.000000 0.000000 0.000000
-0.023927 0.036831 0.000000
0.036831 -0.019681 0.000000
0.000000 0.000000 0.000000
0.006600 0.025315 0.000000
0.025315 0.028082 0.000000
0.000000 0.000000 0.000000
0.017947 -0.006867 0.000000
-0.006867 0.009248 0.000000
0.000000 0.000000 0.000000
0.006816 -0.009946 0.000000
-0.009946 -0.000636 0.000000
0.000000 0.000000 0.000000
-0.004425 -0.015261 0.000000
-0.015261 -0.009577 0.000000
0.000000 0.000000 0.000000
0.014395 0.011039 0.000000
0.011039 0.026494 0.000000
0.000000 0.000000 0.000000
-0.011490 0.020503 0.000000
0.020503 0.000699 0.000000
0.000000 0.000000 0.000000
0.000107 0.002928 0.000000
0.002928 0.009900 0.000000
0.000000 0.000000 0.000000
-0.027023 0.014408 0.000000
0.014408 -0.007652 0.000000
0.000000 0.000000 0.000000
-0.000203 0.003223 0.000000
0.003223 0.010884 0.000000
0.000000 0.000000 0.000000
0.010650 0.000604 0.000000
0.000604 0.000362 0.000000
0.000000 0.000000 0.000000
-0.003815 0.002051 0.000000
0.002051 0.002572 0.000000
0.000000 0.000000 0.000000
0.023313 0.002495 0.000000
0.002495 -0.011540 0.000000
0.000000 0.000000 0.000000
-0.004255 0.001325 0.000000
0.001325 0.012782 0.000000
0.000000 0.000000 0.000000
0.010361 -0.001074 0.000000
-0.001074 -0.006090 0.000000
0.000000 0.000000 0.000000
0.006654 -0.004543 0.000000
-0.004543 -0.011475 0.000000
0.000000 0.000000 0.000000
0.003923 0.003200 0.000000
0.003200 -0.002689 0.000000
0.000000 0.000000 0.000000
-0.014558 -0.001412 0.000000
-0.001412 -0.006453 0.000000
0.000000 0.000000 0.000000
0.009973 -0.006278 0.000000
-0.006278 -0.005715 0.000000
0.000000 0.000000 0.000000
0.001661 0.001702 0.000000
0.001702 0.014956 0.000000
0.000000 0.000000 0.000000
0.005124 -0.000292 0.000000
-0.000292 0.017739 0.000000
0.000000 0.000000 0.000000
0.006712 0.000239 0.000000
0.000239 0.032390 0.000000
0.000000 0.000000 0.000000
-0.001493 -0.016819 0.000000
-0.016819 0.008017 0.000000
0.000000 0.000000 0.000000
-0.010011 0.007196 0.000000
0.007196 0.024128 0.000000
0.000000 0.000000 0.000000
-0.011717 0.007887 0.000000
0.007887 0.018894 0.000000
0.000000 0.000000 0.000000
-0.004461 -0.015023 0.000000
-0.015023 0.000779 0.000000
0.000000 0.000000 0.000000
-0.004328 0.001059 0.000000
0.001059 0.001345 0.000000
0.000000 0.000000 0.000000
-0.015639 -0.002932 0.000000
-0.002932 -0.007234 0.000000
0.000000 0.000000 0.000000
-0.004075 0.002743 0.000000
0.002743 0.002656 0.000000
0.000000 0.000000 0.000000
0.001454 0.003992 0.000000
0.003992 -0.037852 0.000000
0.000000 0.000000 0.000000
0.020539 -0.013777 0.000000
-0.013777 0.032851 0.000000
0.000000 0.000000 0.000000
-0.001904 0.008653 0.000000
0.008653 -0.016394 0.000000
0.000000 0.000000 0.000000
-0.000695 -0.002838 0.000000
-0.002838 0.003285 0.000000
0.000000 0.000000 0.000000
0.034917 0.005676 0.000000
0.005676 0.007447 0.000000
0.000000 0.000000 0.000000
-0.013702 0.001221 0.000000
0.001221 0.007506 0.000000
0.000000 0.000000 0.000000
-0.003486 0.015420 0.000000
0.015420 0.008554 0.000000
0.000000 0.000000 0.000000
0.016266 -0.009393 0.000000
-0.009393 0.019682 0.000000
0.000000 0.000000 0.000000
0.005310 0.009466 0.000000
0.009466 0.010826 0.000000
0.000000 0.000000 0.000000
0.023760 0.005099 0.000000
0.005099 -0.005660 0.000000
0.000000 0.000000 0.000000
0.025454 0.019335 0.000000
0.019335 0.008083 0.000000
0.000000 0.000000 0.000000
-0.005352 0.002136 0.000000
0.002136 -0.020452 0.000000
0.000000 0.000000 0.000000
-0.013973 -0.003708 0.000000
-0.003708 0.005586 0.000000
0.000000 0.000000 0.000000
-0.000384 0.005279 0.000000
0.005279 -0.009134 0.000000
0.000000 0.000000 0.000000
0.009724 -0.006743 0.000000
-0.006743 -0.002956 0.000000
0.000000 0.000000 0.000000
-0.001367 0.008131 0.000000
0.008131 -0.009501 0.000000
0.000000 0.000000 0.000000
-0.000286 0.004777 0.000000
0.004777 -0.005837 0.000000
0.000000 0.000000 0.000000
-0.000325 0.008592 0.000000
0.008592 -0.003831 0.000000
0.000000 0.000000 0.000000
0.027497 -0.000695 0.000000
-0.000695 0.002587 0.000000
0.000000 0.000000 0.000000
0.011161 0.009206 0.000000
0.009206 -0.000474 0.000000
0.000000 0.000000 0.000000
0.016212 0.010561 0.000000
0.010561 0.016374 0.000000
0.000000 0.000000 0.000000
-0.001157 -0.008422 0.000000
-0.008422 -0.004185 0.000000
0.000000 0.000000 0.000000
-0.021998 0.004482 0.000000
0.004482 -0.008126 0.000000
0.000000 0.000000 0.000000
0.002858 -0.012151 0.000000
-0.012151 -0.019355 0.000000
0.000000 0.000000 0.000000
-0.004267 -0.005769 0.000000
-0.005769 -0.008582 0.000000
0.000000 0.000000 0.000000
0.053970 0.002667 0.000000
0.002667 0.016801 0.000000
0.000000 0.000000 0.000000
0.010379 -0.005037 0.000000
-0.005037 -0.013779 0.000000
0.000000 0.000000 0.000000
0.011575 0.001526 0.000000
0.001526 0.028746 0.000000
0.000000 0.000000 0.000000
0.005286 -0.007749 0.000000
-0.007749 -0.014617 0.000000
0.000000 0.000000 0.000000
0.010205 -0.000699 0.000000
-0.000699 -0.011860 0.000000
0.000000 0.000000 0.000000
0.017023 -0.008339 0.000000
-0.008339 -0.006113 0.000000
0.000000 0.000000 0.000000
0.009671 0.009193 0.000000
0.009193 -0.021055 0.000000
0.000000 0.000000 0.000000
0.006685 -0.003297 0.000000
-0.003297 0.012432 0.000000
0.000000 0.000000 0.000000
0.025202 0.025643 0.000000
0.025643 0.017965 0.000000
0.000000 0.000000 0.000000
0.033702 0.005393 0.000000
0.005393 -0.004676 0.000000
0.000000 0.000000 0.000000
-0.023324 -0.000744 0.000000
-0.000744 0.000630 0.000000
0.000000 0.000000 0.000000
0.018551 0.005638 0.000000
0.005638 0.005643 0.000000
0.000000 0.000000 0.000000
0.015378 0.002618 0.000000
0.002618 -0.002513 0.000000
0.000000 0.000000 0.000000
-0.008965 -0.023021 0.000000
-0.023021 -0.043504 0.000000
0.000000 0.000000 0.000000
0.009383 -0.008792 0.000000
-0.008792 0.007857 0.000000
0.000000 0.000000 0.000000
0.013614 0.001451 0.000000
0.001451 -0.029705 0.000000
0.000000 0.000000 0.000000
0.001078 -0.005731 0.000000
-0.005731 -0.028046 0.000000
0.000000 0.000000 0.000000
-0.012622 -0.010315 0.000000
-0.010315 0.003931 0.000000
0.000000 0.000000 0.000000
0.001743 -0.003501 0.000000
-0.003501 -0.003817 0.000000
0.000000 0.000000 0.000000
-0.005670 -0.000535 0.000000
-0.000535 -0.008466 0.000000
0.000000 0.000000 0.000000
-0.007761 -0.009340 0.000000
-0.009340 -0.019967 0.000000
0.000000 0.000000 0.000000
-0.006194 0.001752 0.000000
0.001752 -0.017337 0.000000
0.000000 0.000000 0.000000
0.005796 -0.007063 0.000000
-0.007063 -0.009667 0.000000
0.000000 0.000000 0.000000
0.002730 -0.010881 0.000000
-0.010881 -0.014878 0.000000
0.000000 0.000000 0.000000
-0.012710 0.014576 0.000000
0.014576 -0.002040 0.000000
0.000000 0.000000 0.000000
0.002274 0.012082 0.000000
0.012082 0.003052 0.000000
0.000000 0.000000 0.000000
-0.007506 0.003678 0.000000
0.003678 -0.006072 0.000000
0.000000 0.000000 0.000000
0.004260 0.001910 0.000000
0.001910 -0.006818 0.000000
0.000000 0.000000 0.000000
-0.029700 0.018607 0.000000
0.018607 -0.034047 0.000000
0.000000 0.000000 0.000000
0.003055 -0.014299 0.000000
-0.014299 0.027963 0.000000
0.000000 0.000000 0.000000
0.003319 0.011626 0.000000
0.011626 0.013696 0.000000
0.000000 0.000000 0.000000
-0.024210 0.007182 0.000000
0.007182 -0.004262 0.000000
0.000000 0.000000 0.000000
-0.017631 0.001152 0.000000
0.001152 0.022678 0.000000
0.000000 0.000000 0.000000
-0.000742 0.014681 0.000000
0.014681 -0.004973 0.000000
0.000000 0.000000 0.000000
-0.007431 -0.000885 0.000000
-0.000885 0.004932 0.000000
0.000000 0.000000 0.000000
0.007461 0.002417 0.000000
0.002417 0.008940 0.000000
0.000000 0.000000 0.000000
0.013102 -0.006121 0.000000
-0.006121 0.029198 0.000000
0.000000 0.000000 0.000000
0.009152 -0.006156 0.000000
-0.006156 -0.000662 0.000000
0.000000 0.000000 0.000000
0.000064 -0.014152 0.000000
-0.014152 -0.019239 0.000000
0.000000 0.000000 0.000000
0.000717 -0.008519 0.000000
-0.008519 -0.002456 0.000000
0.000000 0.000000 0.000000
0.001570 0.007959 0.000000
0.007959 0.010056 0.000000
0.000000 0.000000 0.000000
-0.006814 0.001634 0.000000
0.001634 0.024002 0.000000
0.000000 0.000000 0.000000
0.007479 -0.005248 0.000000
-0.005248 0.004017 0.000000
0.000000 0.000000 0.000000
0.006897 0.001748 0.000000
0.001748 0.001162 0.000000
0.000000 0.000000 0.000000
-0.007229 -0.001289 0.000000
-0.001289 -0.027911 0.000000
0.000000 0.000000 0.000000
-0.008187 0.001075 0.000000
0.001075 0.000159 0.000000
0.000000 0.000000 0.000000
-0.006913 -0.007081 0.000000
-0.007081 -0.028123 0.000000
0.000000 0.000000 0.000000
0.003165 0.013808 0.000000
0.013808 -0.013833 0.000000
0.000000 0.000000 0.000000
0.009959 -0.005205 0.000000
-0.005205 -0.000490 0.000000
0.000000 0.000000 0.000000
0.004801 -0.006817 0.000000
-0.006817 0.001300 0.000000
0.000000 0.000000 0.000000
0.015131 -0.012239 0.000000
-0.012239 -0.009657 0.000000
0.000000 0.000000 0.000000
0.000219 0.005287 0.000000
0.005287 -0.010600 0.000000
0.000000 0.000000 0.000000
0.017293 0.000710 0.000000
0.000710 -0.003007 0.000000
0.000000 0.000000 0.000000
0.009986 0.004174 0.000000
0.004174 -0.022371 0.000000
0.000000 0.000000 0.000000
0.015226 0.010024 0.000000
0.010024 0.016624 0.000000
0.000000 0.000000 0.000000
0.068515 -0.000553 0.000000
-0.000553 -0.018464 0.000000
0.000000 0.000000 0.000000
0.059053 0.007010 0.000000
0.007010 -0.041864 0.000000
0.000000 0.000000 0.000000
-0.001859 -0.003004 0.000000
-0.003004 -0.007726 0.000000
0.000000 0.000000 0.000000
-0.011696 -0.002835 0.000000
-0.002835 -0.003358 0.000000
0.000000 0.000000 0.000000
-0.010308 -0.003636 0.000000
-0.003636 -0.010342 0.000000
0.000000 0.000000 0.000000
0.002006 0.004348 0.000000
0.004348 -0.003399 0.000000
0.000000 0.000000 0.000000
-0.007063 -0.004948 0.000000
-0.004948 0.001853 0.000000
0.000000 0.000000 0.000000
0.005944 0.012397 0.000000
0.012397 -0.007834 0.000000
0.000000 0.000000 0.000000
0.011688 0.015782 0.000000
0.015782 0.009043 0.000000
0.000000 0.000000 0.000000
0.008942 0.005683 0.000000
0.005683 0.017610 0.000000
0.000000 0.000000 0.000000
-0.001737 -0.004676 0.000000
-0.004676 -0.008525 0.000000
0.000000 0.000000 0.000000
-0.018975 -0.004055 0.000000
-0.004055 -0.005738 0.000000
0.000000 0.000000 0.000000
0.000202 -0.006973 0.000000
-0.006973 0.007586 0.000000
0.000000 0.000000 0.000000
0.006616 0.010568 0.000000
0.010568 0.004444 0.000000
0.000000 0.000000 0.000000
0.010351 -0.022283 0.000000
-0.022283 0.000514 0.000000
0.000000 0.000000 0.000000
0.000183 -0.015461 0.000000
-0.015461 -0.004029 0.000000
0.000000 0.000000 0.000000
0.029144 -0.005569 0.000000
-0.005569 -0.016220 0.000000
0.000000 0.000000 0.000000
-0.008980 0.005708 0.000000
0.005708 0.023878 0.000000
0.000000 0.000000 0.000000
-0.010456 -0.022845 0.000000
-0.022845 0.001009 0.000000
0.000000 0.000000 0.000000
-0.002371 0.004851 0.000000
0.004851 -0.002505 0.000000
0.000000 0.000000 0.000000
0.001355 0.004277 0.000000
0.004277 0.016668 0.000000
0.000000 0.000000 0.000000
-0.017691 -0.006509 0.000000
-0.006509 -0.002788 0.000000
0.000000 0.000000 0.000000
0.002370 -0.005433 0.000000
-0.005433 -0.023348 0.000000
0.000000 0.000000 0.000000
-0.002043 -0.007036 0.000000
-0.007036 0.001352 0.000000
0.000000 0.000000 0.000000
-0.007667 0.007527 0.000000
0.007527 -0.012219 0.000000
0.000000 0.000000 0.000000
0.002278 -0.000226 0.000000
-0.000226 -0.003740 0.000000
0.000000 0.000000 0.000000
0.006570 0.000267 0.000000
0.000267 0.003390 0.000000
0.000000 0.000000 0.000000
0.010640 -0.004953 0.000000
-0.004953 0.005996 0.000000
0.000000 0.000000 0.000000
0.023546 -0.014491 0.000000
-0.014491 -0.002693 0.000000
0.000000 0.000000 0.000000
0.011156 0.001256 0.000000
0.001256 -0.000307 0.000000
0.000000 0.000000 0.000000
-0.002888 -0.024456 0.000000
-0.024456 -0.007934 0.000000
0.000000 0.000000 0.000000
0.013101 -0.003188 0.000000
-0.003188 -0.000662 0.000000
0.000000 0.000000 0.000000
0.009430 -0.004823 0.000000
-0.004823 0.006413 0.000000
0.000000 0.000000 0.000000
-0.001883 -0.000512 0.000000
-0.000512 -0.002836 0.000000
0.000000 0.000000 0.000000
-0.014524 -0.001609 0.000000
-0.001609 0.010412 0.000000
0.000000 0.000000 0.000000
-0.032073 -0.015453 0.000000
-0.015453 -0.006607 0.000000
0.000000 0.000000 0.000000
-0.000895 0.005956 0.000000
0.005956 -0.005628 0.000000
0.000000 0.000000 0.000000
-0.029617 -0.008788 0.000000
-0.008788 -0.007445 0.000000
0.000000 0.000000 0.000000
-0.031088 -0.010388 0.000000
-0.010388 -0.003335 0.000000
0.000000 0.000000 0.000000
-0.004229 0.001702 0.000000
0.001702 -0.012887 0.000000
0.000000 0.000000 0.000000
-0.006380 0.003439 0.000000
0.003439 -0.002134 0.000000
0.000000 0.000000 0.000000
-0.002360 0.003016 0.000000
0.003016 -0.008398 0.000000
0.000000 0.000000 0.000000
0.000323 0.002462 0.000000
0.002462 -0.007312 0.000000
0.000000 0.000000 0.000000
0.000848 -0.001664 0.000000
-0.001664 0.001848 0.000000
0.000000 0.000000 0.000000
0.001277 0.001607 0.000000
0.001607 0.006637 0.000000
0.000000 0.000000 0.000000
-0.009424 -0.000242 0.000000
-0.000242 -0.033224 0.000000
0.000000 0.000000 0.000000
-0.003297 0.001610 0.000000
0.001610 -0.006122 0.000000
0.000000 0.000000 0.000000
-0.016161 -0.006656 0.000000
-0.006656 0.015112 0.000000
0.000000 0.000000 0.000000
-0.000882 0.001266 0.000000
0.001266 -0.009253 0.000000
0.000000 0.000000 0.000000
-0.005610 -0.021733 0.000000
-0.021733 0.022584 0.000000
0.000000 0.000000 0.000000
-0.028768 0.011210 0.000000
0.011210 -0.010273 0.000000
0.000000 0.000000 0.000000
0.011027 -0.002744 0.000000
-0.002744 -0.009480 0.000000
0.000000 0.000000 0.000000
0.018648 -0.005917 0.000000
-0.005917 -0.008316 0.000000
0.000000 0.000000 0.000000
0.009793 -0.002694 0.000000
-0.002694 0.013832 0.000000
0.000000 0.000000 0.000000
-0.004090 0.005034 0.000000
0.005034 0.000495 0.000000
0.000000 0.000000 0.000000
0.011342 -0.000495 0.000000
-0.000495 0.005113 0.000000
0.000000 0.000000 0.000000
0.007005 -0.004371 0.000000
-0.004371 0.002348 0.000000
0.000000 0.000000 0.000000
0.005638 -0.002406 0.000000
-0.002406 0.004128 0.000000
0.000000 0.000000 0.000000
0.000609 -0.007081 0.000000
-0.007081 -0.000541 0.000000
0.000000 0.000000 0.000000
0.005166 -0.002640 0.000000
-0.002640 0.003281 0.000000
0.000000 0.000000 0.000000
-0.000172 0.000748 0.000000
0.000748 0.006388 0.000000
0.000000 0.000000 0.000000
-0.003357 -0.002033 0.000000
-0.002033 0.007089 0.000000
0.000000 0.000000 0.000000
-0.013907 -0.005646 0.000000
-0.005646 -0.006317 0.000000
0.000000 0.000000 0.000000
-0.010426 -0.008617 0.000000
-0.008617 0.002531 0.000000
0.000000 0.000000 0.000000
-0.008329 0.007677 0.000000
0.007677 -0.017074 0.000000
0.000000 0.000000 0.000000
0.023086 0.001855 0.000000
0.001855 0.002504 0.000000
0.000000 0.000000 0.000000
0.002705 0.004567 0.000000
0.004567 0.008285 0.000000
0.000000 0.000000 0.000000
0.003107 0.012118 0.000000
0.012118 0.008914 0.000000
0.000000 0.000000 0.000000
-0.033874 -0.007511 0.000000
-0.007511 -0.036331 0.000000
0.000000 0.000000 0.000000
0.005265 0.012387 0.000000
0.012387 0.004195 0.000000
0.000000 0.000000 0.000000
-0.018543 0.006094 0.000000
0.006094 0.002367 0.000000
0.000000 0.000000 0.000000
-0.006240 0.000303 0.000000
0.000303 -0.016203 0.000000
0.000000 0.000000 0.000000
0.007078 0.002741 0.000000
0.002741 0.000755 0.000000
0.000000 0.000000 0.000000
0.006798 -0.007958 0.000000
-0.007958 0.008205 0.000000
0.000000 0.000000 0.000000
0.020891 0.011895 0.000000
0.011895 0.039887 0.000000
0.000000 0.000000 0.000000
-0.009889 -0.008327 0.000000
-0.008327 -0.014430 0.000000
0.000000 0.000000 0.000000
-0.001048 -0.008412 0.000000
-0.008412 0.005812 0.000000
0.000000 0.000000 0.000000
0.021195 -0.000109 0.000000
-0.000109 0.017081 0.000000
0.000000 0.000000 0.000000
-0.002373 -0.004176 0.000000
-0.004176 0.007619 0.000000
0.000000 0.000000 0.000000
0.011922 -0.003230 0.000000
-0.003230 0.007874 0.000000
0.000000 0.000000 0.000000
0.012818 -0.003842 0.000000
-0.003842 0.011089 0.000000
0.000000 0.000000 0.000000
-0.004466 0.004838 0.000000
0.004838 0.002592 0.000000
0.000000 0.000000 0.000000
-0.010676 -0.000375 0.000000
-0.000375 -0.017447 0.000000
0.000000 0.000000 0.000000
-0.006322 0.005334 0.000000
0.005334 0.002332 0.000000
0.000000 0.000000 0.000000
-0.005904 -0.007806 0.000000
-0.007806 -0.025557 0.000000
0.000000 0.000000 0.000000
-0.002032 0.010838 0.000000
0.010838 0.002990 0.000000
0.000000 0.000000 0.000000
0.015729 -0.001298 0.000000
-0.001298 0.021759 0.000000
0.000000 0.000000 0.000000
0.006935 0.004007 0.000000
0.004007 0.018641 0.000000
0.000000 0.000000 0.000000
0.005579 -0.008733 0.000000
-0.008733 0.006594 0.000000
0.000000 0.000000 0.000000
-0.017719 0.003983 0.000000
0.003983 -0.012974 0.000000
0.000000 0.000000 0.000000
0.002327 -0.006344 0.000000
-0.006344 0.003014 0.000000
0.000000 0.000000 0.000000
-0.009863 0.002400 0.000000
0.002400 -0.004314 0.000000
0.000000 0.000000 0.000000
-0.022162 -0.001632 0.000000
-0.001632 0.006172 0.000000
0.000000 0.000000 0.000000
0.024409 -0.004456 0.000000
-0.004456 -0.006796 0.000000
0.000000 0.000000 0.000000
0.002326 -0.022105 0.000000
-0.022105 -0.013556 0.000000
0.000000 0.000000 0.000000
-0.026060 -0.008469 0.000000
-0.008469 -0.023492 0.000000
0.000000 0.000000 0.000000
-0.018391 0.016136 0.000000
0.016136 -0.020939 0.000000
0.000000 0.000000 0.000000
0.007806 0.008565 0.000000
0.008565 0.003701 0.000000
0.000000 0.000000 0.000000
0.006555 -0.002535 0.000000
-0.002535 0.016805 0.000000
0.000000 0.000000 0.000000
0.007314 0.009265 0.000000
0.009265 0.022016 0.000000
0.000000 0.000000 0.000000
0.000871 0.022438 0.000000
0.022438 -0.003606 0.000000
0.000000 0.000000 0.000000
-0.001069 0.001384 0.000000
0.001384 -0.000437 0.000000
0.000000 0.000000 0.000000
-0.009265 0.002149 0.000000
0.002149 -0.000802 0.000000
0.000000 0.000000 0.000000
0.002251 0.010126 0.000000
0.010126 -0.012837 0.000000
0.000000 0.000000 0.000000
-0.007976 0.009039 0.000000
0.009039 0.014297 0.000000
0.000000 0.000000 0.000000
-0.000935 0.009237 0.000000
0.009237 -0.026731 0.000000
0.000000 0.000000 0.000000
0.024718 -0.005882 0.000000
-0.005882 0.005963 0.000000
0.000000 0.000000 0.000000
0.004424 0.005174 0.000000
0.005174 0.012258 0.000000
0.000000 0.000000 0.000000
0.012675 0.011631 0.000000
0.011631 0.012198 0.000000
0.000000 0.000000 0.000000
-0.012330 0.006189 0.000000
0.006189 -0.027710 0.000000
0.000000 0.000000 0.000000
-0.008714 -0.000612 0.000000
-0.000612 -0.022277 0.000000
0.000000 0.000000 0.000000
-0.007253 0.009000 0.000000
0.009000 -0.022401 0.000000
0.000000 0.000000 0.000000
0.023433 -0.002873 0.000000
-0.002873 0.016959 0.000000
0.000000 0.000000 0.000000
0.004459 -0.007348 0.000000
-0.007348 0.015083 0.000000
0.000000 0.000000 0.000000
-0.012747 -0.003431 0.000000
-0.003431 -0.003007 0.000000
0.000000 0.000000 0.000000
0.002782 0.005232 0.000000
0.005232 -0.011071 0.000000
0.000000 0.000000 0.000000
-0.001061 0.002230 0.000000
0.002230 -0.016413 0.000000
0.000000 0.000000 0.000000
-0.012098 -0.004494 0.000000
-0.004494 -0.034448 0.000000
0.000000 0.000000 0.000000
-0.005670 0.005358 0.000000
0.005358 -0.033713 0.000000
0.000000 0.000000 0.000000
-0.004683 -0.000810 0.000000
-0.000810 -0.032953 0.000000
0.000000 0.000000 0.000000
0.010478 0.002312 0.000000
0.002312 0.002074 0.000000
0.000000 0.000000 0.000000
-0.004843 0.001961 0.000000
0.001961 -0.033230 0.000000
0.000000 0.000000 0.000000
-0.018674 0.006372 0.000000
0.006372 -0.007532 0.000000
0.000000 0.000000 0.000000
-0.029896 0.001433 0.000000
0.001433 -0.005051 0.000000
0.000000 0.000000 0.000000
-0.006344 -0.001671 0.000000
-0.001671 -0.012519 0.000000
0.000000 0.000000 0.000000
-0.000401 -0.001463 0.000000
-0.001463 -0.014195 0.000000
0.000000 0.000000 0.000000
-0.010322 -0.012639 0.000000
-0.012639 -0.013633 0.000000
0.000000 0.000000 0.000000
-0.002067 -0.007135 0.000000
-0.007135 -0.011623 0.000000
0.000000 0.000000 0.000000
0.005907 -0.003927 0.000000
-0.003927 0.000042 0.000000
0.000000 0.000000 0.000000
0.008334 0.005092 0.000000
0.005092 0.001724 0.000000
0.000000 0.000000 0.000000
-0.009555 0.005785 0.000000
0.005785 -0.002923 0.000000
0.000000 0.000000 0.000000
-0.022638 0.006421 0.000000
0.006421 -0.012014 0.000000
0.000000 0.000000 0.000000
0.006257 0.016293 0.000000
0.016293 0.003019 0.000000
0.000000 0.000000 0.000000
-0.000182 0.022221 0.000000
0.022221 -0.011776 0.000000
0.000000 0.000000 0.000000
-0.028252 -0.002277 0.000000
-0.002277 -0.000911 0.000000
0.000000 0.000000 0.000000
-0.009902 0.006079 0.000000
0.006079 0.010646 0.000000
0.000000 0.000000 0.000000
-0.009286 0.006215 0.000000
0.006215 0.002847 0.000000
0.000000 0.000000 0.000000
0.001543 -0.013289 0.000000
-0.013289 -0.001652 0.000000
0.000000 0.000000 0.000000
0.007835 0.009061 0.000000
0.009061 -0.033773 0.000000
0.000000 0.000000 0.000000
-0.000360 0.003487 0.000000
0.003487 -0.002695 0.000000
0.000000 0.000000 0.000000
0.004651 -0.003017 0.000000
-0.003017 0.004487 0.000000
0.000000 0.000000 0.000000
0.006968 -0.001090 0.000000
-0.001090 0.007804 0.000000
0.000000 0.000000 0.000000
0.013555 -0.004678 0.000000
-0.004678 0.008802 0.000000
0.000000 0.000000 0.000000
-0.001219 -0.001532 0.000000
-0.001532 -0.010011 0.000000
0.000000 0.000000 0.000000
0.017237 -0.002806 0.000000
-0.002806 0.024877 0.000000
0.000000 0.000000 0.000000
-0.009684 0.023095 0.000000
0.023095 0.011927 0.000000
0.000000 0.000000 0.000000
0.032441 -0.005617 0.000000
-0.005617 -0.010113 0.000000
0.000000 0.000000 0.000000
-0.021336 0.002885 0.000000
0.002885 0.000447 0.000000
0.000000 0.000000 0.000000
0.040425 0.000571 0.000000
0.000571 0.015314 0.000000
0.000000 0.000000 0.000000
0.000160 -0.010096 0.000000
-0.010096 -0.015443 0.000000
0.000000 0.000000 0.000000
0.012775 -0.011316 0.000000
-0.011316 -0.012465 0.000000
0.000000 0.000000 0.000000
0.012327 -0.012269 0.000000
-0.012269 -0.013146 0.000000
0.000000 0.000000 0.000000
-0.003265 0.003163 0.000000
0.003163 -0.005807 0.000000
0.000000 0.000000 0.000000
0.001152 0.005832 0.000000
0.005832 -0.002794 0.000000
0.000000 0.000000 0.000000
-0.010978 0.013028 0.000000
0.013028 -0.027436 0.000000
0.000000 0.000000 0.000000
0.009989 0.005651 0.000000
0.005651 0.029843 0.000000
0.000000 0.000000 0.000000
0.041158 -0.003013 0.000000
-0.003013 0.000419 0.000000
0.000000 0.000000 0.000000
0.006988 -0.000420 0.000000
-0.000420 0.003200 0.000000
0.000000 0.000000 0.000000
0.004390 0.003999 0.000000
0.003999 -0.003840 0.000000
0.000000 0.000000 0.000000
-0.001483 -0.001165 0.000000
-0.001165 -0.009526 0.000000
0.000000 0.000000 0.000000
0.002229 -0.002947 0.000000
-0.002947 0.000397 0.000000
0.000000 0.000000 0.000000
0.016141 -0.012754 0.000000
-0.012754 0.017011 0.000000
0.000000 0.000000 0.000000
0.022239 -0.002424 0.000000
-0.002424 0.006343 0.000000
0.000000 0.000000 0.000000
0.038196 -0.000551 0.000000
-0.000551 0.019997 0.000000
0.000000 0.000000 0.000000
0.006022 -0.006502 0.000000
-0.006502 0.006882 0.000000
0.000000 0.000000 0.000000
0.020549 0.010975 0.000000
0.010975 0.007065 0.000000
0.000000 0.000000 0.000000
-0.006026 -0.000467 0.000000
-0.000467 -0.003266 0.000000
0.000000 0.000000 0.000000
0.005925 0.003155 0.000000
0.003155 0.009362 0.000000
0.000000 0.000000 0.000000
0.004879 -0.006238 0.000000
-0.006238 -0.006657 0.000000
0.000000 0.000000 0.000000
0.004518 -0.001323 0.000000
-0.001323 0.014726 0.000000
0.000000 0.000000 0.000000
-0.009059 -0.002067 0.000000
-0.002067 0.008036 0.000000
0.000000 0.000000 0.000000
0.010473 -0.014083 0.000000
-0.014083 -0.049203 0.000000
0.000000 0.000000 0.000000
-0.005583 0.009685 0.000000
0.009685 -0.006709 0.000000
0.000000 0.000000 0.000000
0.029782 -0.010651 0.000000
-0.010651 0.004189 0.000000
0.000000 0.000000 0.000000
-0.004847 -0.002778 0.000000
-0.002778 -0.016751 0.000000
0.000000 0.000000 0.000000
-0.004478 -0.002886 0.000000
-0.002886 -0.013170 0.000000
0.000000 0.000000 0.000000
-0.014179 -0.003821 0.000000
-0.003821 -0.024737 0.000000
0.000000 0.000000 0.000000
-0.008837 0.000249 0.000000
0.000249 -0.027088 0.000000
0.000000 0.000000 0.000000
0.014601 -0.014195 0.000000
-0.014195 -0.049123 0.000000
0.000000 0.000000 0.000000
0.000355 -0.005045 0.000000
-0.005045 0.005487 0.000000
0.000000 0.000000 0.000000
-0.023958 -0.010995 0.000000
-0.010995 0.022583 0.000000
0.000000 0.000000 0.000000
-0.000154 -0.005632 0.000000
-0.005632 0.032033 0.000000
0.000000 0.000000 0.000000
0.017866 -0.009405 0.000000
-0.009405 0.017344 0.000000
0.000000 0.000000 0.000000
-0.028762 -0.014467 0.000000
-0.014467 0.001558 0.000000
0.000000 0.000000 0.000000
0.008111 0.006208 0.000000
0.006208 0.019257 0.000000
0.000000 0.000000 0.000000
-0.015764 -0.026238 0.000000
-0.026238 -0.008839 0.000000
0.000000 0.000000 0.000000
-0.002529 -0.002245 0.000000
-0.002245 -0.006952 0.000000
0.000000 0.000000 0.000000
0.027568 0.001321 0.000000
0.001321 -0.017706 0.000000
0.000000 0.000000 0.000000
0.006040 -0.001166 0.000000
-0.001166 0.008794 0.000000
0.000000 0.000000 0.000000
0.034086 -0.003270 0.000000
-0.003270 0.003198 0.000000
0.000000 0.000000 0.000000
-0.019933 -0.002189 0.000000
-0.002189 0.007612 0.000000
0.000000 0.000000 0.000000
0.000110 0.000717 0.000000
0.000717 0.002374 0.000000
0.000000 0.000000 0.000000
0.002638 0.001285 0.000000
0.001285 -0.001535 0.000000
0.000000 0.000000 0.000000
0.002543 0.001057 0.000000
0.001057 -0.000982 0.000000
0.000000 0.000000 0.000000
-0.015045 -0.005231 0.000000
-0.005231 -0.020541 0.000000
0.000000 0.000000 0.000000
0.005966 0.000483 0.000000
0.000483 0.000077 0.000000
0.000000 0.000000 0.000000
-0.000342 0.005379 0.000000
0.005379 0.002451 0.000000
0.000000 0.000000 0.000000
0.004180 -0.002676 0.000000
-0.002676 -0.029083 0.000000
0.000000 0.000000 0.000000
-0.047968 0.024046 0.000000
0.024046 -0.007459 0.000000
0.000000 0.000000 0.000000
0.003176 0.004762 0.000000
0.004762 0.004196 0.000000
0.000000 0.000000 0.000000
-0.000137 -0.002926 0.000000
-0.002926 0.001179 0.000000
0.000000 0.000000 0.000000
-0.011571 -0.001901 0.000000
-0.001901 -0.001553 0.000000
0.000000 0.000000 0.000000
-0.018894 0.000650 0.000000
0.000650 -0.003735 0.000000
0.000000 0.000000 0.000000
-0.005457 -0.008986 0.000000
-0.008986 -0.017309 0.000000
0.000000 0.000000 0.000000
-0.003796 0.000493 0.000000
0.000493 -0.003675 0.000000
0.000000 0.000000 0.000000
0.004704 -0.003102 0.000000
-0.003102 -0.007359 0.000000
0.000000 0.000000 0.000000
-0.021741 -0.003159 0.000000
-0.003159 -0.008381 0.000000
0.000000 0.000000 0.000000
-0.010786 -0.013754 0.000000
-0.013754 -0.015151 0.000000
0.000000 0.000000 0.000000
-0.014600 -0.005667 0.000000
-0.005667 -0.014649 0.000000
0.000000 0.000000 0.000000
0.005614 -0.006249 0.000000
-0.006249 -0.029353 0.000000
0.000000 0.000000 0.000000
0.019172 -0.004531 0.000000
-0.004531 -0.006316 0.000000
0.000000 0.000000 0.000000
0.031484 -0.021055 0.000000
-0.021055 0.000140 0.000000
0.000000 0.000000 0.000000
0.002520 -0.010561 0.000000
-0.010561 -0.010048 0.000000
0.000000 0.000000 0.000000
0.014115 -0.004701 0.000000
-0.004701 0.000119 0.000000
0.000000 0.000000 0.000000
0.000275 -0.000579 0.000000
-0.000579 -0.022831 0.000000
0.000000 0.000000 0.000000
-0.008937 -0.003281 0.000000
-0.003281 -0.003976 0.000000
0.000000 0.000000 0.000000
-0.009181 -0.003041 0.000000
-0.003041 -0.013570 0.000000
0.000000 0.000000 0.000000
-0.005752 0.004110 0.000000
0.004110 -0.021714 0.000000
0.000000 0.000000 0.000000
-0.006027 0.002247 0.000000
0.002247 0.006429 0.000000
0.000000 0.000000 0.000000
0.012616 0.004411 0.000000
0.004411 0.002811 0.000000
0.000000 0.000000 0.000000
-0.003126 0.001381 0.000000
0.001381 0.004242 0.000000
0.000000 0.000000 0.000000
0.006457 -0.001422 0.000000
-0.001422 0.016696 0.000000
0.000000 0.000000 0.000000
-0.029454 -0.018084 0.000000
-0.018084 -0.017250 0.000000
0.000000 0.000000 0.000000
-0.006909 0.001573 0.000000
0.001573 0.015457 0.000000
0.000000 0.000000 0.000000
0.000995 -0.001216 0.000000
-0.001216 0.012055 0.000000
0.000000 0.000000 0.000000
0.000038 -0.000175 0.000000
-0.000175 0.014536 0.000000
0.000000 0.000000 0.000000
0.007229 0.008178 0.000000
0.008178 0.005367 0.000000
0.000000 0.000000 0.000000
-0.001769 -0.001279 0.000000
-0.001279 -0.003562 0.000000
0.000000 0.000000 0.000000
-0.007326 -0.005250 0.000000
-0.005250 -0.015631 0.000000
0.000000 0.000000 0.000000
0.007197 -0.005529 0.000000
-0.005529 0.004629 0.000000
0.000000 0.000000 0.000000
0.018454 -0.014195 0.000000
-0.014195 0.013497 0.000000
0.000000 0.000000 0.000000
0.006687 -0.015836 0.000000
-0.015836 -0.009057 0.000000
0.000000 0.000000 0.000000
-0.010016 -0.005373 0.000000
-0.005373 0.002364 0.000000
0.000000 0.000000 0.000000
-0.011487 -0.002194 0.000000
-0.002194 0.001960 0.000000
0.000000 0.000000 0.000000
-0.005289 0.002120 0.000000
0.002120 0.002318 0.000000
0.000000 0.000000 0.000000
0.009312 -0.000744 0.000000
-0.000744 0.008289 0.000000
0.000000 0.000000 0.000000
0.000523 0.015541 0.000000
0.015541 -0.021570 0.000000
0.000000 0.000000 0.000000
0.020694 -0.002710 0.000000
-0.002710 0.009571 0.000000
0.000000 0.000000 0.000000
-0.019938 0.001528 0.000000
0.001528 -0.001236 0.000000
0.000000 0.000000 0.000000
-0.012688 0.000889 0.000000
0.000889 -0.002378 0.000000
0.000000 0.000000 0.000000
-0.011830 0.010533 0.000000
0.010533 -0.009903 0.000000
0.000000 0.000000 0.000000
0.001859 0.004685 0.000000
0.004685 0.004312 0.000000
0.000000 0.000000 0.000000
0.000880 -0.002190 0.000000
-0.002190 0.008040 0.000000
0.000000 0.000000 0.000000
-0.006694 -0.001334 0.000000
-0.001334 -0.012859 0.000000
0.000000 0.000000 0.000000
0.005874 0.000787 0.000000
0.000787 0.001100 0.000000
0.000000 0.000000 0.000000
0.011726 0.003365 0.000000
0.003365 0.022655 0.000000
0.000000 0.000000 0.000000
-0.005247 -0.002544 0.000000
-0.002544 -0.008911 0.000000
0.000000 0.000000 0.000000
0.014299 0.002221 0.000000
0.002221 0.030590 0.000000
0.000000 0.000000 0.000000
0.013472 0.005150 0.000000
0.005150 0.032462 0.000000
0.000000 0.000000 0.000000
0.008093 -0.003168 0.000000
-0.003168 0.021150 0.000000
0.000000 0.000000 0.000000
0.002208 -0.002194 0.000000
-0.002194 0.013679 0.000000
0.000000 0.000000 0.000000
0.003229 -0.000491 0.000000
-0.000491 0.019881 0.000000
0.000000 0.000000 0.000000
-0.013383 0.008030 0.000000
0.008030 0.027264 0.000000
0.000000 0.000000 0.000000
-0.015274 -0.003804 0.000000
-0.003804 0.011054 0.000000
0.000000 0.000000 0.000000
-0.003792 0.006374 0.000000
0.006374 0.029494 0.000000
0.000000 0.000000 0.000000
-0.039259 -0.037311 0.000000
-0.037311 -0.017430 0.000000
0.000000 0.000000 0.000000
-0.013743 0.003800 0.000000
0.003800 -0.009486 0.000000
0.000000 0.000000 0.000000
-0.027984 0.007201 0.000000
0.007201 0.042578 0.000000
0.000000 0.000000 0.000000
-0.004916 0.006875 0.000000
0.006875 0.031746 0.000000
0.000000 0.000000 0.000000
-0.021349 0.011807 0.000000
0.011807 0.024403 0.000000
0.000000 0.000000 0.000000
-0.021675 0.003033 0.000000
0.003033 0.001995 0.000000
0.000000 0.000000 0.000000
0.036075 -0.014322 0.000000
-0.014322 0.024209 0.000000
0.000000 0.000000 0.000000
0.011624 -0.011029 0.000000
-0.011029 -0.001717 0.000000
0.000000 0.000000 0.000000
0.021469 -0.001967 0.000000
-0.001967 0.008705 0.000000
0.000000 0.000000 0.000000
-0.000943 0.010874 0.000000
0.010874 0.006701 0.000000
0.000000 0.000000 0.000000
0.006658 0.000301 0.000000
0.000301 0.001887 0.000000
0.000000 0.000000 0.000000
0.003833 0.000373 0.000000
0.000373 -0.008418 0.000000
0.000000 0.000000 0.000000
0.001666 0.000612 0.000000
0.000612 0.005049 0.000000
0.000000 0.000000 0.000000
0.039569 -0.010703 0.000000
-0.010703 0.049096 0.000000
0.000000 0.000000 0.000000
0.034109 -0.003763 0.000000
-0.003763 0.004882 0.000000
0.000000 0.000000 0.000000
0.003820 -0.004346 0.000000
-0.004346 0.023221 0.000000
0.000000 0.000000 0.000000
0.010168 0.001145 0.000000
0.001145 0.023311 0.000000
0.000000 0.000000 0.000000
-0.002303 -0.005847 0.000000
-0.005847 0.009740 0.000000
0.000000 0.000000 0.000000
-0.001501 0.008466 0.000000
0.008466 -0.024326 0.000000
0.000000 0.000000 0.000000
-0.001018 -0.004340 0.000000
-0.004340 0.011951 0.000000
0.000000 0.000000 0.000000
-0.005869 0.003338 0.000000
0.003338 -0.019743 0.000000
0.000000 0.000000 0.000000
-0.010474 -0.001414 0.000000
-0.001414 0.005370 0.000000
0.000000 0.000000 0.000000
0.008664 0.000213 0.000000
0.000213 0.032926 0.000000
0.000000 0.000000 0.000000
0.000335 0.001321 0.000000
0.001321 0.003572 0.000000
0.000000 0.000000 0.000000
0.006777 0.001426 0.000000
0.001426 0.028188 0.000000
0.000000 0.000000 0.000000
-0.007054 -0.002860 0.000000
-0.002860 -0.002183 0.000000
0.000000 0.000000 0.000000
0.002034 0.000758 0.000000
0.000758 0.011156 0.000000
0.000000 0.000000 0.000000
-0.001317 -0.006002 0.000000
-0.006002 0.002900 0.000000
0.000000 0.000000 0.000000
-0.015324 0.009337 0.000000
0.009337 0.008701 0.000000
0.000000 0.000000 0.000000
-0.005244 -0.004871 0.000000
-0.004871 0.004792 0.000000
0.000000 0.000000 0.000000
-0.011155 0.017847 0.000000
0.017847 -0.004049 0.000000
0.000000 0.000000 0.000000
-0.024776 0.007215 0.000000
0.007215 -0.010911 0.000000
0.000000 0.000000 0.000000
-0.026585 -0.001504 0.000000
-0.001504 0.011055 0.000000
0.000000 0.000000 0.000000
0.001353 -0.003108 0.000000
-0.003108 -0.003826 0.000000
0.000000 0.000000 0.000000
-0.013979 0.002588 0.000000
0.002588 -0.002996 0.000000
0.000000 0.000000 0.000000
0.019946 -0.006063 0.000000
-0.006063 0.004871 0.000000
0.000000 0.000000 0.000000
-0.003358 0.013867 0.000000
0.013867 0.010253 0.000000
0.000000 0.000000 0.000000
-0.011945 0.000399 0.000000
0.000399 -0.023571 0.000000
0.000000 0.000000 0.000000
0.001099 0.007172 0.000000
0.007172 -0.006917 0.000000
0.000000 0.000000 0.000000
0.011808 0.003043 0.000000
0.003043 -0.000722 0.000000
0.000000 0.000000 0.000000
0.009770 0.009915 0.000000
0.009915 0.001920 0.000000
0.000000 0.000000 0.000000
0.000017 -0.009656 0.000000
-0.009656 -0.012945 0.000000
0.000000 0.000000 0.000000
-0.012739 0.003844 0.000000
0.003844 -0.004977 0.000000
0.000000 0.000000 0.000000
-0.018505 -0.001451 0.000000
-0.001451 -0.016412 0.000000
0.000000 0.000000 0.000000
-0.019942 -0.012275 0.000000
-0.012275 -0.009553 0.000000
0.000000 0.000000 0.000000
-0.008854 -0.009050 0.000000
-0.009050 0.026359 0.000000
0.000000 0.000000 0.000000
-0.002624 0.000400 0.000000
0.000400 0.000387 0.000000
0.000000 0.000000 0.000000
-0.020502 0.002317 0.000000
0.002317 -0.008992 0.000000
0.000000 0.000000 0.000000
-0.007922 -0.006310 0.000000
-0.006310 -0.016668 0.000000
0.000000 0.000000 0.000000
-0.006558 0.015428 0.000000
0.015428 -0.003892 0.000000
0.000000 0.000000 0.000000
0.002480 -0.007989 0.000000
-0.007989 0.020256 0.000000
0.000000 0.000000 0.000000
-0.036219 0.001440 0.000000
0.001440 -0.005232 0.000000
0.000000 0.000000 0.000000
-0.006420 0.004503 0.000000
0.004503 -0.004197 0.000000
0.000000 0.000000 0.000000
-0.005146 0.019273 0.000000
0.019273 -0.005254 0.000000
0.000000 0.000000 0.000000
0.013440 -0.022463 0.000000
-0.022463 -0.024411 0.000000
0.000000 0.000000 0.000000
-0.023625 -0.005830 0.000000
-0.005830 -0.030257 0.000000
0.000000 0.000000 0.000000
-0.012861 0.000597 0.000000
0.000597 -0.006823 0.000000
0.000000 0.000000 0.000000
0.004628 0.003484 0.000000
0.003484 0.004038 0.000000
0.000000 0.000000 0.000000
-0.016684 0.009245 0.000000
0.009245 -0.003310 0.000000
0.000000 0.000000 0.000000
-0.013530 0.005308 0.000000
0.005308 -0.003152 0.000000
0.000000 0.000000 0.000000
-0.006135 -0.000907 0.000000
-0.000907 -0.005476 0.000000
0.000000 0.000000 0.000000
-0.002172 -0.003698 0.000000
-0.003698 -0.010828 0.000000
0.000000 0.000000 0.000000
-0.007684 -0.000399 0.000000
-0.000399 -0.005683 0.000000
0.000000 0.000000 0.000000
0.004037 0.001786 0.000000
0.001786 -0.015095 0.000000
0.000000 0.000000 0.000000
-0.003184 0.000315 0.000000
0.000315 -0.003394 0.000000
0.000000 0.000000 0.000000
0.003613 0.001555 0.000000
0.001555 0.014824 0.000000
0.000000 0.000000 0.000000
0.004472 0.004249 0.000000
0.004249 -0.006666 0.000000
0.000000 0.000000 0.000000
-0.027548 -0.006766 0.000000
-0.006766 -0.025570 0.000000
0.000000 0.000000 0.000000
-0.035783 0.007151 0.000000
0.007151 -0.009845 0.000000
0.000000 0.000000 0.000000
0.010472 0.000659 0.000000
0.000659 -0.005494 0.000000
0.000000 0.000000 0.000000
-0.023690 0.011432 0.000000
0.011432 0.015392 0.000000
0.000000 0.000000 0.000000
-0.013859 0.005457 0.000000
0.005457 -0.008130 0.000000
0.000000 0.000000 0.000000
-0.009208 0.007132 0.000000
0.007132 -0.007211 0.000000
0.000000 0.000000 0.000000
0.006992 0.006001 0.000000
0.006001 0.017444 0.000000
0.000000 0.000000 0.000000
0.009949 0.005887 0.000000
0.005887 -0.000532 0.000000
0.000000 0.000000 0.000000
-0.012046 -0.002496 0.000000
-0.002496 -0.020065 0.000000
0.000000 0.000000 0.000000
0.016468 -0.012642 0.000000
-0.012642 0.002303 0.000000
0.000000 0.000000 0.000000
0.003203 -0.007820 0.000000
-0.007820 -0.003106 0.000000
0.000000 0.000000 0.000000
0.013508 -0.013978 0.000000
-0.013978 0.009065 0.000000
0.000000 0.000000 0.000000
0.037743 0.001713 0.000000
0.001713 0.006902 0.000000
0.000000 0.000000 0.000000
-0.000499 0.002661 0.000000
0.002661 -0.001683 0.000000
0.000000 0.000000 0.000000
0.011107 0.002284 0.000000
0.002284 0.014424 0.000000
0.000000 0.000000 0.000000
0.022561 0.004705 0.000000
0.004705 0.014717 0.000000
0.000000 0.000000 0.000000
-0.020507 -0.006202 0.000000
-0.006202 -0.003608 0.000000
0.000000 0.000000 0.000000
0.016268 -0.010642 0.000000
-0.010642 0.005548 0.000000
0.000000 0.000000 0.000000
-0.005486 0.004460 0.000000
0.004460 0.025804 0.000000
0.000000 0.000000 0.000000
0.018260 -0.003121 0.000000
-0.003121 -0.012921 0.000000
0.000000 0.000000 0.000000
-0.020937 -0.016648 0.000000
-0.016648 -0.026402 0.000000
0.000000 0.000000 0.000000
-0.011362 0.008227 0.000000
0.008227 -0.011727 0.000000
0.000000 0.000000 0.000000
0.033290 0.001244 0.000000
0.001244 0.042558 0.000000
0.000000 0.000000 0.000000
0.001591 0.007049 0.000000
0.007049 0.008045 0.000000
0.000000 0.000000 0.000000
-0.002059 -0.003898 0.000000
-0.003898 -0.002146 0.000000
0.000000 0.000000 0.000000
-0.005671 0.004589 0.000000
0.004589 -0.004103 0.000000
0.000000 0.000000 0.000000
-0.000225 0.008072 0.000000
0.008072 0.006209 0.000000
0.000000 0.000000 0.000000
0.000205 0.018817 0.000000
0.018817 0.024092 0.000000
0.000000 0.000000 0.000000
0.011251 0.008984 0.000000
0.008984 0.000638 0.000000
0.000000 0.000000 0.000000
-0.011876 0.007417 0.000000
0.007417 -0.018168 0.000000
0.000000 0.000000 0.000000
-0.013548 -0.013593 0.000000
-0.013593 0.001017 0.000000
0.000000 0.000000 0.000000
-0.018324 0.022678 0.000000
0.022678 0.000487 0.000000
0.000000 0.000000 0.000000
0.017597 0.018175 0.000000
0.018175 0.013222 0.000000
0.000000 0.000000 0.000000
-0.044478 0.002900 0.000000
0.002900 -0.015930 0.000000
0.000000 0.000000 0.000000
-0.014942 -0.002057 0.000000
-0.002057 -0.027889 0.000000
0.000000 0.000000 0.000000
0.000812 0.003513 0.000000
0.003513 -0.008428 0.000000
0.000000 0.000000 0.000000
-0.001163 -0.006474 0.000000
-0.006474 0.013350 0.000000
0.000000 0.000000 0.000000
-0.006215 0.001309 0.000000
0.001309 -0.006784 0.000000
0.000000 0.000000 0.000000
0.003880 0.006070 0.000000
0.006070 -0.037695 0.000000
0.000000 0.000000 0.000000
0.002700 0.006323 0.000000
0.006323 -0.003926 0.000000
0.000000 0.000000 0.000000
-0.005294 -0.001204 0.000000
-0.001204 -0.016231 0.000000
0.000000 0.000000 0.000000
-0.003504 0.007226 0.000000
0.007226 -0.011307 0.000000
0.000000 0.000000 0.000000
0.005386 -0.005115 0.000000
-0.005115 -0.007146 0.000000
0.000000 0.000000 0.000000
0.035674 -0.008276 0.000000
-0.008276 -0.007879 0.000000
0.000000 0.000000 0.000000
-0.018412 -0.000497 0.000000
-0.000497 -0.015985 0.000000
0.000000 0.000000 0.000000
-0.023603 -0.003392 0.000000
-0.003392 0.005820 0.000000
0.000000 0.000000 0.000000
0.003318 0.000996 0.000000
0.000996 0.015747 0.000000
0.000000 0.000000 0.000000
0.024542 -0.001970 0.000000
-0.001970 -0.008964 0.000000
0.000000 0.000000 0.000000
-0.000853 -0.013582 0.000000
-0.013582 0.003607 0.000000
0.000000 0.000000 0.000000
-0.004601 -0.002803 0.000000
-0.002803 -0.005866 0.000000
0.000000 0.000000 0.000000
-0.000290 -0.008560 0.000000
-0.008560 -0.001256 0.000000
0.000000 0.000000 0.000000
-0.007427 -0.006035 0.000000
-0.006035 -0.004232 0.000000
0.000000 0.000000 0.000000
0.005987 -0.000359 0.000000
-0.000359 -0.002822 0.000000
0.000000 0.000000 0.000000
0.006705 0.004722 0.000000
0.004722 -0.002012 0.000000
0.000000 0.000000 0.000000
0.007338 -0.003957 0.000000
-0.003957 0.011185 0.000000
0.000000 0.000000 0.000000
-0.005912 0.000971 0.000000
0.000971 -0.002571 0.000000
0.000000 0.000000 0.000000
-0.001517 -0.006729 0.000000
-0.006729 -0.010418 0.000000
0.000000 0.000000 0.000000
0.013953 -0.005058 0.000000
-0.005058 -0.005614 0.000000
0.000000 0.000000 0.000000
-0.002270 -0.004383 0.000000
-0.004383 0.002682 0.000000
0.000000 0.000000 0.000000
-0.043041 -0.010149 0.000000
-0.010149 -0.021175 0.000000
0.000000 0.000000 0.000000
0.014149 -0.012985 0.000000
-0.012985 0.015606 0.000000
0.000000 0.000000 0.000000
-0.015914 0.004507 0.000000
0.004507 -0.031959 0.000000
0.000000 0.000000 0.000000
-0.057754 0.001002 0.000000
0.001002 -0.044923 0.000000
0.000000 0.000000 0.000000
-0.021666 0.015971 0.000000
0.015971 -0.013765 0.000000
0.000000 0.000000 0.000000
-0.008226 0.021643 0.000000
0.021643 0.033362 0.000000
0.000000 0.000000 0.000000
-0.006228 -0.003204 0.000000
-0.003204 -0.012331 0.000000
0.000000 0.000000 0.000000
-0.009894 0.000883 0.000000
0.000883 -0.014038 0.000000
0.000000 0.000000 0.000000
0.004871 0.007290 0.000000
0.007290 -0.028732 0.000000
0.000000 0.000000 0.000000
0.008362 0.001475 0.000000
0.001475 -0.004977 0.000000
0.000000 0.000000 0.000000
-0.031410 -0.006276 0.000000
-0.006276 0.011299 0.000000
0.000000 0.000000 0.000000
-0.041998 -0.004102 0.000000
-0.004102 -0.023816 0.000000
0.000000 0.000000 0.000000
-0.015863 -0.002607 0.000000
-0.002607 -0.042653 0.000000
0.000000 0.000000 0.000000
0.019773 0.012221 0.000000
0.012221 0.001955 0.000000
0.000000 0.000000 0.000000
-0.017398 -0.001934 0.000000
-0.001934 -0.005790 0.000000
0.000000 0.000000 0.000000
0.010407 0.004306 0.000000
0.004306 -0.002191 0.000000
0.000000 0.000000 0.000000
-0.010400 0.002212 0.000000
0.002212 0.010900 0.000000
0.000000 0.000000 0.000000
-0.035838 0.002506 0.000000
0.002506 -0.012259 0.000000
0.000000 0.000000 0.000000
-0.013731 0.007641 0.000000
0.007641 -0.021564 0.000000
0.000000 0.000000 0.000000
-0.023657 0.011271 0.000000
0.011271 0.007438 0.000000
0.000000 0.000000 0.000000
0.002645 -0.001704 0.000000
-0.001704 0.025519 0.000000
0.000000 0.000000 0.000000
-0.007018 -0.007679 0.000000
-0.007679 0.019812 0.000000
0.000000 0.000000 0.000000
0.003044 0.004616 0.000000
0.004616 0.000590 0.000000
0.000000 0.000000 0.000000
-0.002967 0.006183 0.000000
0.006183 0.013365 0.000000
0.000000 0.000000 0.000000
-0.003629 -0.004527 0.000000
-0.004527 0.001161 0.000000
0.000000 0.000000 0.000000
-0.002766 -0.003194 0.000000
-0.003194 -0.007979 0.000000
0.000000 0.000000 0.000000
0.002606 -0.000558 0.000000
-0.000558 0.008801 0.000000
0.000000 0.000000 0.000000
-0.026799 -0.004323 0.000000
-0.004323 -0.021654 0.000000
0.000000 0.000000 0.000000
-0.009786 -0.010809 0.000000
-0.010809 0.032500 0.000000
0.000000 0.000000 0.000000
-0.013118 -0.005904 0.000000
-0.005904 0.035911 0.000000
0.000000 0.000000 0.000000
0.016414 0.012853 0.000000
0.012853 -0.007326 0.000000
0.000000 0.000000 0.000000
-0.004784 -0.003168 0.000000
-0.003168 -0.004601 0.000000
0.000000 0.000000 0.000000
-0.018735 -0.016058 0.000000
-0.016058 0.002482 0.000000
0.000000 0.000000 0.000000
0.002359 0.000952 0.000000
0.000952 -0.006930 0.000000
0.000000 0.000000 0.000000
0.015776 0.002115 0.000000
0.002115 -0.009520 0.000000
0.000000 0.000000 0.000000
0.005791 -0.010659 0.000000
-0.010659 -0.006006 0.000000
0.000000 0.000000 0.000000
0.025173 0.005442 0.000000
0.005442 -0.014465 0.000000
0.000000 0.000000 0.000000
-0.001691 0.002322 0.000000
0.002322 -0.016238 0.000000
0.000000 0.000000 0.000000
-0.000733 -0.003087 0.000000
-0.003087 -0.010155 0.000000
0.000000 0.000000 0.000000
0.009884 -0.000903 0.000000
-0.000903 -0.014157 0.000000
0.000000 0.000000 0.000000
0.021270 0.000756 0.000000
0.000756 0.021387 0.000000
0.000000 0.000000 0.000000
-0.002179 0.010038 0.000000
0.010038 -0.007706 0.000000
0.000000 0.000000 0.000000
-0.012205 0.000921 0.000000
0.000921 -0.012505 0.000000
0.000000 0.000000 0.000000
-0.015317 -0.008324 0.000000
-0.008324 0.005125 0.000000
0.000000 0.000000 0.000000
-0.012213 -0.004054 0.000000
-0.004054 0.005748 0.000000
0.000000 0.000000 0.000000
0.003879 0.007212 0.000000
0.007212 -0.008355 0.000000
0.000000 0.000000 0.000000
0.002654 -0.002792 0.000000
-0.002792 -0.011483 0.000000
0.000000 0.000000 0.000000
0.009186 -0.012447 0.000000
-0.012447 0.006655 0.000000
0.000000 0.000000 0.000000
0.001721 -0.007822 0.000000
-0.007822 0.004149 0.000000
0.000000 0.000000 0.000000
-0.010642 0.000592 0.000000
0.000592 -0.006452 0.000000
0.000000 0.000000 0.000000
0.008696 -0.001251 0.000000
-0.001251 -0.002961 0.000000
0.000000 0.000000 0.000000
0.002076 -0.010260 0.000000
-0.010260 0.004088 0.000000
0.000000 0.000000 0.000000
-0.005007 -0.008072 0.000000
-0.008072 -0.019343 0.000000
0.000000 0.000000 0.000000
0.011655 0.000628 0.000000
0.000628 -0.003034 0.000000
0.000000 0.000000 0.000000
-0.008977 -0.001755 0.000000
-0.001755 0.003985 0.000000
0.000000 0.000000 0.000000
-0.006138 0.008343 0.000000
0.008343 0.000379 0.000000
0.000000 0.000000 0.000000
-0.006493 0.007953 0.000000
0.007953 0.004894 0.000000
0.000000 0.000000 0.000000
-0.016991 -0.006893 0.000000
-0.006893 -0.012257 0.000000
0.000000 0.000000 0.000000
-0.011121 0.004311 0.000000
0.004311 0.015953 0.000000
0.000000 0.000000 0.000000
0.005447 0.013757 0.000000
0.013757 0.008546 0.000000
0.000000 0.000000 0.000000
0.022956 0.013664 0.000000
0.013664 0.023920 0.000000
0.000000 0.000000 0.000000
-0.003871 0.011175 0.000000
0.011175 0.008565 0.000000
0.000000 0.000000 0.000000
0.009175 -0.029252 0.000000
-0.029252 0.004322 0.000000
0.000000 0.000000 0.000000
0.000505 -0.007351 0.000000
-0.007351 0.009688 0.000000
0.000000 0.000000 0.000000
0.011250 -0.008108 0.000000
-0.008108 -0.032416 0.000000
0.000000 0.000000 0.000000
-0.023167 -0.008914 0.000000
-0.008914 -0.033610 0.000000
0.000000 0.000000 0.000000
0.011629 0.016598 0.000000
0.016598 0.013801 0.000000
0.000000 0.000000 0.000000
-0.002338 0.004099 0.000000
0.004099 -0.004017 0.000000
0.000000 0.000000 0.000000
0.002637 -0.008169 0.000000
-0.008169 0.000567 0.000000
0.000000 0.000000 0.000000
-0.003087 -0.003275 0.000000
-0.003275 -0.017887 0.000000
0.000000 0.000000 0.000000
0.054448 0.009371 0.000000
0.009371 0.038061 0.000000
0.000000 0.000000 0.000000
0.020469 -0.005230 0.000000
-0.005230 -0.005839 0.000000
0.000000 0.000000 0.000000
-0.000463 -0.009557 0.000000
-0.009557 0.002443 0.000000
0.000000 0.000000 0.000000
-0.001149 -0.003125 0.000000
-0.003125 0.007176 0.000000
0.000000 0.000000 0.000000
0.006503 -0.005402 0.000000
-0.005402 0.009291 0.000000
0.000000 0.000000 0.000000
0.002178 -0.007806 0.000000
-0.007806 0.012889 0.000000
0.000000 0.000000 0.000000
0.005046 -0.003729 0.000000
-0.003729 0.004905 0.000000
0.000000 0.000000 0.000000
0.003405 0.005415 0.000000
0.005415 0.004343 0.000000
0.000000 0.000000 0.000000
0.007335 -0.010937 0.000000
-0.010937 0.002088 0.000000
0.000000 0.000000 0.000000
0.014350 -0.013505 0.000000
-0.013505 0.004191 0.000000
0.000000 0.000000 0.000000
0.006105 -0.011364 0.000000
-0.011364 0.014085 0.000000
0.000000 0.000000 0.000000
-0.012882 -0.005493 0.000000
-0.005493 -0.026746 0.000000
0.000000 0.000000 0.000000
0.028822 -0.001922 0.000000
-0.001922 0.007933 0.000000
0.000000 0.000000 0.000000
-0.004300 -0.014926 0.000000
-0.014926 0.018663 0.000000
0.000000 0.000000 0.000000
0.012015 -0.001339 0.000000
-0.001339 0.011674 0.000000
0.000000 0.000000 0.000000
0.007314 -0.000417 0.000000
-0.000417 0.033778 0.000000
0.000000 0.000000 0.000000
-0.012040 0.008025 0.000000
0.008025 0.011039 0.000000
0.000000 0.000000 0.000000
-0.024394 0.009531 0.000000
0.009531 -0.011160 0.000000
0.000000 0.000000 0.000000
-0.022520 0.011054 0.000000
0.011054 -0.006342 0.000000
0.000000 0.000000 0.000000
0.000998 -0.002097 0.000000
-0.002097 0.001832 0.000000
0.000000 0.000000 0.000000
-0.011047 0.004049 0.000000
0.004049 0.009371 0.000000
0.000000 0.000000 0.000000
-0.012920 0.002538 0.000000
0.002538 0.003542 0.000000
0.000000 0.000000 0.000000
-0.014892 0.004423 0.000000
0.004423 -0.016432 0.000000
0.000000 0.000000 0.000000
0.016699 -0.008224 0.000000
-0.008224 0.003782 0.000000
0.000000 0.000000 0.000000
0.011779 0.003483 0.000000
0.003483 -0.006598 0.000000
0.000000 0.000000 0.000000
-0.002714 0.006568 0.000000
0.006568 -0.018543 0.000000
0.000000 0.000000 0.000000
0.003738 0.000918 0.000000
0.000918 -0.001656 0.000000
0.000000 0.000000 0.000000
-0.002449 0.008371 0.000000
0.008371 -0.009568 0.000000
0.000000 0.000000 0.000000
0.007009 0.006359 0.000000
0.006359 -0.015665 0.000000
0.000000 0.000000 0.000000
-0.012401 0.007770 0.000000
0.007770 -0.001701 0.000000
0.000000 0.000000 0.000000
0.005066 0.013086 0.000000
0.013086 0.010909 0.000000
0.000000 0.000000 0.000000
0.018339 -0.007318 0.000000
-0.007318 0.015096 0.000000
0.000000 0.000000 0.000000
-0.006795 0.000892 0.000000
0.000892 -0.004894 0.000000
0.000000 0.000000 0.000000
0.011418 -0.010127 0.000000
-0.010127 0.014412 0.000000
0.000000 0.000000 0.000000
-0.004073 -0.010617 0.000000
-0.010617 0.007549 0.000000
0.000000 0.000000 0.000000
-0.003069 -0.000207 0.000000
-0.000207 0.011793 0.000000
0.000000 0.000000 0.000000
0.001274 0.001183 0.000000
0.001183 0.011437 0.000000
0.000000 0.000000 0.000000
-0.006760 -0.000528 0.000000
-0.000528 -0.019202 0.000000
0.000000 0.000000 0.000000
-0.015066 -0.011261 0.000000
-0.011261 -0.009222 0.000000
0.000000 0.000000 0.000000
0.029088 -0.005826 0.000000
-0.005826 -0.005347 0.000000
0.000000 0.000000 0.000000
-0.005338 0.000538 0.000000
0.000538 0.005060 0.000000
0.000000 0.000000 0.000000
-0.025344 0.006924 0.000000
0.006924 0.009334 0.000000
0.000000 0.000000 0.000000
-0.016575 -0.013396 0.000000
-0.013396 -0.013148 0.000000
0.000000 0.000000 0.000000
-0.000443 0.000489 0.000000
0.000489 -0.001591 0.000000
0.000000 0.000000 0.000000
0.013742 -0.002869 0.000000
-0.002869 0.016468 0.000000
0.000000 0.000000 0.000000
-0.022732 0.005847 0.000000
0.005847 -0.002042 0.000000
0.000000 0.000000 0.000000
-0.005452 -0.004421 0.000000
-0.004421 -0.005997 0.000000
0.000000 0.000000 0.000000
0.003176 -0.000761 0.000000
-0.000761 -0.011793 0.000000
0.000000 0.000000 0.000000
-0.000562 0.000524 0.000000
0.000524 -0.003493 0.000000
0.000000 0.000000 0.000000
0.003052 -0.006517 0.000000
-0.006517 -0.005839 0.000000
0.000000 0.000000 0.000000
-0.010134 0.003092 0.000000
0.003092 -0.010109 0.000000
0.000000 0.000000 0.000000
-0.010589 -0.003293 0.000000
-0.003293 -0.025729 0.000000
0.000000 0.000000 0.000000
0.000775 -0.000452 0.000000
-0.000452 0.000817 0.000000
0.000000 0.000000 0.000000
0.007103 -0.004170 0.000000
-0.004170 -0.010454 0.000000
0.000000 0.000000 0.000000
0.006156 0.004391 0.000000
0.004391 0.028721 0.000000
0.000000 0.000000 0.000000
0.013891 0.007360 0.000000
0.007360 0.007717 0.000000
0.000000 0.000000 0.000000
-0.018063 0.003502 0.000000
0.003502 -0.012010 0.000000
0.000000 0.000000 0.000000
-0.016510 0.000608 0.000000
0.000608 0.004330 0.000000
0.000000 0.000000 0.000000
-0.019836 -0.000290 0.000000
-0.000290 -0.006537 0.000000
0.000000 0.000000 0.000000
-0.002455 -0.004066 0.000000
-0.004066 0.016614 0.000000
0.000000 0.000000 0.000000
-0.001438 0.002650 0.000000
0.002650 0.002193 0.000000
0.000000 0.000000 0.000000
0.009516 -0.009273 0.000000
-0.009273 -0.018961 0.000000
0.000000 0.000000 0.000000
0.007405 -0.003423 0.000000
-0.003423 0.016266 0.000000
0.000000 0.000000 0.000000
0.004924 0.007354 0.000000
0.007354 0.004446 0.000000
0.000000 0.000000 0.000000
0.003067 -0.001662 0.000000
-0.001662 0.001162 0.000000
0.000000 0.000000 0.000000
0.005348 -0.006040 0.000000
-0.006040 -0.004808 0.000000
0.000000 0.000000 0.000000
0.010372 -0.000730 0.000000
-0.000730 0.031292 0.000000
0.000000 0.000000 0.000000
0.007473 -0.005006 0.000000
-0.005006 0.000581 0.000000
0.000000 0.000000 0.000000
-0.006798 -0.009077 0.000000
-0.009077 -0.009713 0.000000
0.000000 0.000000 0.000000
0.007326 -0.014732 0.000000
-0.014732 0.008458 0.000000
0.000000 0.000000 0.000000
0.039891 -0.003674 0.000000
-0.003674 -0.003013 0.000000
0.000000 0.000000 0.000000
0.003336 -0.003368 0.000000
-0.003368 -0.001218 0.000000
0.000000 0.000000 0.000000
0.001831 0.003737 0.000000
0.003737 -0.023480 0.000000
0.000000 0.000000 0.000000
0.029168 -0.009187 0.000000
-0.009187 -0.002150 0.000000
0.000000 0.000000 0.000000
-0.004882 0.005932 0.000000
0.005932 0.003260 0.000000
0.000000 0.000000 0.000000
0.000467 0.001323 0.000000
0.001323 0.016644 0.000000
0.000000 0.000000 0.000000
0.002274 -0.013038 0.000000
-0.013038 -0.001332 0.000000
0.000000 0.000000 0.000000
-0.000410 -0.007768 0.000000
-0.007768 -0.000367 0.000000
0.000000 0.000000 0.000000
0.002038 0.008673 0.000000
0.008673 0.026555 0.000000
0.000000 0.000000 0.000000
0.010849 0.000027 0.000000
0.000027 0.015236 0.000000
0.000000 0.000000 0.000000
-0.015088 0.009778 0.000000
0.009778 0.004478 0.000000
0.000000 0.000000 0.000000
0.000858 0.002311 0.000000
0.002311 0.026995 0.000000
0.000000 0.000000 0.000000
0.001388 0.012808 0.000000
0.012808 -0.007466 0.000000
0.000000 0.000000 0.000000
-0.003625 -0.000158 0.000000
-0.000158 -0.004739 0.000000
0.000000 0.000000 0.000000
0.026561 0.007677 0.000000
0.007677 0.028468 0.000000
0.000000 0.000000 0.000000
-0.001607 -0.001519 0.000000
-0.001519 -0.001315 0.000000
0.000000 0.000000 0.000000
0.005306 0.000717 0.000000
0.000717 -0.010919 0.000000
0.000000 0.000000 0.000000
-0.002961 0.004934 0.000000
0.004934 -0.018363 0.000000
0.000000 0.000000 0.000000
-0.015846 -0.001617 0.000000
-0.001617 -0.016458 0.000000
0.000000 0.000000 0.000000
0.005910 -0.000809 0.000000
-0.000809 0.002767 0.000000
0.000000 0.000000 0.000000
-0.000236 0.003533 0.000000
0.003533 -0.009822 0.000000
0.000000 0.000000 0.000000
-0.009009 -0.006772 0.000000
-0.006772 -0.005501 0.000000
0.000000 0.000000 0.000000
-0.005961 0.000385 0.000000
0.000385 0.003748 0.000000
0.000000 0.000000 0.000000
-0.005782 -0.018245 0.000000
-0.018245 -0.009614 0.000000
0.000000 0.000000 0.000000
-0.010286 -0.004480 0.000000
-0.004480 0.002299 0.000000
0.000000 0.000000 0.000000
0.017582 0.004075 0.000000
0.004075 0.043374 0.000000
0.000000 0.000000 0.000000
0.006504 0.004100 0.000000
0.004100 0.012491 0.000000
0.000000 0.000000 0.000000
-0.003156 0.006488 0.000000
0.006488 0.000956 0.000000
0.000000 0.000000 0.000000
-0.008576 0.002095 0.000000
0.002095 -0.019252 0.000000
0.000000 0.000000 0.000000
-0.001229 0.004296 0.000000
0.004296 -0.000185 0.000000
0.000000 0.000000 0.000000
-0.005629 -0.004548 0.000000
-0.004548 0.007774 0.000000
0.000000 0.000000 0.000000
0.006703 -0.008824 0.000000
-0.008824 -0.012167 0.000000
0.000000 0.000000 0.000000
-0.010808 -0.001888 0.000000
-0.001888 0.009651 0.000000
0.000000 0.000000 0.000000
-0.011223 0.001079 0.000000
0.001079 0.001933 0.000000
0.000000 0.000000 0.000000
-0.015796 0.004582 0.000000
0.004582 -0.012924 0.000000
0.000000 0.000000 0.000000
-0.009668 -0.001133 0.000000
-0.001133 -0.030727 0.000000
0.000000 0.000000 0.000000
-0.002062 -0.004079 0.000000
-0.004079 -0.007631 0.000000
0.000000 0.000000 0.000000
0.002711 0.015803 0.000000
0.015803 0.009592 0.000000
0.000000 0.000000 0.000000
-0.008698 0.000686 0.000000
0.000686 -0.026928 0.000000
0.000000 0.000000 0.000000
-0.007899 0.001340 0.000000
0.001340 -0.002850 0.000000
0.000000 0.000000 0.000000
-0.026541 -0.021591 0.000000
-0.021591 0.018363 0.000000
0.000000 0.000000 0.000000
0.002168 -0.007716 0.000000
-0.007716 -0.000996 0.000000
0.000000 0.000000 0.000000
-0.042826 -0.011913 0.000000
-0.011913 -0.039642 0.000000
0.000000 0.000000 0.000000
-0.002615 -0.001714 0.000000
-0.001714 -0.026073 0.000000
0.000000 0.000000 0.000000
-0.004339 -0.002310 0.000000
-0.002310 -0.025419 0.000000
0.000000 0.000000 0.000000
0.002508 -0.005147 0.000000
-0.005147 -0.020042 0.000000
0.000000 0.000000 0.000000
-0.001940 0.004524 0.000000
0.004524 -0.006736 0.000000
0.000000 0.000000 0.000000
0.000169 -0.001914 0.000000
-0.001914 -0.002758 0.000000
0.000000 0.000000 0.000000
0.012180 0.001788 0.000000
0.001788 -0.011873 0.000000
0.000000 0.000000 0.000000
0.004883 0.001796 0.000000
0.001796 0.005473 0.000000
0.000000 0.000000 0.000000
-0.018717 -0.008525 0.000000
-0.008525 0.018669 0.000000
0.000000 0.000000 0.000000
-0.023429 -0.005113 0.000000
-0.005113 0.012421 0.000000
0.000000 0.000000 0.000000
-0.028954 0.003067 0.000000
0.003067 -0.029821 0.000000
0.000000 0.000000 0.000000
-0.001139 -0.008279 0.000000
-0.008279 0.012848 0.000000
0.000000 0.000000 0.000000
-0.003661 0.001792 0.000000
0.001792 -0.007358 0.000000
0.000000 0.000000 0.000000
-0.012418 0.000542 0.000000
0.000542 0.007274 0.000000
0.000000 0.000000 0.000000
-0.015250 -0.004278 0.000000
-0.004278 0.006331 0.000000
0.000000 0.000000 0.000000
-0.007284 0.000627 0.000000
0.000627 -0.002632 0.000000
0.000000 0.000000 0.000000
-0.013948 0.006080 0.000000
0.006080 0.007391 0.000000
0.000000 0.000000 0.000000
0.020534 -0.010120 0.000000
-0.010120 0.003494 0.000000
0.000000 0.000000 0.000000
-0.007438 0.003699 0.000000
0.003699 -0.007137 0.000000
0.000000 0.000000 0.000000
0.019034 -0.013758 0.000000
-0.013758 0.001074 0.000000
0.000000 0.000000 0.000000
-0.008800 0.002254 0.000000
0.002254 -0.008094 0.000000
0.000000 0.000000 0.000000
-0.014839 0.001767 0.000000
0.001767 -0.041073 0.000000
0.000000 0.000000 0.000000
0.011298 0.002159 0.000000
0.002159 0.008575 0.000000
0.000000 0.000000 0.000000
-0.006366 -0.003514 0.000000
-0.003514 -0.008595 0.000000
0.000000 0.000000 0.000000
0.009359 -0.000074 0.000000
-0.000074 -0.009024 0.000000
0.000000 0.000000 0.000000
-0.052764 0.007510 0.000000
0.007510 0.003452 0.000000
0.000000 0.000000 0.000000
0.004085 -0.004147 0.000000
-0.004147 0.014500 0.000000
0.000000 0.000000 0.000000
-0.002175 -0.002483 0.000000
-0.002483 -0.001310 0.000000
0.000000 0.000000 0.000000
-0.003061 -0.001337 0.000000
-0.001337 0.005578 0.000000
0.000000 0.000000 0.000000
-0.006534 -0.007769 0.000000
-0.007769 -0.001177 0.000000
0.000000 0.000000 0.000000
-0.002530 -0.001153 0.000000
-0.001153 0.005768 0.000000
0.000000 0.000000 0.000000
0.027220 0.005234 0.000000
0.005234 0.016922 0.000000
0.000000 0.000000 0.000000
-0.007700 0.000936 0.000000
0.000936 0.000794 0.000000
0.000000 0.000000 0.000000
0.012964 -0.004012 0.000000
-0.004012 0.002917 0.000000
0.000000 0.000000 0.000000
-0.004076 0.006512 0.000000
0.006512 -0.020512 0.000000
0.000000 0.000000 0.000000
-0.014332 -0.005690 0.000000
-0.005690 -0.029444 0.000000
0.000000 0.000000 0.000000
-0.011715 -0.000846 0.000000
-0.000846 -0.019999 0.000000
0.000000 0.000000 0.000000
0.009459 -0.001204 0.000000
-0.001204 0.020980 0.000000
0.000000 0.000000 0.000000
-0.002210 0.002881 0.000000
0.002881 -0.018416 0.000000
0.000000 0.000000 0.000000
-0.011640 -0.005089 0.000000
-0.005089 -0.010675 0.000000
0.000000 0.000000 0.000000
0.006122 -0.022606 0.000000
-0.022606 0.017537 0.000000
0.000000 0.000000 0.000000
0.002667 -0.004971 0.000000
-0.004971 0.013170 0.000000
0.000000 0.000000 0.000000
0.007093 0.001456 0.000000
0.001456 0.019061 0.000000
0.000000 0.000000 0.000000
0.035114 0.003336 0.000000
0.003336 -0.004176 0.000000
0.000000 0.000000 0.000000
-0.003324 0.013181 0.000000
0.013181 0.001839 0.000000
0.000000 0.000000 0.000000
0.018240 0.000465 0.000000
0.000465 0.011107 0.000000
0.000000 0.000000 0.000000
0.017875 0.007525 0.000000
0.007525 -0.003275 0.000000
0.000000 0.000000 0.000000
-0.006882 0.006662 0.000000
0.006662 0.000901 0.000000
0.000000 0.000000 0.000000
-0.021037 0.019514 0.000000
0.019514 -0.021439 0.000000
0.000000 0.000000 0.000000
-0.004368 0.004073 0.000000
0.004073 0.015254 0.000000
0.000000 0.000000 0.000000
-0.014447 -0.000350 0.000000
-0.000350 0.013611 0.000000
0.000000 0.000000 0.000000
0.000923 -0.004782 0.000000
-0.004782 -0.011373 0.000000
0.000000 0.000000 0.000000
-0.015550 0.000075 0.000000
0.000075 0.009177 0.000000
0.000000 0.000000 0.000000
0.017802 -0.004720 0.000000
-0.004720 0.018771 0.000000
0.000000 0.000000 0.000000
-0.025325 0.012192 0.000000
0.012192 -0.031590 0.000000
0.000000 0.000000 0.000000
-0.014331 -0.003615 0.000000
-0.003615 -0.026076 0.000000
0.000000 0.000000 0.000000
-0.020487 -0.005787 0.000000
-0.005787 -0.027767 0.000000
0.000000 0.000000 0.000000
-0.006958 -0.006038 0.000000
-0.006038 -0.013892 0.000000
0.000000 0.000000 0.000000
0.011042 0.007938 0.000000
0.007938 -0.003567 0.000000
0.000000 0.000000 0.000000
-0.008924 -0.001910 0.000000
-0.001910 -0.013974 0.000000
0.000000 0.000000 0.000000
0.008387 -0.004188 0.000000
-0.004188 -0.002876 0.000000
0.000000 0.000000 0.000000
-0.012600 -0.008899 0.000000
-0.008899 -0.002828 0.000000
0.000000 0.000000 0.000000
-0.004023 0.003109 0.000000
0.003109 -0.004787 0.000000
0.000000 0.000000 0.000000
0.016666 -0.006528 0.000000
-0.006528 -0.011648 0.000000
0.000000 0.000000 0.000000
0.021026 0.005216 0.000000
0.005216 0.010986 0.000000
0.000000 0.000000 0.000000
0.017592 -0.000727 0.000000
-0.000727 -0.018344 0.000000
0.000000 0.000000 0.000000
0.003969 -0.000419 0.000000
-0.000419 0.016505 0.000000
0.000000 0.000000 0.000000
-0.004334 0.004081 0.000000
0.004081 -0.004174 0.000000
0.000000 0.000000 0.000000
0.000184 -0.003920 0.000000
-0.003920 0.007233 0.000000
0.000000 0.000000 0.000000
0.001634 -0.001114 0.000000
-0.001114 -0.006210 0.000000
0.000000 0.000000 0.000000
0.004655 0.001125 0.000000
0.001125 0.005161 0.000000
0.000000 0.000000 0.000000
0.006486 0.002249 0.000000
0.002249 -0.001823 0.000000
0.000000 0.000000 0.000000
0.007360 0.008816 0.000000
0.008816 -0.019718 0.000000
0.000000 0.000000 0.000000
-0.001538 -0.011919 0.000000
-0.011919 0.016094 0.000000
0.000000 0.000000 0.000000
-0.003553 -0.000769 0.000000
-0.000769 0.021831 0.000000
0.000000 0.000000 0.000000
-0.002909 0.000089 0.000000
0.000089 -0.009421 0.000000
0.000000 0.000000 0.000000
0.000344 0.002805 0.000000
0.002805 0.000325 0.000000
0.000000 0.000000 0.000000
-0.028267 -0.006645 0.000000
-0.006645 0.007161 0.000000
0.000000 0.000000 0.000000
-0.004534 -0.000193 0.000000
-0.000193 -0.000317 0.000000
0.000000 0.000000 0.000000
0.002922 -0.007904 0.000000
-0.007904 0.001298 0.000000
0.000000 0.000000 0.000000
0.002204 -0.001225 0.000000
-0.001225 0.010732 0.000000
0.000000 0.000000 0.000000
0.006959 0.002836 0.000000
0.002836 0.000170 0.000000
0.000000 0.000000 0.000000
-0.015356 0.002838 0.000000
0.002838 0.002345 0.000000
0.000000 0.000000 0.000000
-0.005787 0.007402 0.000000
0.007402 0.001897 0.000000
0.000000 0.000000 0.000000
-0.000519 0.012340 0.000000
0.012340 0.019089 0.000000
0.000000 0.000000 0.000000
0.006940 0.006348 0.000000
0.006348 0.008744 0.000000
0.000000 0.000000 0.000000
-0.009520 -0.006477 0.000000
-0.006477 0.001928 0.000000
0.000000 0.000000 0.000000
-0.003907 0.011403 0.000000
0.011403 0.002917 0.000000
0.000000 0.000000 0.000000
-0.004247 -0.010214 0.000000
-0.010214 -0.017324 0.000000
0.000000 0.000000 0.000000
0.003996 0.003908 0.000000
0.003908 0.010140 0.000000
0.000000 0.000000 0.000000
0.000635 0.002401 0.000000
0.002401 -0.009240 0.000000
0.000000 0.000000 0.000000
0.009722 0.006377 0.000000
0.006377 0.013262 0.000000
0.000000 0.000000 0.000000
0.033763 -0.007796 0.000000
-0.007796 0.019727 0.000000
0.000000 0.000000 0.000000
-0.004623 -0.006219 0.000000
-0.006219 0.026837 0.000000
0.000000 0.000000 0.000000
-0.010201 0.001205 0.000000
0.001205 0.014803 0.000000
0.000000 0.000000 0.000000
0.021825 -0.005406 0.000000
-0.005406 0.000808 0.000000
0.000000 0.000000 0.000000
-0.004912 -0.009709 0.000000
-0.009709 0.003263 0.000000
0.000000 0.000000 0.000000
0.009169 0.003748 0.000000
0.003748 -0.005936 0.000000
0.000000 0.000000 0.000000
0.021049 0.007744 0.000000
0.007744 -0.008457 0.000000
0.000000 0.000000 0.000000
0.019246 -0.004614 0.000000
-0.004614 0.007180 0.000000
0.000000 0.000000 0.000000
0.009935 0.004214 0.000000
0.004214 0.012497 0.000000
0.000000 0.000000 0.000000
0.008870 0.004888 0.000000
0.004888 0.003702 0.000000
0.000000 0.000000 0.000000
-0.015785 0.002375 0.000000
0.002375 -0.021832 0.000000
0.000000 0.000000 0.000000
0.014862 0.006231 0.000000
0.006231 -0.000776 0.000000
0.000000 0.000000 0.000000
0.004391 0.002989 0.000000
0.002989 -0.000255 0.000000
0.000000 0.000000 0.000000
-0.010198 0.000489 0.000000
0.000489 -0.008212 0.000000
0.000000 0.000000 0.000000
0.006731 0.006552 0.000000
0.006552 -0.003808 0.000000
0.000000 0.000000 0.000000
0.010190 0.006257 0.000000
0.006257 -0.005470 0.000000
0.000000 0.000000 0.000000
0.014133 -0.003845 0.000000
-0.003845 0.009756 0.000000
0.000000 0.000000 0.000000
-0.006630 -0.003980 0.000000
-0.003980 -0.005296 0.000000
0.000000 0.000000 0.000000
-0.003830 0.005338 0.000000
0.005338 0.004100 0.000000
0.000000 0.000000 0.000000
-0.006021 -0.004233 0.000000
-0.004233 -0.011658 0.000000
0.000000 0.000000 0.000000
0.003375 -0.002870 0.000000
-0.002870 -0.002696 0.000000
0.000000 0.000000 0.000000
-0.039117 -0.003670 0.000000
-0.003670 -0.021282 0.000000
0.000000 0.000000 0.000000
0.035313 0.009897 0.000000
0.009897 -0.029458 0.000000
0.000000 0.000000 0.000000
-0.016492 -0.016426 0.000000
-0.016426 -0.001225 0.000000
0.000000 0.000000 0.000000
-0.020627 0.004768 0.000000
0.004768 -0.031073 0.000000
0.000000 0.000000 0.000000
0.018104 0.011718 0.000000
0.011718 0.014831 0.000000
0.000000 0.000000 0.000000
0.028284 0.009080 0.000000
0.009080 0.003249 0.000000
0.000000 0.000000 0.000000
-0.013532 0.010190 0.000000
0.010190 -0.014071 0.000000
0.000000 0.000000 0.000000
0.013079 -0.006997 0.000000
-0.006997 -0.014532 0.000000
0.000000 0.000000 0.000000
-0.009020 0.001177 0.000000
0.001177 0.001030 0.000000
0.000000 0.000000 0.000000
0.027450 0.017193 0.000000
0.017193 -0.002515 0.000000
0.000000 0.000000 0.000000
-0.002704 0.000352 0.000000
0.000352 -0.005400 0.000000
0.000000 0.000000 0.000000
0.024599 -0.002780 0.000000
-0.002780 -0.010952 0.000000
0.000000 0.000000 0.000000
-0.010562 0.000905 0.000000
0.000905 -0.019071 0.000000
0.000000 0.000000 0.000000
0.003634 0.011677 0.000000
0.011677 -0.022771 0.000000
0.000000 0.000000 0.000000
-0.013867 0.000209 0.000000
0.000209 0.015636 0.000000
0.000000 0.000000 0.000000
0.002761 0.020047 0.000000
0.020047 0.010484 0.000000
0.000000 0.000000 0.000000
0.033329 -0.011478 0.000000
-0.011478 -0.006530 0.000000
0.000000 0.000000 0.000000
-0.004356 -0.003237 0.000000
-0.003237 -0.010783 0.000000
0.000000 0.000000 0.000000
0.030652 -0.005409 0.000000
-0.005409 0.012016 0.000000
0.000000 0.000000 0.000000
0.017819 -0.001544 0.000000
-0.001544 -0.018182 0.000000
0.000000 0.000000 0.000000
0.008925 -0.001503 0.000000
-0.001503 0.017076 0.000000
0.000000 0.000000 0.000000
0.000965 -0.007357 0.000000
-0.007357 0.004058 0.000000
0.000000 0.000000 0.000000
-0.012307 -0.004248 0.000000
-0.004248 0.012075 0.000000
0.000000 0.000000 0.000000
-0.003411 -0.003799 0.000000
-0.003799 -0.001343 0.000000
0.000000 0.000000 0.000000
-0.003814 0.002307 0.000000
0.002307 0.001953 0.000000
0.000000 0.000000 0.000000
0.010190 0.000711 0.000000
0.000711 -0.016701 0.000000
0.000000 0.000000 0.000000
0.000708 -0.003468 0.000000
-0.003468 -0.002055 0.000000
0.000000 0.000000 0.000000
0.000595 0.001100 0.000000
0.001100 -0.001775 0.000000
0.000000 0.000000 0.000000
0.002225 -0.002650 0.000000
-0.002650 0.001115 0.000000
0.000000 0.000000 0.000000
0.025835 -0.002968 0.000000
-0.002968 -0.000926 0.000000
0.000000 0.000000 0.000000
0.005162 -0.000351 0.000000
-0.000351 -0.004645 0.000000
0.000000 0.000000 0.000000
0.003761 -0.001400 0.000000
-0.001400 -0.016391 0.000000
0.000000 0.000000 0.000000
0.008823 -0.001097 0.000000
-0.001097 0.001964 0.000000
0.000000 0.000000 0.000000
-0.010806 0.008486 0.000000
0.008486 -0.018056 0.000000
0.000000 0.000000 0.000000
-0.002850 -0.006535 0.000000
-0.006535 -0.004766 0.000000
0.000000 0.000000 0.000000
0.008744 -0.000600 0.000000
-0.000600 -0.004047 0.000000
0.000000 0.000000 0.000000
-0.006268 0.007735 0.000000
0.007735 -0.004082 0.000000
0.000000 0.000000 0.000000
0.024739 0.003741 0.000000
0.003741 0.002621 0.000000
0.000000 0.000000 0.000000
0.011505 -0.000551 0.000000
-0.000551 0.014071 0.000000
0.000000 0.000000 0.000000
-0.015042 -0.006380 0.000000
-0.006380 0.005743 0.000000
0.000000 0.000000 0.000000
0.002081 -0.006505 0.000000
-0.006505 0.009710 0.000000
0.000000 0.000000 0.000000
0.028866 0.001631 0.000000
0.001631 0.002612 0.000000
0.000000 0.000000 0.000000
0.026291 0.011989 0.000000
0.011989 0.022865 0.000000
0.000000 0.000000 0.000000
0.002442 0.001259 0.000000
0.001259 0.005281 0.000000
0.000000 0.000000 0.000000
-0.002719 -0.002986 0.000000
-0.002986 0.000997 0.000000
0.000000 0.000000 0.000000
-0.001755 0.000948 0.000000
0.000948 0.000177 0.000000
0.000000 0.000000 0.000000
-0.013315 -0.004614 0.000000
-0.004614 -0.003275 0.000000
0.000000 0.000000 0.000000
-0.010348 0.008574 0.000000
0.008574 -0.004708 0.000000
0.000000 0.000000 0.000000
-0.014901 0.013305 0.000000
0.013305 -0.017756 0.000000
0.000000 0.000000 0.000000
-0.003810 -0.003914 0.000000
-0.003914 -0.011027 0.000000
0.000000 0.000000 0.000000
-0.006825 -0.000739 0.000000
-0.000739 0.005284 0.000000
0.000000 0.000000 0.000000
-0.002557 0.003207 0.000000
0.003207 -0.006317 0.000000
0.000000 0.000000 0.000000
-0.006471 0.010698 0.000000
0.010698 -0.015908 0.000000
0.000000 0.000000 0.000000
-0.001121 -0.000306 0.000000
-0.000306 0.011360 0.000000
0.000000 0.000000 0.000000
0.008769 -0.004001 0.000000
-0.004001 0.016495 0.000000
0.000000 0.000000 0.000000
0.002163 -0.003171 0.000000
-0.003171 -0.003732 0.000000
0.000000 0.000000 0.000000
-0.005756 0.000440 0.000000
0.000440 0.013523 0.000000
0.000000 0.000000 0.000000
0.005018 -0.001110 0.000000
-0.001110 0.017429 0.000000
0.000000 0.000000 0.000000
-0.018623 -0.005450 0.000000
-0.005450 -0.010427 0.000000
0.000000 0.000000 0.000000
0.004578 -0.004277 0.000000
-0.004277 0.008744 0.000000
0.000000 0.000000 0.000000
0.017849 0.001669 0.000000
0.001669 0.037391 0.000000
0.000000 0.000000 0.000000
0.008494 -0.001536 0.000000
-0.001536 0.029830 0.000000
0.000000 0.000000 0.000000
-0.003635 -0.006947 0.000000
-0.006947 0.007703 0.000000
0.000000 0.000000 0.000000
0.000711 -0.002216 0.000000
-0.002216 -0.008166 0.000000
0.000000 0.000000 0.000000
-0.011077 0.002138 0.000000
0.002138 -0.028261 0.000000
0.000000 0.000000 0.000000
-0.005217 -0.003519 0.000000
-0.003519 -0.007510 0.000000
0.000000 0.000000 0.000000
-0.011263 0.014184 0.000000
0.014184 -0.010588 0.000000
0.000000 0.000000 0.000000
0.029006 -0.001027 0.000000
-0.001027 0.016859 0.000000
0.000000 0.000000 0.000000
-0.000884 -0.001676 0.000000
-0.001676 -0.006664 0.000000
0.000000 0.000000 0.000000
-0.019878 -0.004510 0.000000
-0.004510 -0.007686 0.000000
0.000000 0.000000 0.000000
0.006704 -0.008393 0.000000
-0.008393 0.006552 0.000000
0.000000 0.000000 0.000000
0.004574 0.000126 0.000000
0.000126 -0.003836 0.000000
0.000000 0.000000 0.000000
0.022294 0.009886 0.000000
0.009886 0.001762 0.000000
0.000000 0.000000 0.000000
-0.043737 0.016709 0.000000
0.016709 -0.047956 0.000000
0.000000 0.000000 0.000000
0.033491 -0.021599 0.000000
-0.021599 0.017560 0.000000
0.000000 0.000000 0.000000
0.014214 0.008196 0.000000
0.008196 0.022985 0.000000
0.000000 0.000000 0.000000
-0.009207 -0.013469 0.000000
-0.013469 -0.008559 0.000000
0.000000 0.000000 0.000000
-0.002439 -0.002007 0.000000
-0.002007 0.000862 0.000000
0.000000 0.000000 0.000000
-0.006510 0.000244 0.000000
0.000244 -0.005460 0.000000
0.000000 0.000000 0.000000
0.013885 -0.011302 0.000000
-0.011302 -0.012238 0.000000
0.000000 0.000000 0.000000
0.004226 0.019245 0.000000
0.019245 -0.023697 0.000000
0.000000 0.000000 0.000000
-0.031509 0.008609 0.000000
0.008609 0.003966 0.000000
0.000000 0.000000 0.000000
-0.001334 -0.005856 0.000000
-0.005856 0.003308 0.000000
0.000000 0.000000 0.000000
-0.005303 -0.004784 0.000000
-0.004784 0.006262 0.000000
0.000000 0.000000 0.000000
-0.009264 -0.004799 0.000000
-0.004799 -0.032576 0.000000
0.000000 0.000000 0.000000
-0.002730 0.007531 0.000000
0.007531 -0.012688 0.000000
0.000000 0.000000 0.000000
0.001437 -0.011814 0.000000
-0.011814 -0.016099 0.000000
0.000000 0.000000 0.000000
-0.001114 0.002086 0.000000
0.002086 0.001363 0.000000
0.000000 0.000000 0.000000
-0.005014 -0.004787 0.000000
-0.004787 -0.012848 0.000000
0.000000 0.000000 0.000000
0.007195 -0.005717 0.000000
-0.005717 -0.002868 0.000000
0.000000 0.000000 0.000000
0.008090 0.001108 0.000000
0.001108 0.004566 0.000000
0.000000 0.000000 0.000000
0.018061 0.013941 0.000000
0.013941 0.006884 0.000000
0.000000 0.000000 0.000000
-0.005073 0.006225 0.000000
0.006225 0.012515 0.000000
0.000000 0.000000 0.000000
0.010262 -0.001387 0.000000
-0.001387 0.010022 0.000000
0.000000 0.000000 0.000000
0.011875 0.004591 0.000000
0.004591 -0.017286 0.000000
0.000000 0.000000 0.000000
0.029778 -0.013990 0.000000
-0.013990 0.006593 0.000000
0.000000 0.000000 0.000000
-0.002366 -0.000520 0.000000
-0.000520 -0.014684 0.000000
0.000000 0.000000 0.000000
-0.018995 -0.003095 0.000000
-0.003095 -0.012697 0.000000
0.000000 0.000000 0.000000
0.016305 -0.001871 0.000000
-0.001871 -0.012984 0.000000
0.000000 0.000000 0.000000
0.009276 0.002278 0.000000
0.002278 0.008479 0.000000
0.000000 0.000000 0.000000
-0.020330 -0.007026 0.000000
-0.007026 -0.001599 0.000000
0.000000 0.000000 0.000000
0.010946 -0.000383 0.000000
-0.000383 -0.001153 0.000000
0.000000 0.000000 0.000000
-0.024129 0.014253 0.000000
0.014253 0.017069 0.000000
0.000000 0.000000 0.000000
-0.011530 0.004339 0.000000
0.004339 -0.003892 0.000000
0.000000 0.000000 0.000000
-0.014342 -0.010516 0.000000
-0.010516 -0.024184 0.000000
0.000000 0.000000 0.000000
-0.000869 -0.005543 0.000000
-0.005543 0.015191 0.000000
0.000000 0.000000 0.000000
0.006275 0.009822 0.000000
0.009822 -0.000287 0.000000
0.000000 0.000000 0.000000
-0.008230 -0.008549 0.000000
-0.008549 0.003366 0.000000
0.000000 0.000000 0.000000
0.020910 0.011979 0.000000
0.011979 0.015904 0.000000
0.000000 0.000000 0.000000
-0.000388 0.003121 0.000000
0.003121 -0.014988 0.000000
0.000000 0.000000 0.000000
0.013576 0.005978 0.000000
0.005978 0.006820 0.000000
0.000000 0.000000 0.000000
0.005147 0.004864 0.000000
0.004864 0.002774 0.000000
0.000000 0.000000 0.000000
-0.001073 0.001979 0.000000
0.001979 0.009209 0.000000
0.000000 0.000000 0.000000
0.003463 0.006087 0.000000
0.006087 0.002340 0.000000
0.000000 0.000000 0.000000
-0.005553 -0.005141 0.000000
-0.005141 0.008990 0.000000
0.000000 0.000000 0.000000
0.000904 0.008851 0.000000
0.008851 -0.003347 0.000000
0.000000 0.000000 0.000000
-0.007085 -0.004745 0.000000
-0.004745 -0.005795 0.000000
0.000000 0.000000 0.000000
-0.015188 -0.012273 0.000000
-0.012273 -0.010427 0.000000
0.000000 0.000000 0.000000
0.000627 -0.009389 0.000000
-0.009389 0.002604 0.000000
0.000000 0.000000 0.000000
-0.002187 -0.002845 0.000000
-0.002845 0.004953 0.000000
0.000000 0.000000 0.000000
-0.018520 -0.005138 0.000000
-0.005138 -0.015872 0.000000
0.000000 0.000000 0.000000
0.006590 0.002026 0.000000
0.002026 0.018222 0.000000
0.000000 0.000000 0.000000
0.010923 0.004626 0.000000
0.004626 -0.005468 0.000000
0.000000 0.000000 0.000000
0.014253 0.003652 0.000000
0.003652 0.008644 0.000000
0.000000 0.000000 0.000000
0.016157 0.003654 0.000000
0.003654 -0.003823 0.000000
0.000000 0.000000 0.000000
0.029646 -0.014308 0.000000
-0.014308 0.015282 0.000000
0.000000 0.000000 0.000000
-0.006955 0.003416 0.000000
0.003416 0.016941 0.000000
0.000000 0.000000 0.000000
0.013957 0.002277 0.000000
0.002277 -0.005518 0.000000
0.000000 0.000000 0.000000
0.017859 0.007132 0.000000
0.007132 -0.001318 0.000000
0.000000 0.000000 0.000000
0.033691 0.000354 0.000000
0.000354 0.008588 0.000000
0.000000 0.000000 0.000000
0.002980 -0.011932 0.000000
-0.011932 0.001464 0.000000
0.000000 0.000000 0.000000
-0.001120 -0.004181 0.000000
-0.004181 0.002680 0.000000
0.000000 0.000000 0.000000
0.016183 0.001446 0.000000
0.001446 0.006854 0.000000
0.000000 0.000000 0.000000
0.013794 0.001575 0.000000
0.001575 0.016192 0.000000
0.000000 0.000000 0.000000
0.005336 -0.003845 0.000000
-0.003845 -0.007885 0.000000
0.000000 0.000000 0.000000
-0.000094 -0.000596 0.000000
-0.000596 0.003231 0.000000
0.000000 0.000000 0.000000
-0.015237 0.004119 0.000000
0.004119 -0.009231 0.000000
0.000000 0.000000 0.000000
-0.006959 0.009243 0.000000
0.009243 0.000147 0.000000
0.000000 0.000000 0.000000
0.007480 -0.003653 0.000000
-0.003653 0.001219 0.000000
0.000000 0.000000 0.000000
0.001890 -0.001465 0.000000
-0.001465 0.007541 0.000000
0.000000 0.000000 0.000000
-0.001072 -0.002471 0.000000
-0.002471 -0.001233 0.000000
0.000000 0.000000 0.000000
0.000811 -0.006660 0.000000
-0.006660 0.004903 0.000000
0.000000 0.000000 0.000000
0.010701 -0.000875 0.000000
-0.000875 -0.001723 0.000000
0.000000 0.000000 0.000000
-0.013457 -0.008020 0.000000
-0.008020 -0.012005 0.000000
0.000000 0.000000 0.000000
0.009342 -0.000281 0.000000
-0.000281 -0.002732 0.000000
0.000000 0.000000 0.000000
-0.010161 0.001545 0.000000
0.001545 -0.014014 0.000000
0.000000 0.000000 0.000000
-0.004590 -0.004408 0.000000
-0.004408 -0.001300 0.000000
0.000000 0.000000 0.000000
-0.005814 -0.002128 0.000000
-0.002128 -0.014451 0.000000
0.000000 0.000000 0.000000
0.014044 0.013160 0.000000
0.013160 -0.037713 0.000000
0.000000 0.000000 0.000000
0.037873 -0.000622 0.000000
-0.000622 -0.000250 0.000000
0.000000 0.000000 0.000000
-0.001044 -0.002635 0.000000
-0.002635 -0.013795 0.000000
0.000000 0.000000 0.000000
0.029942 0.024826 0.000000
0.024826 0.000285 0.000000
0.000000 0.000000 0.000000
0.034692 0.017866 0.000000
0.017866 0.009108 0.000000
0.000000 0.000000 0.000000
0.008005 0.004614 0.000000
0.004614 0.001435 0.000000
0.000000 0.000000 0.000000
-0.016293 0.006447 0.000000
0.006447 0.017242 0.000000
0.000000 0.000000 0.000000
-0.012985 0.022073 0.000000
0.022073 0.007490 0.000000
0.000000 0.000000 0.000000
-0.026460 -0.012922 0.000000
-0.012922 -0.033641 0.000000
0.000000 0.000000 0.000000
-0.021828 0.002905 0.000000
0.002905 0.001848 0.000000
0.000000 0.000000 0.000000
-0.004494 0.001228 0.000000
0.001228 0.004387 0.000000
0.000000 0.000000 0.000000
0.009110 0.004167 0.000000
0.004167 0.037159 0.000000
0.000000 0.000000 0.000000
-0.007265 0.006278 0.000000
0.006278 -0.016691 0.000000
0.000000 0.000000 0.000000
-0.015039 0.000122 0.000000
0.000122 -0.025313 0.000000
0.000000 0.000000 0.000000
0.002893 0.007743 0.000000
0.007743 0.019536 0.000000
0.000000 0.000000 0.000000
0.010313 0.003925 0.000000
0.003925 0.013340 0.000000
0.000000 0.000000 0.000000
0.005615 0.004111 0.000000
0.004111 0.011447 0.000000
0.000000 0.000000 0.000000
0.011355 0.006233 0.000000
0.006233 0.019415 0.000000
0.000000 0.000000 0.000000
-0.003422 -0.002160 0.000000
-0.002160 0.005292 0.000000
0.000000 0.000000 0.000000
0.008823 0.001741 0.000000
0.001741 0.032576 0.000000
0.000000 0.000000 0.000000
-0.017637 -0.007209 0.000000
-0.007209 0.000309 0.000000
0.000000 0.000000 0.000000
-0.030147 0.001831 0.000000
0.001831 -0.023605 0.000000
0.000000 0.000000 0.000000
-0.015140 -0.007162 0.000000
-0.007162 0.000922 0.000000
0.000000 0.000000 0.000000
0.003471 -0.002895 0.000000
-0.002895 0.013007 0.000000
0.000000 0.000000 0.000000
0.009771 -0.000029 0.000000
-0.000029 0.013939 0.000000
0.000000 0.000000 0.000000
0.006015 -0.004097 0.000000
-0.004097 0.014846 0.000000
0.000000 0.000000 0.000000
-0.008047 -0.006001 0.000000
-0.006001 -0.007202 0.000000
0.000000 0.000000 0.000000
-0.000310 0.019118 0.000000
0.019118 -0.007683 0.000000
0.000000 0.000000 0.000000
-0.020270 -0.001125 0.000000
-0.001125 -0.003650 0.000000
0.000000 0.000000 0.000000
-0.000995 -0.001787 0.000000
-0.001787 0.004040 0.000000
0.000000 0.000000 0.000000
-0.005884 -0.003425 0.000000
-0.003425 0.003315 0.000000
0.000000 0.000000 0.000000
-0.002102 -0.002726 0.000000
-0.002726 -0.016399 0.000000
0.000000 0.000000 0.000000
0.003935 -0.001189 0.000000
-0.001189 0.004005 0.000000
0.000000 0.000000 0.000000
-0.018558 0.000864 0.000000
0.000864 0.019918 0.000000
0.000000 0.000000 0.000000
0.006800 0.003860 0.000000
0.003860 0.012733 0.000000
0.000000 0.000000 0.000000
0.003919 0.010161 0.000000
0.010161 0.023003 0.000000
0.000000 0.000000 0.000000
-0.000906 0.000768 0.000000
0.000768 -0.008632 0.000000
0.000000 0.000000 0.000000
-0.020257 0.014853 0.000000
0.014853 0.004581 0.000000
0.000000 0.000000 0.000000
0.003111 0.007823 0.000000
0.007823 0.014567 0.000000
0.000000 0.000000 0.000000
-0.007586 0.001000 0.000000
0.001000 -0.004954 0.000000
0.000000 0.000000 0.000000
-0.001446 0.004439 0.000000
0.004439 -0.010451 0.000000
0.000000 0.000000 0.000000
-0.009802 0.003258 0.000000
0.003258 -0.013272 0.000000
0.000000 0.000000 0.000000
-0.005958 -0.006895 0.000000
-0.006895 0.005386 0.000000
0.000000 0.000000 0.000000
0.000049 0.002241 0.000000
0.002241 -0.002539 0.000000
0.000000 0.000000 0.000000
0.000003 -0.010143 0.000000
-0.010143 -0.002276 0.000000
0.000000 0.000000 0.000000
0.007142 0.001620 0.000000
0.001620 0.010328 0.000000
0.000000 0.000000 0.000000
-0.004212 -0.013380 0.000000
-0.013380 0.028315 0.000000
0.000000 0.000000 0.000000
0.003003 0.001351 0.000000
0.001351 -0.001474 0.000000
0.000000 0.000000 0.000000
-0.005417 0.019812 0.000000
0.019812 -0.015306 0.000000
0.000000 0.000000 0.000000
0.003532 -0.003325 0.000000
-0.003325 0.003805 0.000000
0.000000 0.000000 0.000000
0.012094 -0.000424 0.000000
-0.000424 0.009084 0.000000
0.000000 0.000000 0.000000
-0.006574 -0.005797 0.000000
-0.005797 0.007520 0.000000
0.000000 0.000000 0.000000
0.008070 0.009486 0.000000
0.009486 0.014677 0.000000
0.000000 0.000000 0.000000
-0.008400 -0.006508 0.000000
-0.006508 -0.015992 0.000000
0.000000 0.000000 0.000000
0.028998 -0.001245 0.000000
-0.001245 0.011370 0.000000
0.000000 0.000000 0.000000
-0.005736 -0.005621 0.000000
-0.005621 0.007181 0.000000
0.000000 0.000000 0.000000
0.005927 -0.003531 0.000000
-0.003531 0.003170 0.000000
0.000000 0.000000 0.000000
-0.014866 0.003112 0.000000
0.003112 -0.035623 0.000000
0.000000 0.000000 0.000000
-0.001434 -0.001983 0.000000
-0.001983 0.003126 0.000000
0.000000 0.000000 0.000000
0.001810 0.003122 0.000000
0.003122 0.003360 0.000000
0.000000 0.000000 0.000000
0.013158 -0.004820 0.000000
-0.004820 0.003529 0.000000
0.000000 0.000000 0.000000
0.001235 -0.001684 0.000000
-0.001684 0.016141 0.000000
0.000000 0.000000 0.000000
0.004670 0.000780 0.000000
0.000780 0.015754 0.000000
0.000000 0.000000 0.000000
-0.000167 -0.007105 0.000000
-0.007105 0.022810 0.000000
0.000000 0.000000 0.000000
0.004667 -0.001776 0.000000
-0.001776 -0.005996 0.000000
0.000000 0.000000 0.000000
0.001377 0.017000 0.000000
0.017000 -0.008091 0.000000
0.000000 0.000000 0.000000
0.029369 -0.000500 0.000000
-0.000500 0.024042 0.000000
0.000000 0.000000 0.000000
0.007313 0.002922 0.000000
0.002922 -0.005991 0.000000
0.000000 0.000000 0.000000
-0.004340 -0.000500 0.000000
-0.000500 -0.006143 0.000000
0.000000 0.000000 0.000000
0.003231 0.004019 0.000000
0.004019 -0.011661 0.000000
0.000000 0.000000 0.000000
-0.010051 0.004318 0.000000
0.004318 -0.006799 0.000000
0.000000 0.000000 0.000000
0.007907 -0.005625 0.000000
-0.005625 0.001545 0.000000
0.000000 0.000000 0.000000
0.007705 -0.000673 0.000000
-0.000673 -0.012953 0.000000
0.000000 0.000000 0.000000
0.018206 0.007765 0.000000
0.007765 0.014290 0.000000
0.000000 0.000000 0.000000
-0.003986 -0.003804 0.000000
-0.003804 -0.003129 0.000000
0.000000 0.000000 0.000000
0.006905 -0.005406 0.000000
-0.005406 -0.016988 0.000000
0.000000 0.000000 0.000000
-0.011950 0.006325 0.000000
0.006325 -0.008608 0.000000
0.000000 0.000000 0.000000
0.022077 0.011223 0.000000
0.011223 0.016406 0.000000
0.000000 0.000000 0.000000
-0.006273 0.010513 0.000000
0.010513 0.014190 0.000000
0.000000 0.000000 0.000000
0.000954 -0.006452 0.000000
-0.006452 -0.010910 0.000000
0.000000 0.000000 0.000000
0.009905 -0.006302 0.000000
-0.006302 -0.008055 0.000000
0.000000 0.000000 0.000000
0.003565 -0.000160 0.000000
-0.000160 0.017774 0.000000
0.000000 0.000000 0.000000
0.011009 0.005824 0.000000
0.005824 -0.001960 0.000000
0.000000 0.000000 0.000000
0.003338 -0.001374 0.000000
-0.001374 -0.008430 0.000000
0.000000 0.000000 0.000000
-0.003532 -0.001431 0.000000
-0.001431 0.015002 0.000000
0.000000 0.000000 0.000000
-0.002026 0.001957 0.000000
0.001957 0.006933 0.000000
0.000000 0.000000 0.000000
-0.016899 -0.009870 0.000000
-0.009870 -0.016732 0.000000
0.000000 0.000000 0.000000
0.001389 -0.002848 0.000000
-0.002848 -0.007616 0.000000
0.000000 0.000000 0.000000
0.006346 -0.004871 0.000000
-0.004871 -0.006773 0.000000
0.000000 0.000000 0.000000
0.017082 -0.002238 0.000000
-0.002238 -0.008188 0.000000
0.000000 0.000000 0.000000
-0.001216 0.014022 0.000000
0.014022 0.015748 0.000000
0.000000 0.000000 0.000000
0.014297 -0.013648 0.000000
-0.013648 0.027046 0.000000
0.000000 0.000000 0.000000
-0.005487 0.010098 0.000000
0.010098 0.034041 0.000000
0.000000 0.000000 0.000000
0.006331 -0.000164 0.000000
-0.000164 -0.029121 0.000000
0.000000 0.000000 0.000000
0.010059 0.011101 0.000000
0.011101 -0.011460 0.000000
0.000000 0.000000 0.000000
-0.001920 -0.005172 0.000000
-0.005172 0.012479 0.000000
0.000000 0.000000 0.000000
-0.000488 -0.002144 0.000000
-0.002144 0.017443 0.000000
0.000000 0.000000 0.000000
0.003537 -0.001226 0.000000
-0.001226 -0.005224 0.000000
0.000000 0.000000 0.000000
-0.001407 0.003085 0.000000
0.003085 0.024284 0.000000
0.000000 0.000000 0.000000
-0.003183 0.000815 0.000000
0.000815 -0.005003 0.000000
0.000000 0.000000 0.000000
-0.008697 0.007501 0.000000
0.007501 -0.011164 0.000000
0.000000 0.000000 0.000000
0.029431 -0.008127 0.000000
-0.008127 0.002813 0.000000
0.000000 0.000000 0.000000
0.003956 -0.002680 0.000000
-0.002680 0.001646 0.000000
0.000000 0.000000 0.000000
0.002150 0.006735 0.000000
0.006735 0.017319 0.000000
0.000000 0.000000 0.000000
0.000015 -0.007211 0.000000
-0.007211 -0.002107 0.000000
0.000000 0.000000 0.000000
0.002615 0.003835 0.000000
0.003835 0.007416 0.000000
0.000000 0.000000 0.000000
-0.005830 0.001343 0.000000
0.001343 -0.011369 0.000000
0.000000 0.000000 0.000000
-0.001002 -0.000516 0.000000
-0.000516 -0.010950 0.000000
0.000000 0.000000 0.000000
0.013069 -0.005740 0.000000
-0.005740 0.008247 0.000000
0.000000 0.000000 0.000000
-0.013531 0.001808 0.000000
0.001808 0.003146 0.000000
0.000000 0.000000 0.000000
-0.019531 -0.000422 0.000000
-0.000422 -0.007338 0.000000
0.000000 0.000000 0.000000
0.005402 -0.004442 0.000000
-0.004442 0.011354 0.000000
0.000000 0.000000 0.000000
-0.009102 0.008185 0.000000
0.008185 -0.012895 0.000000
0.000000 0.000000 0.000000
0.001197 -0.003580 0.000000
-0.003580 0.011062 0.000000
0.000000 0.000000 0.000000
0.005249 0.002334 0.000000
0.002334 0.018349 0.000000
0.000000 0.000000 0.000000
0.011511 0.006639 0.000000
0.006639 -0.001312 0.000000
0.000000 0.000000 0.000000
0.003496 0.008513 0.000000
0.008513 -0.000896 0.000000
0.000000 0.000000 0.000000
0.009799 -0.006330 0.000000
-0.006330 -0.008530 0.000000
0.000000 0.000000 0.000000
-0.005297 0.004117 0.000000
0.004117 -0.004303 0.000000
0.000000 0.000000 0.000000
-0.023939 0.007482 0.000000
0.007482 -0.007425 0.000000
0.000000 0.000000 0.000000
-0.005137 0.003472 0.000000
0.003472 0.015399 0.000000
0.000000 0.000000 0.000000
-0.011799 -0.002895 0.000000
-0.002895 -0.000312 0.000000
0.000000 0.000000 0.000000
0.002576 -0.003712 0.000000
-0.003712 0.014001 0.000000
0.000000 0.000000 0.000000
-0.035254 -0.008404 0.000000
-0.008404 0.029633 0.000000
0.000000 0.000000 0.000000
-0.013404 -0.004154 0.000000
-0.004154 0.001605 0.000000
0.000000 0.000000 0.000000
-0.004740 -0.008417 0.000000
-0.008417 -0.032908 0.000000
0.000000 0.000000 0.000000
-0.011781 0.004024 0.000000
0.004024 0.004647 0.000000
0.000000 0.000000 0.000000
0.001533 -0.012024 0.000000
-0.012024 -0.028177 0.000000
0.000000 0.000000 0.000000
0.008375 -0.003032 0.000000
-0.003032 0.004616 0.000000
0.000000 0.000000 0.000000
-0.018714 -0.001112 0.000000
-0.001112 -0.000006 0.000000
0.000000 0.000000 0.000000
0.016212 0.005398 0.000000
0.005398 -0.000383 0.000000
0.000000 0.000000 0.000000
-0.009377 -0.011295 0.000000
-0.011295 -0.007440 0.000000
0.000000 0.000000 0.000000
-0.021727 -0.000487 0.000000
-0.000487 -0.005066 0.000000
0.000000 0.000000 0.000000
-0.002826 -0.001292 0.000000
-0.001292 0.006126 0.000000
0.000000 0.000000 0.000000
-0.048278 -0.017039 0.000000
-0.017039 -0.024958 0.000000
0.000000 0.000000 0.000000
-0.003747 0.000330 0.000000
0.000330 0.011410 0.000000
0.000000 0.000000 0.000000
0.006865 0.005515 0.000000
0.005515 0.001199 0.000000
0.000000 0.000000 0.000000
0.024875 -0.005104 0.000000
-0.005104 0.003266 0.000000
0.000000 0.000000 0.000000
-0.002259 -0.004834 0.000000
-0.004834 -0.001692 0.000000
0.000000 0.000000 0.000000
-0.030067 -0.000165 0.000000
-0.000165 -0.016753 0.000000
0.000000 0.000000 0.000000
0.001004 -0.002489 0.000000
-0.002489 -0.012330 0.000000
0.000000 0.000000 0.000000
0.014655 -0.000332 0.000000
-0.000332 0.013502 0.000000
0.000000 0.000000 0.000000
-0.004214 -0.014641 0.000000
-0.014641 0.002954 0.000000
0.000000 0.000000 0.000000
0.023363 -0.006152 0.000000
-0.006152 -0.022478 0.000000
0.000000 0.000000 0.000000
-0.088826 -0.006948 0.000000
-0.006948 0.001380 0.000000
0.000000 0.000000 0.000000
-0.011112 -0.002520 0.000000
-0.002520 0.003184 0.000000
0.000000 0.000000 0.000000
0.006771 0.001409 0.000000
0.001409 0.000563 0.000000
0.000000 0.000000 0.000000
0.009752 0.000521 0.000000
0.000521 -0.003028 0.000000
0.000000 0.000000 0.000000
0.009599 0.003962 0.000000
0.003962 0.015061 0.000000
0.000000 0.000000 0.000000
0.013771 0.001149 0.000000
0.001149 0.003414 0.000000
0.000000 0.000000 0.000000
-0.000809 -0.008001 0.000000
-0.008001 0.008589 0.000000
0.000000 0.000000 0.000000
-0.008833 -0.001096 0.000000
-0.001096 0.010876 0.000000
0.000000 0.000000 0.000000
-0.021945 -0.010457 0.000000
-0.010457 0.008122 0.000000
0.000000 0.000000 0.000000
-0.019472 0.001932 0.000000
0.001932 -0.008715 0.000000
0.000000 0.000000 0.000000
0.010936 -0.002835 0.000000
-0.002835 0.014004 0.000000
0.000000 0.000000 0.000000
0.041379 0.004034 0.000000
0.004034 0.024341 0.000000
0.000000 0.000000 0.000000
0.004549 0.002140 0.000000
0.002140 0.000855 0.000000
0.000000 0.000000 0.000000
0.020146 0.011347 0.000000
0.011347 0.037699 0.000000
0.000000 0.000000 0.000000
-0.022124 -0.008149 0.000000
-0.008149 -0.026231 0.000000
0.000000 0.000000 0.000000
-0.002482 -0.001809 0.000000
-0.001809 0.013215 0.000000
0.000000 0.000000 0.000000
0.008411 -0.002964 0.000000
-0.002964 0.009181 0.000000
0.000000 0.000000 0.000000
0.016667 -0.000824 0.000000
-0.000824 0.010141 0.000000
0.000000 0.000000 0.000000
0.013589 -0.008227 0.000000
-0.008227 0.017251 0.000000
0.000000 0.000000 0.000000
0.009550 -0.001226 0.000000
-0.001226 -0.002822 0.000000
0.000000 0.000000 0.000000
0.009489 -0.003173 0.000000
-0.003173 0.022564 0.000000
0.000000 0.000000 0.000000
0.036025 0.017561 0.000000
0.017561 0.030824 0.000000
0.000000 0.000000 0.000000
0.005200 -0.003535 0.000000
-0.003535 -0.005125 0.000000
0.000000 0.000000 0.000000
0.012188 0.000948 0.000000
0.000948 0.002921 0.000000
0.000000 0.000000 0.000000
-0.016616 -0.003207 0.000000
-0.003207 0.008500 0.000000
0.000000 0.000000 0.000000
-0.004424 0.003429 0.000000
0.003429 0.011004 0.000000
0.000000 0.000000 0.000000
-0.012914 -0.003426 0.000000
-0.003426 -0.005294 0.000000
0.000000 0.000000 0.000000
-0.012011 0.015464 0.000000
0.015464 0.018447 0.000000
0.000000 0.000000 0.000000
-0.029225 0.002528 0.000000
0.002528 0.008529 0.000000
0.000000 0.000000 0.000000
0.038200 0.000199 0.000000
0.000199 0.007656 0.000000
0.000000 0.000000 0.000000
0.008150 -0.000638 0.000000
-0.000638 0.002718 0.000000
0.000000 0.000000 0.000000
0.022650 -0.003069 0.000000
-0.003069 -0.000505 0.000000
0.000000 0.000000 0.000000
0.010118 -0.001986 0.000000
-0.001986 -0.000681 0.000000
0.000000 0.000000 0.000000
-0.022966 -0.005690 0.000000
-0.005690 -0.013038 0.000000
0.000000 0.000000 0.000000
0.023499 0.005712 0.000000
0.005712 0.020488 0.000000
0.000000 0.000000 0.000000
-0.024994 0.001065 0.000000
0.001065 0.020616 0.000000
0.000000 0.000000 0.000000
-0.000431 0.004631 0.000000
0.004631 -0.006639 0.000000
0.000000 0.000000 0.000000
-0.021797 0.007420 0.000000
0.007420 0.022042 0.000000
0.000000 0.000000 0.000000
0.005375 0.002838 0.000000
0.002838 -0.009562 0.000000
0.000000 0.000000 0.000000
0.004539 0.002074 0.000000
0.002074 -0.009429 0.000000
0.000000 0.000000 0.000000
-0.014504 0.007267 0.000000
0.007267 -0.024194 0.000000
0.000000 0.000000 0.000000
0.011902 -0.009873 0.000000
-0.009873 -0.001744 0.000000
0.000000 0.000000 0.000000
0.046215 0.012409 0.000000
0.012409 0.012206 0.000000
0.000000 0.000000 0.000000
-0.003121 -0.006945 0.000000
-0.006945 0.012265 0.000000
0.000000 0.000000 0.000000
0.004032 -0.003755 0.000000
-0.003755 0.007945 0.000000
0.000000 0.000000 0.000000
-0.006743 -0.002949 0.000000
-0.002949 0.000643 0.000000
0.000000 0.000000 0.000000
-0.004691 -0.001916 0.000000
-0.001916 0.036872 0.000000
0.000000 0.000000 0.000000
0.004831 -0.006589 0.000000
-0.006589 0.005035 0.000000
0.000000 0.000000 0.000000
-0.021211 0.004404 0.000000
0.004404 -0.048913 0.000000
0.000000 0.000000 0.000000
-0.016204 0.002910 0.000000
0.002910 0.004186 0.000000
0.000000 0.000000 0.000000
0.011289 -0.004098 0.000000
-0.004098 0.019177 0.000000
0.000000 0.000000 0.000000
-0.009518 0.000839 0.000000
0.000839 0.016357 0.000000
0.000000 0.000000 0.000000
0.001139 -0.002138 0.000000
-0.002138 0.004669 0.000000
0.000000 0.000000 0.000000
0.011542 -0.007708 0.000000
-0.007708 -0.029982 0.000000
0.000000 0.000000 0.000000
0.002473 -0.000396 0.000000
-0.000396 0.006340 0.000000
0.000000 0.000000 0.000000
0.042951 0.011306 0.000000
0.011306 0.011366 0.000000
0.000000 0.000000 0.000000
0.031985 -0.009709 0.000000
-0.009709 0.003038 0.000000
0.000000 0.000000 0.000000
0.009770 -0.020352 0.000000
-0.020352 0.008003 0.000000
0.000000 0.000000 0.000000
0.015923 -0.014619 0.000000
-0.014619 0.003127 0.000000
0.000000 0.000000 0.000000
0.014417 -0.000137 0.000000
-0.000137 0.015095 0.000000
0.000000 0.000000 0.000000
0.003432 -0.001307 0.000000
-0.001307 0.010635 0.000000
0.000000 0.000000 0.000000
-0.008746 0.005128 0.000000
0.005128 -0.043181 0.000000
0.000000 0.000000 0.000000
-0.000586 -0.000248 0.000000
-0.000248 0.001462 0.000000
0.000000 0.000000 0.000000
0.004854 -0.002444 0.000000
-0.002444 0.002892 0.000000
0.000000 0.000000 0.000000
0.002883 0.007891 0.000000
0.007891 0.000035 0.000000
0.000000 0.000000 0.000000
-0.001579 -0.003546 0.000000
-0.003546 0.006617 0.000000
0.000000 0.000000 0.000000
0.015412 0.006189 0.000000
0.006189 0.018198 0.000000
0.000000 0.000000 0.000000
-0.000195 -0.000426 0.000000
-0.000426 0.002038 0.000000
0.000000 0.000000 0.000000
-0.000006 -0.005507 0.000000
-0.005507 -0.018728 0.000000
0.000000 0.000000 0.000000
0.007758 0.002346 0.000000
0.002346 -0.010814 0.000000
0.000000 0.000000 0.000000
0.002323 -0.000261 0.000000
-0.000261 0.012623 0.000000
0.000000 0.000000 0.000000
-0.022612 0.002621 0.000000
0.002621 0.014977 0.000000
0.000000 0.000000 0.000000
-0.007444 0.009413 0.000000
0.009413 -0.013832 0.000000
0.000000 0.000000 0.000000
0.022793 -0.010461 0.000000
-0.010461 0.015020 0.000000
0.000000 0.000000 0.000000
-0.007492 0.007939 0.000000
0.007939 -0.015494 0.000000
0.000000 0.000000 0.000000
0.005711 -0.004189 0.000000
-0.004189 0.019337 0.000000
0.000000 0.000000 0.000000
-0.001052 0.008357 0.000000
0.008357 -0.011074 0.000000
0.000000 0.000000 0.000000
-0.019360 -0.003215 0.000000
-0.003215 0.021622 0.000000
0.000000 0.000000 0.000000
-0.016798 0.001795 0.000000
0.001795 0.023886 0.000000
0.000000 0.000000 0.000000
0.013755 -0.001583 0.000000
-0.001583 0.004403 0.000000
0.000000 0.000000 0.000000
-0.001411 -0.003152 0.000000
-0.003152 0.010718 0.000000
0.000000 0.000000 0.000000
-0.007461 -0.000807 0.000000
-0.000807 -0.015023 0.000000
0.000000 0.000000 0.000000
-0.008091 -0.001335 0.000000
-0.001335 0.008327 0.000000
0.000000 0.000000 0.000000
0.009808 0.001997 0.000000
0.001997 0.004355 0.000000
0.000000 0.000000 0.000000
-0.022950 0.003760 0.000000
0.003760 0.005161 0.000000
0.000000 0.000000 0.000000
-0.002441 0.008914 0.000000
0.008914 -0.002465 0.000000
0.000000 0.000000 0.000000
-0.018475 0.002279 0.000000
0.002279 -0.002727 0.000000
0.000000 0.000000 0.000000
-0.014369 -0.002392 0.000000
-0.002392 -0.019216 0.000000
0.000000 0.000000 0.000000
0.003114 -0.004005 0.000000
-0.004005 -0.014870 0.000000
0.000000 0.000000 0.000000
0.006576 0.002236 0.000000
0.002236 0.009943 0.000000
0.000000 0.000000 0.000000
-0.000117 0.012058 0.000000
0.012058 0.019262 0.000000
0.000000 0.000000 0.000000
0.005834 -0.001175 0.000000
-0.001175 0.001674 0.000000
0.000000 0.000000 0.000000
0.020512 0.017623 0.000000
0.017623 0.008745 0.000000
0.000000 0.000000 0.000000
-0.007505 0.001814 0.000000
0.001814 -0.008098 0.000000
0.000000 0.000000 0.000000
0.003536 -0.000216 0.000000
-0.000216 -0.004918 0.000000
0.000000 0.000000 0.000000
-0.004848 0.007153 0.000000
0.007153 -0.011811 0.000000
0.000000 0.000000 0.000000
-0.001747 0.003558 0.000000
0.003558 -0.007136 0.000000
0.000000 0.000000 0.000000
-0.008563 0.004056 0.000000
0.004056 -0.009230 0.000000
0.000000 0.000000 0.000000
-0.019087 -0.000733 0.000000
-0.000733 -0.003791 0.000000
0.000000 0.000000 0.000000
-0.001135 -0.006046 0.000000
-0.006046 0.001270 0.000000
0.000000 0.000000 0.000000
0.000366 0.002337 0.000000
0.002337 0.028413 0.000000
0.000000 0.000000 0.000000
0.002789 0.005171 0.000000
0.005171 -0.000844 0.000000
0.000000 0.000000 0.000000
-0.001032 -0.005768 0.000000
-0.005768 -0.002856 0.000000
0.000000 0.000000 0.000000
0.001241 -0.003534 0.000000
-0.003534 0.005202 0.000000
0.000000 0.000000 0.000000
-0.008959 0.006236 0.000000
0.006236 -0.005365 0.000000
0.000000 0.000000 0.000000
0.020150 -0.005759 0.000000
-0.005759 0.046164 0.000000
0.000000 0.000000 0.000000
-0.004760 0.003141 0.000000
0.003141 -0.007304 0.000000
0.000000 0.000000 0.000000
-0.027482 0.023432 0.000000
0.023432 0.000006 0.000000
0.000000 0.000000 0.000000
-0.008487 0.006723 0.000000
0.006723 -0.000794 0.000000
0.000000 0.000000 0.000000
-0.005449 0.003011 0.000000
0.003011 0.008361 0.000000
0.000000 0.000000 0.000000
-0.012700 0.002713 0.000000
0.002713 -0.000794 0.000000
0.000000 0.000000 0.000000
-0.007060 0.014265 0.000000
0.014265 -0.006185 0.000000
0.000000 0.000000 0.000000
0.002708 0.007372 0.000000
0.007372 0.000251 0.000000
0.000000 0.000000 0.000000
-0.001463 0.001326 0.000000
0.001326 0.002239 0.000000
0.000000 0.000000 0.000000
0.000604 0.002118 0.000000
0.002118 -0.000629 0.000000
0.000000 0.000000 0.000000
0.011270 0.007495 0.000000
0.007495 0.020553 0.000000
0.000000 0.000000 0.000000
0.026584 0.001961 0.000000
0.001961 0.003384 0.000000
0.000000 0.000000 0.000000
0.004480 -0.005045 0.000000
-0.005045 0.000444 0.000000
0.000000 0.000000 0.000000
0.002845 -0.003606 0.000000
-0.003606 -0.011120 0.000000
0.000000 0.000000 0.000000
0.008988 0.009829 0.000000
0.009829 -0.015857 0.000000
0.000000 0.000000 0.000000
0.003073 0.001615 0.000000
0.001615 -0.003674 0.000000
0.000000 0.000000 0.000000
0.011424 0.001918 0.000000
0.001918 0.002980 0.000000
0.000000 0.000000 0.000000
0.007036 -0.007150 0.000000
-0.007150 0.010474 0.000000
0.000000 0.000000 0.000000
-0.005897 0.010166 0.000000
0.010166 -0.022436 0.000000
0.000000 0.000000 0.000000
-0.007910 -0.000008 0.000000
-0.000008 -0.010319 0.000000
0.000000 0.000000 0.000000
0.001852 -0.006620 0.000000
-0.006620 -0.004952 0.000000
0.000000 0.000000 0.000000
0.009591 -0.009601 0.000000
-0.009601 -0.002405 0.000000
0.000000 0.000000 0.000000
0.028680 0.007148 0.000000
0.007148 0.013496 0.000000
0.000000 0.000000 0.000000
0.000312 0.007402 0.000000
0.007402 -0.008089 0.000000
0.000000 0.000000 0.000000
0.004061 -0.001346 0.000000
-0.001346 0.018405 0.000000
0.000000 0.000000 0.000000
-0.021891 -0.006159 0.000000
-0.006159 -0.027804 0.000000
0.000000 0.000000 0.000000
0.010765 -0.008872 0.000000
-0.008872 -0.000879 0.000000
0.000000 0.000000 0.000000
0.006047 -0.015961 0.000000
-0.015961 -0.000264 0.000000
0.000000 0.000000 0.000000
-0.005434 0.004194 0.000000
0.004194 0.001301 0.000000
0.000000 0.000000 0.000000
0.009939 -0.005245 0.000000
-0.005245 -0.006447 0.000000
0.000000 0.000000 0.000000
-0.001710 0.002230 0.000000
0.002230 0.002962 0.000000
0.000000 0.000000 0.000000
0.001529 -0.008031 0.000000
-0.008031 -0.009373 0.000000
0.000000 0.000000 0.000000
-0.001251 -0.000890 0.000000
-0.000890 0.000246 0.000000
0.000000 0.000000 0.000000
0.004299 0.003743 0.000000
0.003743 0.005495 0.000000
0.000000 0.000000 0.000000
-0.007261 -0.002934 0.000000
-0.002934 -0.033317 0.000000
0.000000 0.000000 0.000000
0.003486 -0.007265 0.000000
-0.007265 -0.006807 0.000000
0.000000 0.000000 0.000000
0.004965 0.012720 0.000000
0.012720 0.003833 0.000000
0.000000 0.000000 0.000000
0.000802 -0.000569 0.000000
-0.000569 -0.002917 0.000000
0.000000 0.000000 0.000000
0.005848 0.005053 0.000000
0.005053 0.010364 0.000000
0.000000 0.000000 0.000000
0.007367 0.007476 0.000000
0.007476 -0.010753 0.000000
0.000000 0.000000 0.000000
0.021885 0.009381 0.000000
0.009381 -0.008196 0.000000
0.000000 0.000000 0.000000
0.007288 0.004113 0.000000
0.004113 0.005786 0.000000
0.000000 0.000000 0.000000
0.021526 0.008955 0.000000
0.008955 -0.004883 0.000000
0.000000 0.000000 0.000000
0.003050 -0.000778 0.000000
-0.000778 0.005327 0.000000
0.000000 0.000000 0.000000
0.008575 0.000284 0.000000
0.000284 0.006708 0.000000
0.000000 0.000000 0.000000
-0.006875 -0.002991 0.000000
-0.002991 -0.008712 0.000000
0.000000 0.000000 0.000000
0.008678 -0.005629 0.000000
-0.005629 -0.008235 0.000000
0.000000 0.000000 0.000000
-0.004073 0.007163 0.000000
0.007163 0.001544 0.000000
0.000000 0.000000 0.000000
0.015174 -0.004929 0.000000
-0.004929 0.021369 0.000000
0.000000 0.000000 0.000000
-0.000609 0.009228 0.000000
0.009228 -0.000606 0.000000
0.000000 0.000000 0.000000
0.020315 0.004790 0.000000
0.004790 0.007070 0.000000
0.000000 0.000000 0.000000
0.004314 0.003442 0.000000
0.003442 0.004250 0.000000
0.000000 0.000000 0.000000
-0.005858 -0.009792 0.000000
-0.009792 -0.000297 0.000000
0.000000 0.000000 0.000000
-0.009809 0.010995 0.000000
0.010995 0.000010 0.000000
0.000000 0.000000 0.000000
0.032282 0.006599 0.000000
0.006599 0.027824 0.000000
0.000000 0.000000 0.000000
0.015811 0.005613 0.000000
0.005613 0.015361 0.000000
0.000000 0.000000 0.000000
-0.001224 0.000676 0.000000
0.000676 -0.001564 0.000000
0.000000 0.000000 0.000000
0.045281 0.004519 0.000000
0.004519 0.018215 0.000000
0.000000 0.000000 0.000000
-0.005921 -0.006464 0.000000
-0.006464 0.002563 0.000000
0.000000 0.000000 0.000000
-0.004504 -0.010711 0.000000
-0.010711 -0.012398 0.000000
0.000000 0.000000 0.000000
0.037957 -0.001024 0.000000
-0.001024 -0.017963 0.000000
0.000000 0.000000 0.000000
0.001202 0.005331 0.000000
0.005331 -0.008582 0.000000
0.000000 0.000000 0.000000
0.008464 -0.005393 0.000000
-0.005393 0.019201 0.000000
0.000000 0.000000 0.000000
-0.030454 -0.001253 0.000000
-0.001253 -0.026585 0.000000
0.000000 0.000000 0.000000
0.017175 0.000666 0.000000
0.000666 -0.024437 0.000000
0.000000 0.000000 0.000000
0.017472 0.003477 0.000000
0.003477 0.007271 0.000000
0.000000 0.000000 0.000000
-0.010024 -0.003335 0.000000
-0.003335 -0.010560 0.000000
0.000000 0.000000 0.000000
0.029259 0.006836 0.000000
0.006836 -0.047577 0.000000
0.000000 0.000000 0.000000
-0.005587 0.002035 0.000000
0.002035 -0.001416 0.000000
0.000000 0.000000 0.000000
-0.009884 -0.002340 0.000000
-0.002340 -0.006335 0.000000
0.000000 0.000000 0.000000
-0.022390 -0.004831 0.000000
-0.004831 -0.004258 0.000000
0.000000 0.000000 0.000000
-0.017858 0.012475 0.000000
0.012475 0.008126 0.000000
0.000000 0.000000 0.000000
-0.012121 -0.008417 0.000000
-0.008417 -0.001658 0.000000
0.000000 0.000000 0.000000
0.023189 0.003311 0.000000
0.003311 -0.011750 0.000000
0.000000 0.000000 0.000000
-0.011234 0.009544 0.000000
0.009544 -0.008572 0.000000
0.000000 0.000000 0.000000
0.002957 0.002222 0.000000
0.002222 0.001975 0.000000
0.000000 0.000000 0.000000
-0.019099 0.019408 0.000000
0.019408 0.017501 0.000000
0.000000 0.000000 0.000000
-0.005465 0.008956 0.000000
0.008956 -0.009451 0.000000
0.000000 0.000000 0.000000
0.002478 0.005528 0.000000
0.005528 -0.017520 0.000000
0.000000 0.000000 0.000000
0.009155 0.000127 0.000000
0.000127 0.027625 0.000000
0.000000 0.000000 0.000000
0.010685 -0.003321 0.000000
-0.003321 0.030927 0.000000
0.000000 0.000000 0.000000
-0.017992 -0.009448 0.000000
-0.009448 -0.031110 0.000000
0.000000 0.000000 0.000000
-0.025149 0.017774 0.000000
0.017774 -0.008634 0.000000
0.000000 0.000000 0.000000
0.037012 -0.012735 0.000000
-0.012735 0.023639 0.000000
0.000000 0.000000 0.000000
0.010795 0.010031 0.000000
0.010031 0.000170 0.000000
0.000000 0.000000 0.000000
-0.001292 -0.000585 0.000000
-0.000585 -0.011152 0.000000
0.000000 0.000000 0.000000
0.005421 -0.002714 0.000000
-0.002714 -0.002918 0.000000
0.000000 0.000000 0.000000
-0.008885 0.000575 0.000000
0.000575 -0.001866 0.000000
0.000000 0.000000 0.000000
-0.011494 0.001736 0.000000
0.001736 -0.006255 0.000000
0.000000 0.000000 0.000000
-0.003667 -0.007056 0.000000
-0.007056 -0.008163 0.000000
0.000000 0.000000 0.000000
-0.013339 0.000493 0.000000
0.000493 -0.009402 0.000000
0.000000 0.000000 0.000000
-0.004655 -0.002893 0.000000
-0.002893 0.004548 0.000000
0.000000 0.000000 0.000000
0.004594 0.001966 0.000000
0.001966 0.004971 0.000000
0.000000 0.000000 0.000000
-0.003185 -0.003097 0.000000
-0.003097 0.004892 0.000000
0.000000 0.000000 0.000000
-0.000576 -0.002136 0.000000
-0.002136 0.008293 0.000000
0.000000 0.000000 0.000000
-0.008834 0.003380 0.000000
0.003380 -0.014955 0.000000
0.000000 0.000000 0.000000
-0.003535 -0.007150 0.000000
-0.007150 0.008358 0.000000
0.000000 0.000000 0.000000
-0.003375 -0.007581 0.000000
-0.007581 0.009423 0.000000
0.000000 0.000000 0.000000
0.008312 0.000360 0.000000
0.000360 0.005239 0.000000
0.000000 0.000000 0.000000
0.030892 -0.000799 0.000000
-0.000799 -0.024695 0.000000
0.000000 0.000000 0.000000
-0.041571 0.001254 0.000000
0.001254 -0.030246 0.000000
0.000000 0.000000 0.000000
-0.001631 -0.002065 0.000000
-0.002065 -0.006393 0.000000
0.000000 0.000000 0.000000
-0.003703 -0.023973 0.000000
-0.023973 -0.001887 0.000000
0.000000 0.000000 0.000000
0.002830 -0.003526 0.000000
-0.003526 0.011479 0.000000
0.000000 0.000000 0.000000
-0.014167 0.001344 0.000000
0.001344 -0.000284 0.000000
0.000000 0.000000 0.000000
-0.017557 -0.017251 0.000000
-0.017251 -0.009736 0.000000
0.000000 0.000000 0.000000
0.017745 0.003234 0.000000
0.003234 -0.021800 0.000000
0.000000 0.000000 0.000000
-0.001925 -0.001914 0.000000
-0.001914 0.001479 0.000000
0.000000 0.000000 0.000000
0.000355 -0.003540 0.000000
-0.003540 -0.031202 0.000000
0.000000 0.000000 0.000000
-0.014154 0.002781 0.000000
0.002781 -0.016852 0.000000
0.000000 0.000000 0.000000
-0.007969 0.001052 0.000000
0.001052 0.002265 0.000000
0.000000 0.000000 0.000000
0.007112 0.000113 0.000000
0.000113 -0.010531 0.000000
0.000000 0.000000 0.000000
0.014194 0.001717 0.000000
0.001717 0.020096 0.000000
0.000000 0.000000 0.000000
-0.001893 -0.003249 0.000000
-0.003249 -0.014881 0.000000
0.000000 0.000000 0.000000
0.009506 -0.000691 0.000000
-0.000691 0.011476 0.000000
0.000000 0.000000 0.000000
0.001164 0.002791 0.000000
0.002791 0.002345 0.000000
0.000000 0.000000 0.000000
0.032060 0.009670 0.000000
0.009670 0.020605 0.000000
0.000000 0.000000 0.000000
0.015799 0.008765 0.000000
0.008765 0.017506 0.000000
0.000000 0.000000 0.000000
-0.003247 0.001163 0.000000
0.001163 -0.004785 0.000000
0.000000 0.000000 0.000000
0.008280 -0.003675 0.000000
-0.003675 0.001280 0.000000
0.000000 0.000000 0.000000
-0.001101 -0.001361 0.000000
-0.001361 -0.011259 0.000000
0.000000 0.000000 0.000000
0.000677 0.002475 0.000000
0.002475 -0.002866 0.000000
0.000000 0.000000 0.000000
-0.004769 -0.008633 0.000000
-0.008633 -0.000444 0.000000
0.000000 0.000000 0.000000
-0.010999 0.004999 0.000000
0.004999 -0.020849 0.000000
0.000000 0.000000 0.000000
0.011231 -0.019319 0.000000
-0.019319 -0.002849 0.000000
0.000000 0.000000 0.000000
0.008278 0.020694 0.000000
0.020694 0.008867 0.000000
0.000000 0.000000 0.000000
-0.019134 0.005409 0.000000
0.005409 -0.030624 0.000000
0.000000 0.000000 0.000000
-0.015351 -0.001592 0.000000
-0.001592 -0.008937 0.000000
0.000000 0.000000 0.000000
-0.012495 -0.000190 0.000000
-0.000190 0.001783 0.000000
0.000000 0.000000 0.000000
0.006891 -0.006611 0.000000
-0.006611 -0.020286 0.000000
0.000000 0.000000 0.000000
-0.048125 0.006205 0.000000
0.006205 0.004702 0.000000
0.000000 0.000000 0.000000
-0.007533 0.015974 0.000000
0.015974 0.043526 0.000000
0.000000 0.000000 0.000000
0.002892 0.005420 0.000000
0.005420 0.027518 0.000000
0.000000 0.000000 0.000000
-0.003482 0.001878 0.000000
0.001878 0.034276 0.000000
0.000000 0.000000 0.000000
-0.005912 -0.012729 0.000000
-0.012729 0.017737 0.000000
0.000000 0.000000 0.000000
0.046489 -0.013759 0.000000
-0.013759 -0.014706 0.000000
0.000000 0.000000 0.000000
-0.030299 -0.006870 0.000000
-0.006870 0.021738 0.000000
0.000000 0.000000 0.000000
0.037004 0.007175 0.000000
0.007175 0.004622 0.000000
0.000000 0.000000 0.000000
0.025170 -0.000447 0.000000
-0.000447 0.011081 0.000000
0.000000 0.000000 0.000000
-0.019793 -0.008246 0.000000
-0.008246 -0.016821 0.000000
0.000000 0.000000 0.000000
0.032133 -0.026521 0.000000
-0.026521 0.050490 0.000000
0.000000 0.000000 0.000000
0.025770 -0.005349 0.000000
-0.005349 -0.003572 0.000000
0.000000 0.000000 0.000000
-0.005348 -0.003922 0.000000
-0.003922 0.002674 0.000000
0.000000 0.000000 0.000000
0.012873 -0.001550 0.000000
-0.001550 0.010918 0.000000
0.000000 0.000000 0.000000
0.000079 -0.002963 0.000000
-0.002963 -0.002924 0.000000
0.000000 0.000000 0.000000
0.013068 0.004462 0.000000
0.004462 0.002203 0.000000
0.000000 0.000000 0.000000
-0.010918 0.016871 0.000000
0.016871 0.003830 0.000000
0.000000 0.000000 0.000000
-0.012116 -0.004210 0.000000
-0.004210 -0.000911 0.000000
0.000000 0.000000 0.000000
0.005375 0.007650 0.000000
0.007650 0.011694 0.000000
0.000000 0.000000 0.000000
0.004406 -0.000211 0.000000
-0.000211 0.001783 0.000000
0.000000 0.000000 0.000000
0.001011 -0.000151 0.000000
-0.000151 -0.016478 0.000000
0.000000 0.000000 0.000000
-0.000710 0.006928 0.000000
0.006928 0.001871 0.000000
0.000000 0.000000 0.000000
0.007409 0.005931 0.000000
0.005931 0.002728 0.000000
0.000000 0.000000 0.000000
-0.015225 0.005550 0.000000
0.005550 -0.018903 0.000000
0.000000 0.000000 0.000000
-0.002990 -0.010690 0.000000
-0.010690 0.000207 0.000000
0.000000 0.000000 0.000000
0.052695 0.006675 0.000000
0.006675 0.003179 0.000000
0.000000 0.000000 0.000000
0.007185 -0.003090 0.000000
-0.003090 0.015390 0.000000
0.000000 0.000000 0.000000
-0.016286 -0.001937 0.000000
-0.001937 -0.026396 0.000000
0.000000 0.000000 0.000000
0.015435 0.000066 0.000000
0.000066 0.012091 0.000000
0.000000 0.000000 0.000000
-0.014914 -0.000401 0.000000
-0.000401 -0.005802 0.000000
0.000000 0.000000 0.000000
0.002264 -0.004387 0.000000
-0.004387 0.001622 0.000000
0.000000 0.000000 0.000000
0.023426 -0.001811 0.000000
-0.001811 0.005409 0.000000
0.000000 0.000000 0.000000
0.004256 0.000553 0.000000
0.000553 -0.002675 0.000000
0.000000 0.000000 0.000000
-0.006367 -0.017411 0.000000
-0.017411 -0.000948 0.000000
0.000000 0.000000 0.000000
-0.024940 -0.004959 0.000000
-0.004959 -0.032807 0.000000
0.000000 0.000000 0.000000
0.025911 0.002100 0.000000
0.002100 0.037353 0.000000
0.000000 0.000000 0.000000
-0.005865 -0.002914 0.000000
-0.002914 0.002505 0.000000
0.000000 0.000000 0.000000
-0.008305 0.006022 0.000000
0.006022 -0.013434 0.000000
0.000000 0.000000 0.000000
-0.002538 -0.002679 0.000000
-0.002679 -0.010596 0.000000
0.000000 0.000000 0.000000
-0.006804 -0.002051 0.000000
-0.002051 -0.031082 0.000000
0.000000 0.000000 0.000000
-0.014655 -0.001736 0.000000
-0.001736 -0.006576 0.000000
0.000000 0.000000 0.000000
-0.004109 -0.004025 0.000000
-0.004025 -0.000562 0.000000
0.000000 0.000000 0.000000
0.003858 -0.003028 0.000000
-0.003028 -0.003092 0.000000
0.000000 0.000000 0.000000
-0.010642 0.018378 0.000000
0.018378 0.006699 0.000000
0.000000 0.000000 0.000000
-0.025524 -0.000852 0.000000
-0.000852 -0.013988 0.000000
0.000000 0.000000 0.000000
-0.032494 -0.009709 0.000000
-0.009709 -0.006830 0.000000
0.000000 0.000000 0.000000
-0.012647 -0.015748 0.000000
-0.015748 -0.000438 0.000000
0.000000 0.000000 0.000000
0.008315 0.000479 0.000000
0.000479 0.020127 0.000000
0.000000 0.000000 0.000000
0.034756 -0.005994 0.000000
-0.005994 -0.010655 0.000000
0.000000 0.000000 0.000000
0.000140 -0.007618 0.000000
-0.007618 0.015455 0.000000
0.000000 0.000000 0.000000
0.002344 0.009202 0.000000
0.009202 0.019470 0.000000
0.000000 0.000000 0.000000
0.015034 -0.001081 0.000000
-0.001081 0.022845 0.000000
0.000000 0.000000 0.000000
-0.007845 0.005258 0.000000
0.005258 -0.011355 0.000000
0.000000 0.000000 0.000000
-0.009998 -0.015224 0.000000
-0.015224 -0.029612 0.000000
0.000000 0.000000 0.000000
0.006054 0.002523 0.000000
0.002523 -0.014465 0.000000
0.000000 0.000000 0.000000
0.017625 0.000608 0.000000
0.000608 0.023021 0.000000
0.000000 0.000000 0.000000
0.010461 -0.011262 0.000000
-0.011262 0.024908 0.000000
0.000000 0.000000 0.000000
-0.018996 -0.009554 0.000000
-0.009554 0.023033 0.000000
0.000000 0.000000 0.000000
-0.004522 0.002537 0.000000
0.002537 -0.033284 0.000000
0.000000 0.000000 0.000000
-0.039601 0.006476 0.000000
0.006476 -0.024579 0.000000
0.000000 0.000000 0.000000
-0.005910 0.003454 0.000000
0.003454 -0.017594 0.000000
0.000000 0.000000 0.000000
-0.011788 -0.001217 0.000000
-0.001217 -0.005921 0.000000
0.000000 0.000000 0.000000
-0.006962 -0.006539 0.000000
-0.006539 -0.023836 0.000000
0.000000 0.000000 0.000000
-0.003792 0.003046 0.000000
0.003046 0.019001 0.000000
0.000000 0.000000 0.000000
-0.004897 -0.017916 0.000000
-0.017916 -0.003842 0.000000
0.000000 0.000000 0.000000
0.017081 0.008132 0.000000
0.008132 0.011760 0.000000
0.000000 0.000000 0.000000
-0.008625 0.001644 0.000000
0.001644 -0.014456 0.000000
0.000000 0.000000 0.000000
0.000705 -0.012482 0.000000
-0.012482 0.005201 0.000000
0.000000 0.000000 0.000000
0.007848 -0.005731 0.000000
-0.005731 0.041769 0.000000
0.000000 0.000000 0.000000
-0.007120 -0.002043 0.000000
-0.002043 -0.006851 0.000000
0.000000 0.000000 0.000000
-0.006480 0.001706 0.000000
0.001706 -0.005546 0.000000
0.000000 0.000000 0.000000
0.004197 0.000688 0.000000
0.000688 0.021404 0.000000
0.000000 0.000000 0.000000
-0.001337 0.000801 0.000000
0.000801 -0.011685 0.000000
0.000000 0.000000 0.000000
0.000135 -0.002952 0.000000
-0.002952 -0.015466 0.000000
0.000000 0.000000 0.000000
-0.002050 0.001141 0.000000
0.001141 -0.002553 0.000000
0.000000 0.000000 0.000000
-0.012028 -0.000163 0.000000
-0.000163 0.004525 0.000000
0.000000 0.000000 0.000000
0.006747 0.005156 0.000000
0.005156 -0.002712 0.000000
0.000000 0.000000 0.000000
-0.001486 -0.003353 0.000000
-0.003353 0.003032 0.000000
0.000000 0.000000 0.000000
0.014435 0.003760 0.000000
0.003760 0.020846 0.000000
0.000000 0.000000 0.000000
-0.018001 -0.003282 0.000000
-0.003282 -0.001868 0.000000
0.000000 0.000000 0.000000
-0.004767 0.002030 0.000000
0.002030 -0.019948 0.000000
0.000000 0.000000 0.000000
-0.013917 -0.004755 0.000000
-0.004755 0.003720 0.000000
0.000000 0.000000 0.000000
0.003881 0.003930 0.000000
0.003930 -0.000072 0.000000
0.000000 0.000000 0.000000
0.004612 0.014128 0.000000
0.014128 0.019253 0.000000
0.000000 0.000000 0.000000
0.018286 -0.000125 0.000000
-0.000125 -0.008663 0.000000
0.000000 0.000000 0.000000
-0.012690 0.003069 0.000000
0.003069 -0.008952 0.000000
0.000000 0.000000 0.000000
0.006685 -0.000068 0.000000
-0.000068 0.014186 0.000000
0.000000 0.000000 0.000000
-0.008290 -0.011042 0.000000
-0.011042 -0.013441 0.000000
0.000000 0.000000 0.000000
0.026794 -0.018892 0.000000
-0.018892 0.000213 0.000000
0.000000 0.000000 0.000000
-0.019096 -0.001455 0.000000
-0.001455 -0.008728 0.000000
0.000000 0.000000 0.000000
-0.004777 0.008955 0.000000
0.008955 -0.009477 0.000000
0.000000 0.000000 0.000000
0.007472 -0.015545 0.000000
-0.015545 0.016877 0.000000
0.000000 0.000000 0.000000
0.004268 0.008274 0.000000
0.008274 0.003913 0.000000
0.000000 0.000000 0.000000
0.000491 0.005466 0.000000
0.005466 0.004036 0.000000
0.000000 0.000000 0.000000
-0.001761 -0.010262 0.000000
-0.010262 -0.019446 0.000000
0.000000 0.000000 0.000000
-0.000964 0.002389 0.000000
0.002389 -0.011049 0.000000
0.000000 0.000000 0.000000
-0.007893 0.001373 0.000000
0.001373 0.004005 0.000000
0.000000 0.000000 0.000000
-0.001847 -0.013462 0.000000
-0.013462 -0.010495 0.000000
0.000000 0.000000 0.000000
-0.014255 -0.005215 0.000000
-0.005215 0.007552 0.000000
0.000000 0.000000 0.000000
0.006130 0.007840 0.000000
0.007840 -0.002391 0.000000
0.000000 0.000000 0.000000
-0.008962 -0.000172 0.000000
-0.000172 0.005731 0.000000
0.000000 0.000000 0.000000
0.016009 -0.004943 0.000000
-0.004943 0.008731 0.000000
0.000000 0.000000 0.000000
0.013884 -0.005404 0.000000
-0.005404 0.013646 0.000000
0.000000 0.000000 0.000000
-0.007664 -0.005189 0.000000
-0.005189 0.003193 0.000000
0.000000 0.000000 0.000000
-0.000416 -0.018161 0.000000
-0.018161 0.013183 0.000000
0.000000 0.000000 0.000000
0.014547 -0.013023 0.000000
-0.013023 0.009227 0.000000
0.000000 0.000000 0.000000
-0.000084 0.010645 0.000000
0.010645 -0.004990 0.000000
0.000000 0.000000 0.000000
-0.005004 -0.008413 0.000000
-0.008413 0.003306 0.000000
0.000000 0.000000 0.000000
-0.007668 -0.006528 0.000000
-0.006528 -0.005507 0.000000
0.000000 0.000000 0.000000
-0.005066 0.004462 0.000000
0.004462 -0.001493 0.000000
0.000000 0.000000 0.000000
0.020266 0.003465 0.000000
0.003465 0.040222 0.000000
0.000000 0.000000 0.000000
0.030162 0.017552 0.000000
0.017552 0.014266 0.000000
0.000000 0.000000 0.000000
0.001660 -0.012631 0.000000
-0.012631 0.003749 0.000000
0.000000 0.000000 0.000000
0.013236 -0.008194 0.000000
-0.008194 -0.002298 0.000000
0.000000 0.000000 0.000000
0.009114 -0.013638 0.000000
-0.013638 -0.002688 0.000000
0.000000 0.000000 0.000000
-0.001325 -0.004151 0.000000
-0.004151 0.005234 0.000000
0.000000 0.000000 0.000000
0.012482 0.007032 0.000000
0.007032 0.019650 0.000000
0.000000 0.000000 0.000000
-0.009090 -0.005340 0.000000
-0.005340 -0.028840 0.000000
0.000000 0.000000 0.000000
-0.008592 0.008078 0.000000
0.008078 -0.013009 0.000000
0.000000 0.000000 0.000000
-0.004107 -0.001984 0.000000
-0.001984 -0.005591 0.000000
0.000000 0.000000 0.000000
-0.008559 -0.013701 0.000000
-0.013701 -0.043423 0.000000
0.000000 0.000000 0.000000
-0.003007 -0.003235 0.000000
-0.003235 -0.003098 0.000000
0.000000 0.000000 0.000000
0.003030 -0.003069 0.000000
-0.003069 0.009168 0.000000
0.000000 0.000000 0.000000
0.004186 0.003932 0.000000
0.003932 -0.006870 0.000000
0.000000 0.000000 0.000000
-0.011063 0.004727 0.000000
0.004727 -0.010262 0.000000
0.000000 0.000000 0.000000
0.021893 0.005707 0.000000
0.005707 0.007386 0.000000
0.000000 0.000000 0.000000
-0.000290 -0.006681 0.000000
-0.006681 -0.006735 0.000000
0.000000 0.000000 0.000000
-0.014513 0.006884 0.000000
0.006884 -0.014498 0.000000
0.000000 0.000000 0.000000
-0.005600 0.000791 0.000000
0.000791 -0.010657 0.000000
0.000000 0.000000 0.000000
-0.005934 0.002551 0.000000
0.002551 0.013315 0.000000
0.000000 0.000000 0.000000
0.000202 -0.002546 0.000000
-0.002546 0.002569 0.000000
0.000000 0.000000 0.000000
-0.001172 0.006958 0.000000
0.006958 0.003008 0.000000
0.000000 0.000000 0.000000
-0.013729 -0.002224 0.000000
-0.002224 -0.004568 0.000000
0.000000 0.000000 0.000000
-0.007132 -0.002744 0.000000
-0.002744 -0.010283 0.000000
0.000000 0.000000 0.000000
-0.000530 0.000315 0.000000
0.000315 -0.003754 0.000000
0.000000 0.000000 0.000000
0.013229 -0.006286 0.000000
-0.006286 -0.020766 0.000000
0.000000 0.000000 0.000000
-0.008169 0.001064 0.000000
0.001064 -0.006129 0.000000
0.000000 0.000000 0.000000
0.002367 -0.002472 0.000000
-0.002472 -0.010480 0.000000
0.000000 0.000000 0.000000
-0.017471 0.014014 0.000000
0.014014 -0.011024 0.000000
0.000000 0.000000 0.000000
0.034148 0.014439 0.000000
0.014439 0.016774 0.000000
0.000000 0.000000 0.000000
0.002113 -0.002889 0.000000
-0.002889 0.006203 0.000000
0.000000 0.000000 0.000000
-0.000777 -0.001665 0.000000
-0.001665 0.001574 0.000000
0.000000 0.000000 0.000000
0.009567 0.010809 0.000000
0.010809 0.007215 0.000000
0.000000 0.000000 0.000000
-0.010851 -0.008384 0.000000
-0.008384 -0.011986 0.000000
0.000000 0.000000 0.000000
0.006619 0.007971 0.000000
0.007971 -0.005749 0.000000
0.000000 0.000000 0.000000
0.004622 -0.006734 0.000000
-0.006734 0.009461 0.000000
0.000000 0.000000 0.000000
0.003360 0.006053 0.000000
0.006053 0.012856 0.000000
0.000000 0.000000 0.000000
0.007219 -0.001936 0.000000
-0.001936 -0.002740 0.000000
0.000000 0.000000 0.000000
0.007962 -0.001889 0.000000
-0.001889 -0.011023 0.000000
0.000000 0.000000 0.000000
-0.000455 0.013136 0.000000
0.013136 0.000811 0.000000
0.000000 0.000000 0.000000
-0.003337 0.002809 0.000000
0.002809 -0.005841 0.000000
0.000000 0.000000 0.000000
0.002625 0.010073 0.000000
0.010073 -0.014395 0.000000
0.000000 0.000000 0.000000
0.011732 -0.003684 0.000000
-0.003684 0.003462 0.000000
0.000000 0.000000 0.000000
0.014517 0.011291 0.000000
0.011291 0.015757 0.000000
0.000000 0.000000 0.000000
0.006664 0.010442 0.000000
0.010442 -0.007298 0.000000
0.000000 0.000000 0.000000
-0.000456 0.002912 0.000000
0.002912 -0.003429 0.000000
0.000000 0.000000 0.000000
-0.007524 0.008921 0.000000
0.008921 0.003488 0.000000
0.000000 0.000000 0.000000
0.014549 -0.004839 0.000000
-0.004839 -0.008503 0.000000
0.000000 0.000000 0.000000
0.004618 0.000900 0.000000
0.000900 0.009226 0.000000
0.000000 0.000000 0.000000
0.009538 -0.000493 0.000000
-0.000493 -0.017873 0.000000
0.000000 0.000000 0.000000
0.008524 -0.003404 0.000000
-0.003404 0.008307 0.000000
0.000000 0.000000 0.000000
-0.011288 0.003558 0.000000
0.003558 0.003148 0.000000
0.000000 0.000000 0.000000
0.000582 -0.016268 0.000000
-0.016268 0.000999 0.000000
0.000000 0.000000 0.000000
-0.014565 -0.006928 0.000000
-0.006928 0.005979 0.000000
0.000000 0.000000 0.000000
-0.005348 0.007642 0.000000
0.007642 0.012299 0.000000
0.000000 0.000000 0.000000
0.003460 -0.003245 0.000000
-0.003245 -0.031025 0.000000
0.000000 0.000000 0.000000
-0.001646 -0.003043 0.000000
-0.003043 -0.004850 0.000000
0.000000 0.000000 0.000000
-0.002409 0.001201 0.000000
0.001201 0.017575 0.000000
0.000000 0.000000 0.000000
-0.025557 0.006408 0.000000
0.006408 0.009581 0.000000
0.000000 0.000000 0.000000
-0.005976 0.001295 0.000000
0.001295 0.013779 0.000000
0.000000 0.000000 0.000000
-0.019359 0.001280 0.000000
0.001280 -0.008054 0.000000
0.000000 0.000000 0.000000
0.019551 0.014501 0.000000
0.014501 0.030348 0.000000
0.000000 0.000000 0.000000
-0.016275 0.000790 0.000000
0.000790 0.010565 0.000000
0.000000 0.000000 0.000000
-0.016398 -0.007619 0.000000
-0.007619 0.023413 0.000000
0.000000 0.000000 0.000000
-0.015987 -0.001005 0.000000
-0.001005 0.012996 0.000000
0.000000 0.000000 0.000000
-0.018915 0.002049 0.000000
0.002049 -0.030292 0.000000
0.000000 0.000000 0.000000
0.021789 -0.002364 0.000000
-0.002364 -0.014784 0.000000
0.000000 0.000000 0.000000
-0.014469 0.001173 0.000000
0.001173 0.019050 0.000000
0.000000 0.000000 0.000000
-0.008964 0.004965 0.000000
0.004965 0.026472 0.000000
0.000000 0.000000 0.000000
0.029070 -0.000494 0.000000
-0.000494 0.033882 0.000000
0.000000 0.000000 0.000000
0.012579 -0.016793 0.000000
-0.016793 0.023221 0.000000
0.000000 0.000000 0.000000
-0.012527 0.006206 0.000000
0.006206 -0.007515 0.000000
0.000000 0.000000 0.000000
0.015167 -0.005873 0.000000
-0.005873 0.010811 0.000000
0.000000 0.000000 0.000000
0.016996 -0.006696 0.000000
-0.006696 0.027203 0.000000
0.000000 0.000000 0.000000
-0.003650 0.010085 0.000000
0.010085 -0.006839 0.000000
0.000000 0.000000 0.000000
-0.023590 -0.007496 0.000000
-0.007496 -0.017624 0.000000
0.000000 0.000000 0.000000
-0.006884 -0.000504 0.000000
-0.000504 -0.029379 0.000000
0.000000 0.000000 0.000000
-0.027911 0.002414 0.000000
0.002414 -0.031534 0.000000
0.000000 0.000000 0.000000
-0.004110 -0.003903 0.000000
-0.003903 -0.000640 0.000000
0.000000 0.000000 0.000000
-0.000344 -0.004241 0.000000
-0.004241 -0.006094 0.000000
0.000000 0.000000 0.000000
-0.010576 0.008411 0.000000
0.008411 -0.006662 0.000000
0.000000 0.000000 0.000000
0.003829 0.005611 0.000000
0.005611 0.014525 0.000000
0.000000 0.000000 0.000000
0.004934 0.002291 0.000000
0.002291 -0.004456 0.000000
0.000000 0.000000 0.000000
-0.012184 0.002246 0.000000
0.002246 -0.030532 0.000000
0.000000 0.000000 0.000000
-0.008069 0.005155 0.000000
0.005155 -0.008863 0.000000
0.000000 0.000000 0.000000
0.014285 0.006123 0.000000
0.006123 -0.021130 0.000000
0.000000 0.000000 0.000000
0.007390 0.004014 0.000000
0.004014 0.007970 0.000000
0.000000 0.000000 0.000000
-0.001146 0.007966 0.000000
0.007966 0.001773 0.000000
0.000000 0.000000 0.000000
0.011875 0.003824 0.000000
0.003824 0.007388 0.000000
0.000000 0.000000 0.000000
0.004917 0.007561 0.000000
0.007561 0.014242 0.000000
0.000000 0.000000 0.000000
-0.038663 -0.009282 0.000000
-0.009282 -0.009144 0.000000
0.000000 0.000000 0.000000
-0.001741 0.013613 0.000000
0.013613 0.001861 0.000000
0.000000 0.000000 0.000000
0.012046 0.006930 0.000000
0.006930 0.005551 0.000000
0.000000 0.000000 0.000000
-0.016007 -0.004481 0.000000
-0.004481 -0.004588 0.000000
0.000000 0.000000 0.000000
0.016950 -0.012818 0.000000
-0.012818 0.000125 0.000000
0.000000 0.000000 0.000000
0.022770 -0.007079 0.000000
-0.007079 0.009124 0.000000
0.000000 0.000000 0.000000
-0.012711 -0.007133 0.000000
-0.007133 -0.015510 0.000000
0.000000 0.000000 0.000000
-0.002963 -0.002186 0.000000
-0.002186 -0.008838 0.000000
0.000000 0.000000 0.000000
-0.010835 0.010335 0.000000
0.010335 0.017817 0.000000
0.000000 0.000000 0.000000
-0.006508 -0.004833 0.000000
-0.004833 0.005017 0.000000
0.000000 0.000000 0.000000
-0.002978 0.001555 0.000000
0.001555 -0.000712 0.000000
0.000000 0.000000 0.000000
-0.003107 -0.001950 0.000000
-0.001950 0.011641 0.000000
0.000000 0.000000 0.000000
-0.009675 0.006617 0.000000
0.006617 -0.020390 0.000000
0.000000 0.000000 0.000000
0.003839 0.002174 0.000000
0.002174 0.001225 0.000000
0.000000 0.000000 0.000000
-0.002313 -0.004032 0.000000
-0.004032 0.008018 0.000000
0.000000 0.000000 0.000000
-0.011267 0.002336 0.000000
0.002336 -0.028502 0.000000
0.000000 0.000000 0.000000
0.000359 -0.001694 0.000000
-0.001694 -0.002827 0.000000
0.000000 0.000000 0.000000
-0.003404 0.003924 0.000000
0.003924 -0.003335 0.000000
0.000000 0.000000 0.000000
0.004878 -0.004429 0.000000
-0.004429 0.000821 0.000000
0.000000 0.000000 0.000000
0.010537 -0.001000 0.000000
-0.001000 -0.005637 0.000000
0.000000 0.000000 0.000000
0.005602 -0.005655 0.000000
-0.005655 -0.003738 0.000000
0.000000 0.000000 0.000000
-0.028739 0.015702 0.000000
0.015702 0.011096 0.000000
0.000000 0.000000 0.000000
-0.008579 0.006230 0.000000
0.006230 0.008404 0.000000
0.000000 0.000000 0.000000
0.009519 0.001255 0.000000
0.001255 0.002939 0.000000
0.000000 0.000000 0.000000
-0.006765 0.005108 0.000000
0.005108 -0.018638 0.000000
0.000000 0.000000 0.000000
0.001876 0.000291 0.000000
0.000291 0.009256 0.000000
0.000000 0.000000 0.000000
0.010730 -0.009731 0.000000
-0.009731 0.023118 0.000000
0.000000 0.000000 0.000000
0.003455 -0.003585 0.000000
-0.003585 0.004718 0.000000
0.000000 0.000000 0.000000
0.015232 -0.008382 0.000000
-0.008382 0.025223 0.000000
0.000000 0.000000 0.000000
-0.012132 0.010543 0.000000
0.010543 0.001466 0.000000
0.000000 0.000000 0.000000
-0.015384 0.000757 0.000000
0.000757 -0.010839 0.000000
0.000000 0.000000 0.000000
0.005252 -0.011358 0.000000
-0.011358 0.005068 0.000000
0.000000 0.000000 0.000000
0.009356 -0.025197 0.000000
-0.025197 0.006392 0.000000
0.000000 0.000000 0.000000
0.012634 -0.001162 0.000000
-0.001162 -0.017977 0.000000
0.000000 0.000000 0.000000
0.000597 0.018261 0.000000
0.018261 -0.001904 0.000000
0.000000 0.000000 0.000000
0.021632 0.007708 0.000000
0.007708 0.020840 0.000000
0.000000 0.000000 0.000000
-0.050175 0.005893 0.000000
0.005893 -0.003175 0.000000
0.000000 0.000000 0.000000
-0.009547 0.001466 0.000000
0.001466 -0.008261 0.000000
0.000000 0.000000 0.000000
-0.000575 0.005948 0.000000
0.005948 0.002397 0.000000
0.000000 0.000000 0.000000
0.007755 0.002614 0.000000
0.002614 0.021906 0.000000
0.000000 0.000000 0.000000
0.013483 0.000317 0.000000
0.000317 -0.002957 0.000000
0.000000 0.000000 0.000000
0.001423 -0.000427 0.000000
-0.000427 0.022797 0.000000
0.000000 0.000000 0.000000
0.016929 0.001062 0.000000
0.001062 0.023414 0.000000
0.000000 0.000000 0.000000
0.017215 0.000559 0.000000
0.000559 0.017570 0.000000
0.000000 0.000000 0.000000
-0.003564 0.000604 0.000000
0.000604 -0.009512 0.000000
0.000000 0.000000 0.000000
0.002250 -0.008482 0.000000
-0.008482 -0.000688 0.000000
0.000000 0.000000 0.000000
0.006201 -0.012712 0.000000
-0.012712 -0.020515 0.000000
0.000000 0.000000 0.000000
0.005606 0.005610 0.000000
0.005610 0.005316 0.000000
0.000000 0.000000 0.000000
-0.010884 0.000345 0.000000
0.000345 -0.005994 0.000000
0.000000 0.000000 0.000000
-0.014560 -0.002581 0.000000
-0.002581 -0.001110 0.000000
0.000000 0.000000 0.000000
0.022403 -0.003433 0.000000
-0.003433 0.003512 0.000000
0.000000 0.000000 0.000000
-0.001908 0.003940 0.000000
0.003940 0.024770 0.000000
0.000000 0.000000 0.000000
-0.000472 -0.015290 0.000000
-0.015290 -0.003691 0.000000
0.000000 0.000000 0.000000
0.002495 -0.005775 0.000000
-0.005775 0.011172 0.000000
0.000000 0.000000 0.000000
0.027413 0.010707 0.000000
0.010707 0.007893 0.000000
0.000000 0.000000 0.000000
-0.010739 -0.001097 0.000000
-0.001097 -0.035265 0.000000
0.000000 0.000000 0.000000
-0.011553 -0.000940 0.000000
-0.000940 0.014063 0.000000
0.000000 0.000000 0.000000
0.029634 -0.004742 0.000000
-0.004742 0.006930 0.000000
0.000000 0.000000 0.000000
-0.000552 0.025590 0.000000
0.025590 0.016702 0.000000
0.000000 0.000000 0.000000
0.013241 0.000547 0.000000
0.000547 0.010811 0.000000
0.000000 0.000000 0.000000
-0.008251 0.019743 0.000000
0.019743 0.000907 0.000000
0.000000 0.000000 0.000000
0.009518 -0.003245 0.000000
-0.003245 0.004570 0.000000
0.000000 0.000000 0.000000
0.037833 0.017748 0.000000
0.017748 0.024705 0.000000
0.000000 0.000000 0.000000
0.012321 -0.002705 0.000000
-0.002705 0.014265 0.000000
0.000000 0.000000 0.000000
-0.012737 0.008820 0.000000
0.008820 -0.008167 0.000000
0.000000 0.000000 0.000000
0.000110 0.002117 0.000000
0.002117 0.001934 0.000000
0.000000 0.000000 0.000000
-0.008265 -0.011261 0.000000
-0.011261 -0.030768 0.000000
0.000000 0.000000 0.000000
0.005741 -0.003299 0.000000
-0.003299 0.003734 0.000000
0.000000 0.000000 0.000000
-0.008900 -0.020391 0.000000
-0.020391 -0.009152 0.000000
0.000000 0.000000 0.000000
-0.006463 0.012561 0.000000
0.012561 0.012352 0.000000
0.000000 0.000000 0.000000
-0.002373 0.002693 0.000000
0.002693 -0.007173 0.000000
0.000000 0.000000 0.000000
-0.000834 0.001421 0.000000
0.001421 0.003838 0.000000
0.000000 0.000000 0.000000
0.002774 0.002052 0.000000
0.002052 -0.005869 0.000000
0.000000 0.000000 0.000000
-0.010380 0.006232 0.000000
0.006232 -0.000950 0.000000
0.000000 0.000000 0.000000
0.017598 0.001358 0.000000
0.001358 0.004998 0.000000
0.000000 0.000000 0.000000
-0.009255 0.000679 0.000000
0.000679 -0.013266 0.000000
0.000000 0.000000 0.000000
-0.000797 -0.000278 0.000000
-0.000278 0.013691 0.000000
0.000000 0.000000 0.000000
0.010039 -0.005441 0.000000
-0.005441 0.007745 0.000000
0.000000 0.000000 0.000000
0.026300 0.003161 0.000000
0.003161 0.031918 0.000000
0.000000 0.000000 0.000000
0.010252 0.000210 0.000000
0.000210 0.034463 0.000000
0.000000 0.000000 0.000000
0.000729 0.002769 0.000000
0.002769 0.003474 0.000000
0.000000 0.000000 0.000000
0.004452 0.004780 0.000000
0.004780 0.005226 0.000000
0.000000 0.000000 0.000000
0.004546 -0.001553 0.000000
-0.001553 0.016615 0.000000
0.000000 0.000000 0.000000
-0.005201 -0.005955 0.000000
-0.005955 -0.012743 0.000000
0.000000 0.000000 0.000000
-0.001900 0.013462 0.000000
0.013462 -0.005100 0.000000
0.000000 0.000000 0.000000
-0.007629 0.014453 0.000000
0.014453 0.005593 0.000000
0.000000 0.000000 0.000000
-0.011316 0.005641 0.000000
0.005641 -0.029871 0.000000
0.000000 0.000000 0.000000
0.017917 0.005756 0.000000
0.005756 0.000483 0.000000
0.000000 0.000000 0.000000
-0.010733 0.006029 0.000000
0.006029 -0.004452 0.000000
0.000000 0.000000 0.000000
-0.010423 0.005908 0.000000
0.005908 0.004252 0.000000
0.000000 0.000000 0.000000
-0.002333 -0.000337 0.000000
-0.000337 0.002976 0.000000
0.000000 0.000000 0.000000
-0.004444 0.001926 0.000000
0.001926 0.010628 0.000000
0.000000 0.000000 0.000000
-0.009779 -0.002010 0.000000
-0.002010 -0.026703 0.000000
0.000000 0.000000 0.000000
0.000245 0.001084 0.000000
0.001084 -0.006101 0.000000
0.000000 0.000000 0.000000
-0.008220 0.004468 0.000000
0.004468 0.007252 0.000000
0.000000 0.000000 0.000000
-0.000451 -0.007761 0.000000
-0.007761 -0.014370 0.000000
0.000000 0.000000 0.000000
-0.015543 0.001625 0.000000
0.001625 -0.011651 0.000000
0.000000 0.000000 0.000000
0.013246 0.002785 0.000000
0.002785 -0.000217 0.000000
0.000000 0.000000 0.000000
0.002107 -0.015802 0.000000
-0.015802 0.007992 0.000000
0.000000 0.000000 0.000000
-0.000892 0.009238 0.000000
0.009238 -0.007532 0.000000
0.000000 0.000000 0.000000
-0.001230 -0.002646 0.000000
-0.002646 0.020795 0.000000
0.000000 0.000000 0.000000
0.007986 -0.002478 0.000000
-0.002478 0.026558 0.000000
0.000000 0.000000 0.000000
-0.021853 -0.015767 0.000000
-0.015767 -0.022190 0.000000
0.000000 0.000000 0.000000
-0.009425 0.000009 0.000000
0.000009 -0.021237 0.000000
0.000000 0.000000 0.000000
0.019815 -0.002359 0.000000
-0.002359 0.020569 0.000000
0.000000 0.000000 0.000000
-0.012567 0.008456 0.000000
0.008456 -0.002876 0.000000
0.000000 0.000000 0.000000
-0.006086 -0.012707 0.000000
-0.012707 -0.002310 0.000000
0.000000 0.000000 0.000000
0.013491 0.000704 0.000000
0.000704 0.008124 0.000000
0.000000 0.000000 0.000000
0.001863 -0.002701 0.000000
-0.002701 0.032076 0.000000
0.000000 0.000000 0.000000
0.000123 -0.001907 0.000000
-0.001907 0.007551 0.000000
0.000000 0.000000 0.000000
0.004691 0.000617 0.000000
0.000617 -0.002580 0.000000
0.000000 0.000000 0.000000
-0.014138 0.004402 0.000000
0.004402 -0.007150 0.000000
0.000000 0.000000 0.000000
-0.004208 -0.003529 0.000000
-0.003529 0.006626 0.000000
0.000000 0.000000 0.000000
0.008070 0.002032 0.000000
0.002032 0.031085 0.000000
0.000000 0.000000 0.000000
0.006082 -0.006555 0.000000
-0.006555 0.003398 0.000000
0.000000 0.000000 0.000000
0.005924 -0.002705 0.000000
-0.002705 0.003473 0.000000
0.000000 0.000000 0.000000
0.008046 -0.001763 0.000000
-0.001763 0.001437 0.000000
0.000000 0.000000 0.000000
0.003057 -0.000704 0.000000
-0.000704 0.008830 0.000000
0.000000 0.000000 0.000000
-0.006432 0.005054 0.000000
0.005054 -0.003817 0.000000
0.000000 0.000000 0.000000
-0.015096 0.017514 0.000000
0.017514 -0.019445 0.000000
0.000000 0.000000 0.000000
0.002293 0.003091 0.000000
0.003091 -0.003906 0.000000
0.000000 0.000000 0.000000
0.005128 -0.003833 0.000000
-0.003833 -0.001596 0.000000
0.000000 0.000000 0.000000
-0.028068 0.001054 0.000000
0.001054 0.012050 0.000000
0.000000 0.000000 0.000000
-0.007053 -0.007314 0.000000
-0.007314 -0.006902 0.000000
0.000000 0.000000 0.000000
-0.016410 -0.001612 0.000000
-0.001612 -0.015486 0.000000
0.000000 0.000000 0.000000
0.002786 -0.005280 0.000000
-0.005280 0.008880 0.000000
0.000000 0.000000 0.000000
-0.001121 -0.008854 0.000000
-0.008854 -0.003393 0.000000
0.000000 0.000000 0.000000
0.014169 0.008708 0.000000
0.008708 0.011108 0.000000
0.000000 0.000000 0.000000
0.017694 -0.010894 0.000000
-0.010894 0.011338 0.000000
0.000000 0.000000 0.000000
0.026710 0.009229 0.000000
0.009229 0.014281 0.000000
0.000000 0.000000 0.000000
-0.039851 0.000243 0.000000
0.000243 -0.016010 0.000000
0.000000 0.000000 0.000000
-0.001333 -0.004902 0.000000
-0.004902 0.010847 0.000000
0.000000 0.000000 0.000000
-0.006759 -0.002643 0.000000
-0.002643 -0.012188 0.000000
0.000000 0.000000 0.000000
-0.029036 -0.001079 0.000000
-0.001079 -0.024769 0.000000
0.000000 0.000000 0.000000
-0.005980 0.000173 0.000000
0.000173 -0.012401 0.000000
0.000000 0.000000 0.000000
-0.007339 -0.001976 0.000000
-0.001976 -0.013712 0.000000
0.000000 0.000000 0.000000
-0.000905 -0.005064 0.000000
-0.005064 -0.006891 0.000000
0.000000 0.000000 0.000000
-0.002309 -0.001235 0.000000
-0.001235 -0.004743 0.000000
0.000000 0.000000 0.000000
0.012975 -0.002730 0.000000
-0.002730 0.000087 0.000000
0.000000 0.000000 0.000000
0.004823 -0.005491 0.000000
-0.005491 0.012973 0.000000
0.000000 0.000000 0.000000
0.028605 -0.008476 0.000000
-0.008476 0.013816 0.000000
0.000000 0.000000 0.000000
0.009411 -0.005505 0.000000
-0.005505 0.010382 0.000000
0.000000 0.000000 0.000000
0.000636 0.000325 0.000000
0.000325 0.007077 0.000000
0.000000 0.000000 0.000000
0.011289 0.001705 0.000000
0.001705 0.031333 0.000000
0.000000 0.000000 0.000000
0.024343 -0.003985 0.000000
-0.003985 0.033909 0.000000
0.000000 0.000000 0.000000
-0.000507 0.012828 0.000000
0.012828 -0.002445 0.000000
0.000000 0.000000 0.000000
0.007061 -0.001775 0.000000
-0.001775 0.036161 0.000000
0.000000 0.000000 0.000000
0.013009 0.011589 0.000000
0.011589 -0.003638 0.000000
0.000000 0.000000 0.000000
-0.000988 -0.002268 0.000000
-0.002268 0.000021 0.000000
0.000000 0.000000 0.000000
0.007778 -0.000780 0.000000
-0.000780 0.012109 0.000000
0.000000 0.000000 0.000000
0.005022 0.001506 0.000000
0.001506 0.007838 0.000000
0.000000 0.000000 0.000000
0.011098 0.000387 0.000000
0.000387 0.005421 0.000000
0.000000 0.000000 0.000000
-0.002801 -0.009418 0.000000
-0.009418 -0.001111 0.000000
0.000000 0.000000 0.000000
0.001318 0.002452 0.000000
0.002452 0.019658 0.000000
0.000000 0.000000 0.000000
0.018266 0.006344 0.000000
0.006344 0.016282 0.000000
0.000000 0.000000 0.000000
0.009229 0.004775 0.000000
0.004775 0.029693 0.000000
0.000000 0.000000 0.000000
0.013546 0.000531 0.000000
0.000531 0.023770 0.000000
0.000000 0.000000 0.000000
-0.018962 -0.003007 0.000000
-0.003007 -0.008492 0.000000
0.000000 0.000000 0.000000
-0.001305 0.001547 0.000000
0.001547 -0.011360 0.000000
0.000000 0.000000 0.000000
-0.017935 -0.002385 0.000000
-0.002385 -0.007150 0.000000
0.000000 0.000000 0.000000
-0.010062 0.007107 0.000000
0.007107 0.013125 0.000000
0.000000 0.000000 0.000000
0.000415 -0.007187 0.000000
-0.007187 -0.029181 0.000000
0.000000 0.000000 0.000000
-0.011080 0.000251 0.000000
0.000251 0.007816 0.000000
0.000000 0.000000 0.000000
0.004342 0.010524 0.000000
0.010524 0.011456 0.000000
0.000000 0.000000 0.000000
-0.001419 0.003080 0.000000
0.003080 0.003570 0.000000
0.000000 0.000000 0.000000
0.000283 -0.009160 0.000000
-0.009160 -0.015833 0.000000
0.000000 0.000000 0.000000
0.008946 0.004988 0.000000
0.004988 -0.002540 0.000000
0.000000 0.000000 0.000000
0.001478 0.001180 0.000000
0.001180 0.006546 0.000000
0.000000 0.000000 0.000000
-0.004055 -0.002562 0.000000
-0.002562 -0.003324 0.000000
0.000000 0.000000 0.000000
0.002558 -0.004033 0.000000
-0.004033 -0.001917 0.000000
0.000000 0.000000 0.000000
0.006713 -0.001031 0.000000
-0.001031 0.001440 0.000000
0.000000 0.000000 0.000000
0.006531 -0.000553 0.000000
-0.000553 0.009156 0.000000
0.000000 0.000000 0.000000
0.014346 0.007752 0.000000
0.007752 0.005735 0.000000
0.000000 0.000000 0.000000
0.011355 0.013446 0.000000
0.013446 0.026847 0.000000
0.000000 0.000000 0.000000
-0.015248 0.011896 0.000000
0.011896 -0.009428 0.000000
0.000000 0.000000 0.000000
-0.004709 0.007181 0.000000
0.007181 0.020900 0.000000
0.000000 0.000000 0.000000
-0.016648 -0.006958 0.000000
-0.006958 -0.003687 0.000000
0.000000 0.000000 0.000000
0.009185 -0.011449 0.000000
-0.011449 0.004500 0.000000
0.000000 0.000000 0.000000
-0.007384 -0.007529 0.000000
-0.007529 -0.015057 0.000000
0.000000 0.000000 0.000000
0.008123 0.005049 0.000000
0.005049 0.014220 0.000000
0.000000 0.000000 0.000000
-0.000107 0.005750 0.000000
0.005750 0.010154 0.000000
0.000000 0.000000 0.000000
0.004567 0.006666 0.000000
0.006666 0.005349 0.000000
0.000000 0.000000 0.000000
-0.007565 0.000758 0.000000
0.000758 -0.001120 0.000000
0.000000 0.000000 0.000000
0.009291 0.003173 0.000000
0.003173 -0.000795 0.000000
0.000000 0.000000 0.000000
0.022020 0.001722 0.000000
0.001722 0.005835 0.000000
0.000000 0.000000 0.000000
0.004172 -0.020870 0.000000
-0.020870 0.002829 0.000000
0.000000 0.000000 0.000000
-0.007524 -0.005236 0.000000
-0.005236 0.019892 0.000000
0.000000 0.000000 0.000000
-0.003903 -0.005795 0.000000
-0.005795 -0.012449 0.000000
0.000000 0.000000 0.000000
0.004961 -0.008778 0.000000
-0.008778 0.033553 0.000000
0.000000 0.000000 0.000000
0.011925 -0.002275 0.000000
-0.002275 -0.032315 0.000000
0.000000 0.000000 0.000000
0.031111 0.008211 0.000000
0.008211 0.030989 0.000000
0.000000 0.000000 0.000000
-0.007131 -0.007837 0.000000
-0.007837 0.006729 0.000000
0.000000 0.000000 0.000000
-0.026076 -0.007990 0.000000
-0.007990 -0.007422 0.000000
0.000000 0.000000 0.000000
0.028639 -0.009993 0.000000
-0.009993 0.003632 0.000000
0.000000 0.000000 0.000000
0.011852 -0.009483 0.000000
-0.009483 0.003926 0.000000
0.000000 0.000000 0.000000
0.002426 -0.005984 0.000000
-0.005984 -0.006972 0.000000
0.000000 0.000000 0.000000
0.011489 -0.001380 0.000000
-0.001380 0.010072 0.000000
0.000000 0.000000 0.000000
0.002650 -0.016295 0.000000
-0.016295 -0.003785 0.000000
0.000000 0.000000 0.000000
0.020947 -0.002519 0.000000
-0.002519 0.018353 0.000000
0.000000 0.000000 0.000000
0.002721 0.000332 0.000000
0.000332 0.017224 0.000000
0.000000 0.000000 0.000000
-0.018201 -0.000809 0.000000
-0.000809 -0.014472 0.000000
0.000000 0.000000 0.000000
0.019605 -0.004997 0.000000
-0.004997 -0.002093 0.000000
0.000000 0.000000 0.000000
0.001122 0.013057 0.000000
0.013057 0.010640 0.000000
0.000000 0.000000 0.000000
-0.016572 -0.007686 0.000000
-0.007686 -0.024082 0.000000
0.000000 0.000000 0.000000
0.001642 0.004032 0.000000
0.004032 0.002596 0.000000
0.000000 0.000000 0.000000
0.009797 -0.001961 0.000000
-0.001961 0.017378 0.000000
0.000000 0.000000 0.000000
0.013019 -0.004443 0.000000
-0.004443 0.012425 0.000000
0.000000 0.000000 0.000000
-0.004343 0.002174 0.000000
0.002174 -0.011873 0.000000
0.000000 0.000000 0.000000
-0.001652 0.012376 0.000000
0.012376 -0.001441 0.000000
0.000000 0.000000 0.000000
-0.010966 0.000305 0.000000
0.000305 -0.004229 0.000000
0.000000 0.000000 0.000000
-0.010057 0.006917 0.000000
0.006917 -0.013752 0.000000
0.000000 0.000000 0.000000
-0.009261 -0.001190 0.000000
-0.001190 -0.000532 0.000000
0.000000 0.000000 0.000000
-0.007017 0.002750 0.000000
0.002750 0.002819 0.000000
0.000000 0.000000 0.000000
0.007709 0.002281 0.000000
0.002281 -0.001874 0.000000
0.000000 0.000000 0.000000
-0.023868 0.001517 0.000000
0.001517 -0.006235 0.000000
0.000000 0.000000 0.000000
0.010150 0.002115 0.000000
0.002115 0.001908 0.000000
0.000000 0.000000 0.000000
-0.019867 0.004997 0.000000
0.004997 0.016546 0.000000
0.000000 0.000000 0.000000
-0.017229 0.007503 0.000000
0.007503 -0.008964 0.000000
0.000000 0.000000 0.000000
0.019699 0.002993 0.000000
0.002993 0.038935 0.000000
0.000000 0.000000 0.000000
-0.008077 0.000895 0.000000
0.000895 0.003095 0.000000
0.000000 0.000000 0.000000
0.009692 0.005928 0.000000
0.005928 0.003414 0.000000
0.000000 0.000000 0.000000
0.006914 0.005913 0.000000
0.005913 0.009628 0.000000
0.000000 0.000000 0.000000
-0.015638 -0.004501 0.000000
-0.004501 -0.009781 0.000000
0.000000 0.000000 0.000000
-0.002599 0.003267 0.000000
0.003267 -0.025391 0.000000
0.000000 0.000000 0.000000
-0.013438 0.000320 0.000000
0.000320 -0.035825 0.000000
0.000000 0.000000 0.000000
-0.008086 0.008390 0.000000
0.008390 -0.010688 0.000000
0.000000 0.000000 0.000000
0.007037 -0.006306 0.000000
-0.006306 0.004945 0.000000
0.000000 0.000000 0.000000
-0.000044 0.007118 0.000000
0.007118 0.006062 0.000000
0.000000 0.000000 0.000000
-0.039146 0.001037 0.000000
0.001037 -0.025078 0.000000
0.000000 0.000000 0.000000
-0.011789 0.017820 0.000000
0.017820 0.009359 0.000000
0.000000 0.000000 0.000000
0.003300 -0.000891 0.000000
-0.000891 -0.001513 0.000000
0.000000 0.000000 0.000000
-0.008048 -0.000335 0.000000
-0.000335 -0.001844 0.000000
0.000000 0.000000 0.000000
0.002949 -0.019471 0.000000
-0.019471 -0.024242 0.000000
0.000000 0.000000 0.000000
0.008491 0.005099 0.000000
0.005099 0.026843 0.000000
0.000000 0.000000 0.000000
-0.004596 0.005545 0.000000
0.005545 -0.000142 0.000000
0.000000 0.000000 0.000000
-0.006341 0.005359 0.000000
0.005359 0.002061 0.000000
0.000000 0.000000 0.000000
0.001288 0.010501 0.000000
0.010501 -0.010205 0.000000
0.000000 0.000000 0.000000
-0.004530 0.004125 0.000000
0.004125 0.020653 0.000000
0.000000 0.000000 0.000000
0.010611 0.005023 0.000000
0.005023 -0.005928 0.000000
0.000000 0.000000 0.000000
0.017265 0.004176 0.000000
0.004176 0.016261 0.000000
0.000000 0.000000 0.000000
-0.017392 -0.002341 0.000000
-0.002341 -0.014068 0.000000
0.000000 0.000000 0.000000
-0.007365 0.001225 0.000000
0.001225 -0.010515 0.000000
0.000000 0.000000 0.000000
-0.009243 0.000824 0.000000
0.000824 0.015129 0.000000
0.000000 0.000000 0.000000
0.025345 -0.006186 0.000000
-0.006186 -0.013374 0.000000
0.000000 0.000000 0.000000
-0.018959 0.002198 0.000000
0.002198 -0.032653 0.000000
0.000000 0.000000 0.000000
0.002506 0.010928 0.000000
0.010928 -0.023794 0.000000
0.000000 0.000000 0.000000
-0.024129 -0.006852 0.000000
-0.006852 0.008271 0.000000
0.000000 0.000000 0.000000
-0.000022 -0.009659 0.000000
-0.009659 -0.016911 0.000000
0.000000 0.000000 0.000000
-0.003177 0.001508 0.000000
0.001508 -0.004458 0.000000
0.000000 0.000000 0.000000
0.003492 0.002520 0.000000
0.002520 0.019534 0.000000
0.000000 0.000000 0.000000
-0.000727 -0.001316 0.000000
-0.001316 0.000607 0.000000
0.000000 0.000000 0.000000
-0.001808 0.003027 0.000000
0.003027 0.003820 0.000000
0.000000 0.000000 0.000000
0.005281 0.005346 0.000000
0.005346 -0.001817 0.000000
0.000000 0.000000 0.000000
-0.002777 0.000458 0.000000
0.000458 -0.009241 0.000000
0.000000 0.000000 0.000000
0.002638 0.007925 0.000000
0.007925 -0.010634 0.000000
0.000000 0.000000 0.000000
-0.008805 -0.001264 0.000000
-0.001264 -0.012066 0.000000
0.000000 0.000000 0.000000
-0.016418 -0.005424 0.000000
-0.005424 -0.010341 0.000000
0.000000 0.000000 0.000000
0.020066 -0.004996 0.000000
-0.004996 0.013460 0.000000
0.000000 0.000000 0.000000
-0.003289 -0.001430 0.000000
-0.001430 -0.010069 0.000000
0.000000 0.000000 0.000000
0.007960 0.002134 0.000000
0.002134 -0.003747 0.000000
0.000000 0.000000 0.000000
-0.004270 -0.003663 0.000000
-0.003663 0.018203 0.000000
0.000000 0.000000 0.000000
-0.013060 -0.004031 0.000000
-0.004031 -0.012863 0.000000
0.000000 0.000000 0.000000
-0.010668 0.006392 0.000000
0.006392 0.007422 0.000000
0.000000 0.000000 0.000000
-0.014314 -0.005020 0.000000
-0.005020 -0.022886 0.000000
0.000000 0.000000 0.000000
-0.005259 0.001059 0.000000
0.001059 -0.000463 0.000000
0.000000 0.000000 0.000000
0.015101 -0.004834 0.000000
-0.004834 -0.004142 0.000000
0.000000 0.000000 0.000000
-0.001707 -0.000060 0.000000
-0.000060 0.007423 0.000000
0.000000 0.000000 0.000000
0.005930 0.005219 0.000000
0.005219 0.014135 0.000000
0.000000 0.000000 0.000000
-0.001448 -0.004032 0.000000
-0.004032 -0.005692 0.000000
0.000000 0.000000 0.000000
-0.001574 0.000498 0.000000
0.000498 -0.008852 0.000000
0.000000 0.000000 0.000000
0.016235 -0.006437 0.000000
-0.006437 -0.009299 0.000000
0.000000 0.000000 0.000000
0.015756 -0.002304 0.000000
-0.002304 0.010783 0.000000
0.000000 0.000000 0.000000
0.005783 -0.003929 0.000000
-0.003929 0.010506 0.000000
0.000000 0.000000 0.000000
-0.001060 -0.001155 0.000000
-0.001155 -0.002630 0.000000
0.000000 0.000000 0.000000
0.002455 -0.005761 0.000000
-0.005761 -0.002881 0.000000
0.000000 0.000000 0.000000
-0.007392 0.012828 0.000000
0.012828 0.022664 0.000000
0.000000 0.000000 0.000000
-0.005471 0.000672 0.000000
0.000672 -0.004482 0.000000
0.000000 0.000000 0.000000
0.007732 0.002270 0.000000
0.002270 0.003376 0.000000
0.000000 0.000000 0.000000
-0.002600 0.006339 0.000000
0.006339 -0.006265 0.000000
0.000000 0.000000 0.000000
-0.002731 -0.001999 0.000000
-0.001999 -0.003366 0.000000
0.000000 0.000000 0.000000
0.008530 -0.015107 0.000000
-0.015107 -0.004514 0.000000
0.000000 0.000000 0.000000
-0.021822 0.010983 0.000000
0.010983 0.000275 0.000000
0.000000 0.000000 0.000000
-0.015749 0.000303 0.000000
0.000303 0.019421 0.000000
0.000000 0.000000 0.000000
-0.010181 0.003498 0.000000
0.003498 0.005174 0.000000
0.000000 0.000000 0.000000
0.004865 0.002635 0.000000
0.002635 0.005395 0.000000
0.000000 0.000000 0.000000
-0.014410 -0.002926 0.000000
-0.002926 -0.007806 0.000000
0.000000 0.000000 0.000000
-0.022259 0.010449 0.000000
0.010449 -0.018192 0.000000
0.000000 0.000000 0.000000
0.002794 0.004358 0.000000
0.004358 -0.001516 0.000000
0.000000 0.000000 0.000000
0.005093 0.002941 0.000000
0.002941 0.013849 0.000000
0.000000 0.000000 0.000000
-0.005871 -0.004937 0.000000
-0.004937 -0.011721 0.000000
0.000000 0.000000 0.000000
-0.007333 -0.003537 0.000000
-0.003537 -0.007388 0.000000
0.000000 0.000000 0.000000
0.004379 -0.006901 0.000000
-0.006901 0.003227 0.000000
0.000000 0.000000 0.000000
0.002919 0.002484 0.000000
0.002484 -0.004572 0.000000
0.000000 0.000000 0.000000
0.003605 0.000232 0.000000
0.000232 -0.002547 0.000000
0.000000 0.000000 0.000000
0.012254 0.003768 0.000000
0.003768 -0.013191 0.000000
0.000000 0.000000 0.000000
-0.017400 -0.004319 0.000000
-0.004319 -0.012424 0.000000
0.000000 0.000000 0.000000
0.024866 -0.010040 0.000000
-0.010040 0.020370 0.000000
0.000000 0.000000 0.000000
-0.014520 0.013158 0.000000
0.013158 -0.023779 0.000000
0.000000 0.000000 0.000000
0.013481 0.002619 0.000000
0.002619 0.021509 0.000000
0.000000 0.000000 0.000000
-0.000544 0.013890 0.000000
0.013890 0.001719 0.000000
0.000000 0.000000 0.000000
-0.007035 -0.002616 0.000000
-0.002616 -0.010724 0.000000
0.000000 0.000000 0.000000
0.012032 0.002612 0.000000
0.002612 0.001512 0.000000
0.000000 0.000000 0.000000
-0.007883 -0.002661 0.000000
-0.002661 0.001267 0.000000
0.000000 0.000000 0.000000
-0.005533 -0.004204 0.000000
-0.004204 -0.008572 0.000000
0.000000 0.000000 0.000000
0.001878 -0.003147 0.000000
-0.003147 0.001710 0.000000
0.000000 0.000000 0.000000
0.003519 -0.008771 0.000000
-0.008771 -0.000980 0.000000
0.000000 0.000000 0.000000
0.010157 -0.012477 0.000000
-0.012477 -0.018234 0.000000
0.000000 0.000000 0.000000
-0.002365 -0.008561 0.000000
-0.008561 0.005792 0.000000
0.000000 0.000000 0.000000
0.004475 -0.001526 0.000000
-0.001526 0.004227 0.000000
0.000000 0.000000 0.000000
0.015444 -0.019536 0.000000
-0.019536 0.015002 0.000000
0.000000 0.000000 0.000000
-0.007068 -0.002025 0.000000
-0.002025 -0.000866 0.000000
0.000000 0.000000 0.000000
0.003654 -0.000686 0.000000
-0.000686 0.000457 0.000000
0.000000 0.000000 0.000000
0.008189 0.002989 0.000000
0.002989 0.006927 0.000000
0.000000 0.000000 0.000000
-0.002280 0.001432 0.000000
0.001432 0.001311 0.000000
0.000000 0.000000 0.000000
-0.008514 0.005325 0.000000
0.005325 0.017698 0.000000
0.000000 0.000000 0.000000
-0.005841 -0.001014 0.000000
-0.001014 0.004722 0.000000
0.000000 0.000000 0.000000
0.018163 0.002033 0.000000
0.002033 -0.040215 0.000000
0.000000 0.000000 0.000000
-0.002000 0.001184 0.000000
0.001184 0.028566 0.000000
0.000000 0.000000 0.000000
0.012295 -0.011659 0.000000
-0.011659 0.027769 0.000000
0.000000 0.000000 0.000000
-0.013046 -0.002951 0.000000
-0.002951 -0.026981 0.000000
0.000000 0.000000 0.000000
-0.007701 0.002375 0.000000
0.002375 0.002556 0.000000
0.000000 0.000000 0.000000
0.005132 -0.002846 0.000000
-0.002846 -0.001941 0.000000
0.000000 0.000000 0.000000
-0.012820 0.003365 0.000000
0.003365 -0.018754 0.000000
0.000000 0.000000 0.000000
-0.011333 0.008292 0.000000
0.008292 -0.021764 0.000000
0.000000 0.000000 0.000000
0.009818 -0.005465 0.000000
-0.005465 0.018319 0.000000
0.000000 0.000000 0.000000
0.007831 0.002690 0.000000
0.002690 -0.011494 0.000000
0.000000 0.000000 0.000000
-0.007465 -0.014513 0.000000
-0.014513 -0.001173 0.000000
0.000000 0.000000 0.000000
-0.001570 0.008146 0.000000
0.008146 -0.000684 0.000000
0.000000 0.000000 0.000000
-0.013155 0.009338 0.000000
0.009338 -0.001707 0.000000
0.000000 0.000000 0.000000
-0.029617 0.000690 0.000000
0.000690 0.013025 0.000000
0.000000 0.000000 0.000000
0.000886 0.002312 0.000000
0.002312 -0.003682 0.000000
0.000000 0.000000 0.000000
-0.003111 -0.003727 0.000000
-0.003727 -0.013923 0.000000
0.000000 0.000000 0.000000
-0.009552 -0.001943 0.000000
-0.001943 -0.003619 0.000000
0.000000 0.000000 0.000000
0.001866 -0.000787 0.000000
-0.000787 -0.010825 0.000000
0.000000 0.000000 0.000000
0.001471 -0.011603 0.000000
-0.011603 0.013968 0.000000
0.000000 0.000000 0.000000
-0.021863 -0.000044 0.000000
-0.000044 -0.021598 0.000000
0.000000 0.000000 0.000000
-0.000141 -0.001814 0.000000
-0.001814 -0.003709 0.000000
0.000000 0.000000 0.000000
0.003394 -0.002871 0.000000
-0.002871 -0.031253 0.000000
0.000000 0.000000 0.000000
-0.004254 -0.000540 0.000000
-0.000540 0.005201 0.000000
0.000000 0.000000 0.000000
-0.010035 0.003194 0.000000
0.003194 -0.002155 0.000000
0.000000 0.000000 0.000000
-0.007415 0.008234 0.000000
0.008234 0.022046 0.000000
0.000000 0.000000 0.000000
-0.012715 -0.003597 0.000000
-0.003597 -0.002351 0.000000
0.000000 0.000000 0.000000
-0.006524 -0.002526 0.000000
-0.002526 -0.011217 0.000000
0.000000 0.000000 0.000000
-0.007925 -0.006793 0.000000
-0.006793 0.007084 0.000000
0.000000 0.000000 0.000000
0.020832 -0.004326 0.000000
-0.004326 -0.009016 0.000000
0.000000 0.000000 0.000000
-0.017487 -0.003272 0.000000
-0.003272 -0.009123 0.000000
0.000000 0.000000 0.000000
-0.011309 -0.000263 0.000000
-0.000263 0.000595 0.000000
0.000000 0.000000 0.000000
0.005459 -0.007547 0.000000
-0.007547 0.005569 0.000000
0.000000 0.000000 0.000000
0.000016 0.007870 0.000000
0.007870 0.016609 0.000000
0.000000 0.000000 0.000000
0.001153 -0.005802 0.000000
-0.005802 -0.004863 0.000000
0.000000 0.000000 0.000000
-0.017653 -0.003980 0.000000
-0.003980 -0.002442 0.000000
0.000000 0.000000 0.000000
-0.013997 -0.001032 0.000000
-0.001032 -0.014635 0.000000
0.000000 0.000000 0.000000
-0.006431 -0.004833 0.000000
-0.004833 -0.015343 0.000000
0.000000 0.000000 0.000000
-0.003626 0.001859 0.000000
0.001859 -0.011989 0.000000
0.000000 0.000000 0.000000
0.005077 -0.002141 0.000000
-0.002141 0.006241 0.000000
0.000000 0.000000 0.000000
-0.005782 -0.003232 0.000000
-0.003232 -0.012229 0.000000
0.000000 0.000000 0.000000
-0.006677 0.007299 0.000000
0.007299 -0.002670 0.000000
0.000000 0.000000 0.000000
0.007669 0.003221 0.000000
0.003221 0.017494 0.000000
0.000000 0.000000 0.000000
0.001641 0.006683 0.000000
0.006683 0.038935 0.000000
0.000000 0.000000 0.000000
0.040729 -0.006510 0.000000
-0.006510 -0.007054 0.000000
0.000000 0.000000 0.000000
-0.010165 -0.002274 0.000000
-0.002274 -0.004151 0.000000
0.000000 0.000000 0.000000
-0.003394 -0.002367 0.000000
-0.002367 -0.015304 0.000000
0.000000 0.000000 0.000000
-0.014519 -0.007043 0.000000
-0.007043 -0.016301 0.000000
0.000000 0.000000 0.000000
-0.003850 -0.010114 0.000000
-0.010114 0.032058 0.000000
0.000000 0.000000 0.000000
0.010338 0.014983 0.000000
0.014983 -0.002318 0.000000
0.000000 0.000000 0.000000
0.010296 0.008488 0.000000
0.008488 0.016617 0.000000
0.000000 0.000000 0.000000
-0.004625 -0.007001 0.000000
-0.007001 0.007210 0.000000
0.000000 0.000000 0.000000
0.000380 -0.006923 0.000000
-0.006923 0.007464 0.000000
0.000000 0.000000 0.000000
-0.010436 -0.002752 0.000000
-0.002752 -0.002985 0.000000
0.000000 0.000000 0.000000
0.017023 0.002937 0.000000
0.002937 0.023691 0.000000
0.000000 0.000000 0.000000
0.014271 0.005089 0.000000
0.005089 0.018847 0.000000
0.000000 0.000000 0.000000
0.023905 0.003219 0.000000
0.003219 0.020336 0.000000
0.000000 0.000000 0.000000
0.018839 0.006551 0.000000
0.006551 0.014491 0.000000
0.000000 0.000000 0.000000
-0.012279 -0.000749 0.000000
-0.000749 -0.004912 0.000000
0.000000 0.000000 0.000000
-0.014459 0.003392 0.000000
0.003392 -0.020323 0.000000
0.000000 0.000000 0.000000
0.012314 0.004900 0.000000
0.004900 0.012868 0.000000
0.000000 0.000000 0.000000
-0.000543 -0.010877 0.000000
-0.010877 -0.008952 0.000000
0.000000 0.000000 0.000000
-0.001221 0.011425 0.000000
0.011425 -0.008662 0.000000
0.000000 0.000000 0.000000
-0.006996 -0.011441 0.000000
-0.011441 -0.012661 0.000000
0.000000 0.000000 0.000000
-0.005585 -0.002307 0.000000
-0.002307 0.006608 0.000000
0.000000 0.000000 0.000000
-0.006761 -0.004558 0.000000
-0.004558 0.007880 0.000000
0.000000 0.000000 0.000000
0.009959 -0.002081 0.000000
-0.002081 0.004944 0.000000
0.000000 0.000000 0.000000
-0.017359 -0.009573 0.000000
-0.009573 -0.010094 0.000000
0.000000 0.000000 0.000000
-0.013616 -0.007053 0.000000
-0.007053 -0.011100 0.000000
0.000000 0.000000 0.000000
-0.008644 -0.007667 0.000000
-0.007667 -0.023360 0.000000
0.000000 0.000000 0.000000
0.008702 -0.004543 0.000000
-0.004543 0.022309 0.000000
0.000000 0.000000 0.000000
-0.000450 -0.009113 0.000000
-0.009113 0.000443 0.000000
0.000000 0.000000 0.000000
0.004227 -0.007064 0.000000
-0.007064 0.005114 0.000000
0.000000 0.000000 0.000000
0.029384 -0.003842 0.000000
-0.003842 0.011705 0.000000
0.000000 0.000000 0.000000
0.011428 -0.008482 0.000000
-0.008482 0.002794 0.000000
0.000000 0.000000 0.000000
0.009261 -0.003588 0.000000
-0.003588 -0.005228 0.000000
0.000000 0.000000 0.000000
0.007021 0.001702 0.000000
0.001702 0.004434 0.000000
0.000000 0.000000 0.000000
-0.005472 -0.005070 0.000000
-0.005070 -0.009912 0.000000
0.000000 0.000000 0.000000
0.013648 -0.007250 0.000000
-0.007250 0.005115 0.000000
0.000000 0.000000 0.000000
-0.012477 0.005295 0.000000
0.005295 -0.016461 0.000000
0.000000 0.000000 0.000000
0.000427 -0.003135 0.000000
-0.003135 -0.008427 0.000000
0.000000 0.000000 0.000000
0.005698 -0.001420 0.000000
-0.001420 0.008484 0.000000
0.000000 0.000000 0.000000
-0.004278 0.006921 0.000000
0.006921 -0.006492 0.000000
0.000000 0.000000 0.000000
-0.010894 0.002992 0.000000
0.002992 -0.012821 0.000000
0.000000 0.000000 0.000000
-0.011681 0.005801 0.000000
0.005801 -0.014433 0.000000
0.000000 0.000000 0.000000
0.009145 -0.016523 0.000000
-0.016523 -0.006755 0.000000
0.000000 0.000000 0.000000
-0.023903 0.005175 0.000000
0.005175 -0.033789 0.000000
0.000000 0.000000 0.000000
-0.012916 0.006529 0.000000
0.006529 0.017373 0.000000
0.000000 0.000000 0.000000
0.018109 0.004976 0.000000
0.004976 0.018429 0.000000
0.000000 0.000000 0.000000
-0.014919 0.016004 0.000000
0.016004 0.006738 0.000000
0.000000 0.000000 0.000000
0.004405 -0.006001 0.000000
-0.006001 -0.015956 0.000000
0.000000 0.000000 0.000000
-0.019477 0.003143 0.000000
0.003143 -0.031069 0.000000
0.000000 0.000000 0.000000
-0.009857 -0.002589 0.000000
-0.002589 -0.001917 0.000000
0.000000 0.000000 0.000000
0.007256 0.009532 0.000000
0.009532 -0.005831 0.000000
0.000000 0.000000 0.000000
-0.031728 -0.012038 0.000000
-0.012038 -0.019299 0.000000
0.000000 0.000000 0.000000
-0.001186 -0.001767 0.000000
-0.001767 -0.001350 0.000000
0.000000 0.000000 0.000000
-0.018239 0.011823 0.000000
0.011823 -0.019245 0.000000
0.000000 0.000000 0.000000
-0.016317 0.009202 0.000000
0.009202 -0.015418 0.000000
0.000000 0.000000 0.000000
0.008607 0.002577 0.000000
0.002577 0.014494 0.000000
0.000000 0.000000 0.000000
0.012940 0.007274 0.000000
0.007274 -0.032299 0.000000
0.000000 0.000000 0.000000
-0.005393 0.005993 0.000000
0.005993 -0.002429 0.000000
0.000000 0.000000 0.000000
0.002890 0.006381 0.000000
0.006381 -0.002548 0.000000
0.000000 0.000000 0.000000
-0.011868 -0.003579 0.000000
-0.003579 -0.004012 0.000000
0.000000 0.000000 0.000000
-0.018437 -0.000722 0.000000
-0.000722 -0.023256 0.000000
0.000000 0.000000 0.000000
0.009544 -0.013950 0.000000
-0.013950 0.015237 0.000000
0.000000 0.000000 0.000000
-0.010320 0.005983 0.000000
0.005983 -0.002692 0.000000
0.000000 0.000000 0.000000
-0.018446 -0.006414 0.000000
-0.006414 -0.007121 0.000000
0.000000 0.000000 0.000000
-0.014720 -0.001283 0.000000
-0.001283 0.005731 0.000000
0.000000 0.000000 0.000000
-0.011559 -0.001767 0.000000
-0.001767 0.005853 0.000000
0.000000 0.000000 0.000000
0.016075 -0.010938 0.000000
-0.010938 0.019740 0.000000
0.000000 0.000000 0.000000
-0.011594 0.004498 0.000000
0.004498 -0.006765 0.000000
0.000000 0.000000 0.000000
0.048881 0.002039 0.000000
0.002039 -0.016369 0.000000
0.000000 0.000000 0.000000
-0.033124 -0.009568 0.000000
-0.009568 0.016404 0.000000
0.000000 0.000000 0.000000
-0.019520 0.000933 0.000000
0.000933 -0.012376 0.000000
0.000000 0.000000 0.000000
-0.006975 0.001668 0.000000
0.001668 0.010229 0.000000
0.000000 0.000000 0.000000
-0.011639 -0.009151 0.000000
-0.009151 -0.001623 0.000000
0.000000 0.000000 0.000000
-0.011038 -0.005838 0.000000
-0.005838 0.006026 0.000000
0.000000 0.000000 0.000000
-0.008710 -0.011123 0.000000
-0.011123 0.003569 0.000000
0.000000 0.000000 0.000000
-0.012628 -0.004433 0.000000
-0.004433 0.003248 0.000000
0.000000 0.000000 0.000000
0.021502 -0.004290 0.000000
-0.004290 -0.012342 0.000000
0.000000 0.000000 0.000000
-0.011675 -0.013630 0.000000
-0.013630 0.011764 0.000000
0.000000 0.000000 0.000000
0.004502 0.004275 0.000000
0.004275 -0.004949 0.000000
0.000000 0.000000 0.000000
-0.008030 -0.008941 0.000000
-0.008941 0.030483 0.000000
0.000000 0.000000 0.000000
0.009959 -0.015607 0.000000
-0.015607 -0.006074 0.000000
0.000000 0.000000 0.000000
0.021737 0.006121 0.000000
0.006121 0.007285 0.000000
0.000000 0.000000 0.000000
0.019490 0.003835 0.000000
0.003835 -0.014144 0.000000
0.000000 0.000000 0.000000
-0.001522 0.017139 0.000000
0.017139 0.014877 0.000000
0.000000 0.000000 0.000000
0.012563 -0.000804 0.000000
-0.000804 0.014414 0.000000
0.000000 0.000000 0.000000
0.009155 -0.005507 0.000000
-0.005507 0.014130 0.000000
0.000000 0.000000 0.000000
0.010577 -0.009147 0.000000
-0.009147 0.014965 0.000000
0.000000 0.000000 0.000000
0.005515 -0.001573 0.000000
-0.001573 0.017021 0.000000
0.000000 0.000000 0.000000
-0.013722 0.010801 0.000000
0.010801 -0.009341 0.000000
0.000000 0.000000 0.000000
-0.003401 0.002909 0.000000
0.002909 0.011820 0.000000
0.000000 0.000000 0.000000
-0.026619 0.010918 0.000000
0.010918 -0.000713 0.000000
0.000000 0.000000 0.000000
0.010385 0.007302 0.000000
0.007302 0.005422 0.000000
0.000000 0.000000 0.000000
0.022135 0.014859 0.000000
0.014859 0.019797 0.000000
0.000000 0.000000 0.000000
0.004073 -0.001258 0.000000
-0.001258 -0.010210 0.000000
0.000000 0.000000 0.000000
-0.011497 -0.003183 0.000000
-0.003183 -0.017708 0.000000
0.000000 0.000000 0.000000
0.025173 -0.007829 0.000000
-0.007829 0.007895 0.000000
0.000000 0.000000 0.000000
0.008328 -0.007332 0.000000
-0.007332 0.006004 0.000000
0.000000 0.000000 0.000000
0.019906 0.007587 0.000000
0.007587 0.019610 0.000000
0.000000 0.000000 0.000000
-0.002939 0.000854 0.000000
0.000854 -0.010515 0.000000
0.000000 0.000000 0.000000
-0.003127 0.005672 0.000000
0.005672 -0.001785 0.000000
0.000000 0.000000 0.000000
-0.012427 -0.001704 0.000000
-0.001704 -0.005102 0.000000
0.000000 0.000000 0.000000
-0.003990 -0.003377 0.000000
-0.003377 0.002305 0.000000
0.000000 0.000000 0.000000
-0.002316 0.001880 0.000000
0.001880 -0.010448 0.000000
0.000000 0.000000 0.000000
-0.006314 0.000973 0.000000
0.000973 -0.010865 0.000000
0.000000 0.000000 0.000000
-0.003958 0.000952 0.000000
0.000952 -0.012116 0.000000
0.000000 0.000000 0.000000
-0.004771 0.001794 0.000000
0.001794 -0.009425 0.000000
0.000000 0.000000 0.000000
0.012579 -0.015585 0.000000
-0.015585 0.002361 0.000000
0.000000 0.000000 0.000000
0.000509 -0.016488 0.000000
-0.016488 -0.033798 0.000000
0.000000 0.000000 0.000000
-0.035435 -0.026254 0.000000
-0.026254 -0.035403 0.000000
0.000000 0.000000 0.000000
-0.004565 -0.001606 0.000000
-0.001606 0.001871 0.000000
0.000000 0.000000 0.000000
0.004309 0.003042 0.000000
0.003042 -0.009478 0.000000
0.000000 0.000000 0.000000
0.013077 -0.007324 0.000000
-0.007324 0.013271 0.000000
0.000000 0.000000 0.000000
0.007528 0.002647 0.000000
0.002647 -0.004566 0.000000
0.000000 0.000000 0.000000
-0.004055 -0.001504 0.000000
-0.001504 -0.008783 0.000000
0.000000 0.000000 0.000000
