# vtk DataFile Version 2.0
Test
ASCII
DATASET POLYDATA
POINTS 97 float
-205.000000 -205.000000 0.000000
205.000000 -205.000000 0.000000
205.000000 205.000000 0.000000
-205.000000 205.000000 0.000000
0.000000 -205.000000 0.000000
-153.750000 -205.000000 0.000000
-102.500000 -205.000000 0.000000
-51.250000 -205.000000 0.000000
51.250000 -205.000000 0.000000
102.500000 -205.000000 0.000000
153.750000 -205.000000 0.000000
205.000000 -153.750000 0.000000
205.000000 -102.500000 0.000000
205.000000 -51.250000 0.000000
205.000000 -0.000000 0.000000
205.000000 51.250000 0.000000
205.000000 102.500000 0.000000
205.000000 153.750000 0.000000
153.750000 205.000000 0.000000
102.500000 205.000000 0.000000
51.250000 205.000000 0.000000
0.000000 205.000000 0.000000
-51.250000 205.000000 0.000000
-102.500000 205.000000 0.000000
-153.750000 205.000000 0.000000
-205.000000 153.750000 0.000000
-205.000000 102.500000 0.000000
-205.000000 51.250000 0.000000
-205.000000 0.000000 0.000000
-205.000000 -51.250000 0.000000
-205.000000 -102.500000 0.000000
-205.000000 -153.750000 0.000000
-72.309307 150.744115 0.000000
-122.170417 161.421253 0.000000
-106.146329 122.691578 0.000000
150.873809 72.272136 0.000000
161.368136 122.018395 0.000000
122.676205 105.801169 0.000000
-159.148565 -69.992271 0.000000
-162.675753 -119.824896 0.000000
-120.084956 -95.865595 0.000000
69.800365 -159.180431 0.000000
119.704753 -162.689534 0.000000
95.498730 -120.123484 0.000000
117.123586 147.962553 0.000000
73.600931 161.954083 0.000000
157.456954 173.121825 0.000000
145.697627 -117.699418 0.000000
161.939688 -73.719548 0.000000
172.358730 -157.773159 0.000000
-148.108562 117.181511 0.000000
-162.148075 73.739321 0.000000
-173.171497 157.475461 0.000000
-117.711349 -145.927533 0.000000
-73.869243 -162.201213 0.000000
-157.772850 -172.417071 0.000000
-126.110294 37.876317 0.000000
-170.929692 31.387493 0.000000
-115.191201 83.975229 0.000000
37.420088 126.242787 0.000000
30.760135 170.728498 0.000000
83.846851 115.046848 0.000000
119.895919 -43.681672 0.000000
170.728498 -30.760135 0.000000
119.683860 -89.390781 0.000000
-43.829763 -120.277766 0.000000
-31.387493 -170.929692 0.000000
-89.365290 -120.256422 0.000000
-151.924259 -14.293339 0.000000
-13.617663 150.952999 0.000000
149.698674 12.564753 0.000000
13.118934 -150.764487 0.000000
-29.690279 -27.447292 0.000000
-29.234155 29.650084 0.000000
-85.171816 -0.896624 0.000000
0.000000 0.000000 0.000000
-1.652619 85.558431 0.000000
28.711644 29.230328 0.000000
83.648499 0.849702 0.000000
27.619752 -28.848665 0.000000
0.058665 -83.554250 0.000000
-76.880990 -36.147223 0.000000
-44.223411 -72.334368 0.000000
-81.140504 -81.903932 0.000000
36.060729 -76.651479 0.000000
72.225405 -43.901614 0.000000
81.623388 -80.994607 0.000000
-74.303777 45.987100 0.000000
-74.059084 99.727976 0.000000
45.975927 74.317002 0.000000
99.629653 73.747389 0.000000
74.644104 42.561543 0.000000
-42.532239 75.118648 0.000000
49.360135 -111.878123 0.000000
-112.391848 -49.849831 0.000000
112.743992 38.023242 0.000000
-38.291935 113.397166 0.000000
POLYGONS 160 640
3 33 34 35
3 34 33 24
3 23 24 33
3 36 37 38
3 37 36 17
3 16 17 36
3 39 40 41
3 40 39 31
3 30 31 39
3 42 43 44
3 43 42 10
3 9 10 42
3 45 20 46
3 45 47 20
3 20 21 46
3 48 13 49
3 48 50 13
3 13 14 49
3 51 27 52
3 51 53 27
3 27 28 52
3 54 7 55
3 54 56 7
3 7 8 55
3 43 11 50
3 24 25 34
3 57 52 58
3 57 59 52
3 43 50 48
3 17 18 37
3 60 46 61
3 60 62 46
3 40 32 56
3 31 32 40
3 63 49 64
3 63 65 49
3 40 56 54
3 10 11 43
3 66 55 67
3 66 68 55
3 58 69 57
3 58 29 69
3 61 70 60
3 61 22 70
3 64 71 63
3 64 15 71
3 67 72 66
3 67 5 72
3 73 74 75
3 73 76 74
3 75 57 69
3 77 74 78
3 74 76 78
3 60 70 77
3 79 78 80
3 78 76 80
3 63 71 79
3 80 73 81
3 80 76 73
3 81 66 72
3 37 18 47
3 34 51 35
3 35 51 59
3 37 47 45
3 37 45 38
3 38 45 62
3 34 25 53
3 43 48 44
3 44 48 65
3 34 53 51
3 40 54 41
3 41 54 68
3 59 51 52
3 62 45 46
3 65 48 49
3 68 54 55
3 73 82 83
3 19 20 47
3 83 82 84
3 12 13 50
3 80 85 86
3 26 27 53
3 86 85 87
3 6 7 56
3 75 74 88
3 83 66 81
3 81 73 83
3 84 66 83
3 53 4 26
3 25 4 53
3 47 3 19
3 18 3 47
3 50 2 12
3 11 2 50
3 32 1 56
3 56 1 6
3 57 88 59
3 88 89 59
3 60 90 62
3 90 91 62
3 78 92 90
3 92 91 90
3 74 93 88
3 93 89 88
3 44 94 42
3 44 87 94
3 41 95 39
3 29 30 69
3 67 8 5
3 41 84 95
3 22 23 70
3 65 87 44
3 88 57 75
3 90 60 77
3 64 14 15
3 62 91 38
3 77 78 90
3 28 58 52
3 15 16 71
3 61 21 22
3 87 65 63
3 75 95 82
3 59 89 35
3 21 61 46
3 84 68 66
3 82 73 75
3 58 28 29
3 68 84 41
3 86 63 79
3 14 64 49
3 5 9 72
3 42 72 9
3 79 80 86
3 87 63 86
3 36 71 16
3 8 67 55
3 36 38 91
3 92 96 91
3 33 70 23
3 33 35 89
3 92 78 79
3 39 69 30
3 79 96 92
3 93 97 89
3 93 74 77
3 70 33 97
3 97 77 70
3 97 33 89
3 77 97 93
3 69 39 95
3 95 75 69
3 85 94 87
3 85 80 81
3 71 36 96
3 96 79 71
3 96 36 91
3 81 94 85
3 72 42 94
3 94 81 72
3 82 95 84
POINT_DATA 97
SCALARS UX float 1
LOOKUP_TABLE default
0.000000
0.000000
0.000000
-0.000000
-0.000000
0.000000
-0.000000
0.000000
-0.000000
0.000000
-0.000000
0.000000
0.000000
0.000000
0.000000
-0.000000
-0.000000
0.000000
-0.000000
0.000000
-0.000000
-0.000000
0.000000
-0.000000
0.000000
-0.000000
0.000000
-0.000000
0.000000
0.000000
-0.000000
0.000000
-0.000000
-0.000000
0.000000
-0.000000
-0.000000
-0.000000
-0.000000
-0.000000
-0.000000
0.000000
-0.000000
-0.000000
0.000000
0.000000
0.000000
0.000000
0.000000
0.000000
-0.000000
0.000000
-0.000000
0.000000
-0.000000
0.000000
0.000000
-0.000000
-0.000000
0.000000
-0.000000
-0.000000
0.000000
0.000000
0.000000
0.000000
-0.000000
0.000000
0.000000
0.000000
-0.000000
0.000000
-0.000000
-0.000000
0.000000
0.000000
-0.000000
0.000000
-0.000000
0.000000
0.000000
-0.000000
-0.000000
-0.000000
-0.000000
0.000000
0.000000
0.000000
0.000000
0.000000
0.000000
0.000000
0.000000
-0.000000
-0.000000
-0.000000
-0.000000
SCALARS UY float 1
LOOKUP_TABLE default
-0.000000
-0.000000
-0.000000
-0.000000
-0.000000
0.000000
-0.000000
0.000000
0.000000
-0.000000
0.000000
0.000000
-0.000000
0.000000
-0.000000
0.000000
-0.000000
0.000000
0.000000
-0.000000
0.000000
-0.000000
0.000000
-0.000000
0.000000
0.000000
-0.000000
0.000000
-0.000000
0.000000
-0.000000
0.000000
0.000000
-0.000000
0.000000
-0.000000
0.000000
0.000000
-0.000000
-0.000000
0.000000
-0.000000
0.000000
0.000000
0.000000
0.000000
0.000000
0.000000
0.000000
-0.000000
0.000000
0.000000
0.000000
0.000000
-0.000000
0.000000
-0.000000
0.000000
-0.000000
0.000000
-0.000000
0.000000
-0.000000
-0.000000
0.000000
-0.000000
0.000000
0.000000
-0.000000
-0.000000
-0.000000
0.000000
0.000000
0.000000
-0.000000
0.000000
0.000000
0.000000
-0.000000
0.000000
-0.000000
0.000000
-0.000000
0.000000
-0.000000
0.000000
0.000000
0.000000
0.000000
0.000000
0.000000
0.000000
0.000000
-0.000000
0.000000
-0.000000
0.000000
CELL_DATA 160
TENSORS STRESS float
0.000000 0.000000 0.000000
0.000000 -0.000000 0.000000
0.000000 0.000000 0.000000
0.000000 0.000000 0.000000
0.000000 -0.000000 0.000000
0.000000 0.000000 0.000000
-0.000000 0.000000 0.000000
0.000000 -0.000000 0.000000
0.000000 0.000000 0.000000
-0.000000 0.000000 0.000000
0.000000 0.000000 0.000000
0.000000 0.000000 0.000000
0.000000 -0.000000 0.000000
-0.000000 0.000000 0.000000
0.000000 0.000000 0.000000
0.000000 0.000000 0.000000
0.000000 0.000000 0.000000
0.000000 0.000000 0.000000
-0.000000 0.000000 0.000000
0.000000 -0.000000 0.000000
0.000000 0.000000 0.000000
-0.000000 -0.000000 0.000000
-0.000000 -0.000000 0.000000
0.000000 0.000000 0.000000
-0.000000 -0.000000 0.000000
-0.000000 -0.000000 0.000000
0.000000 0.000000 0.000000
-0.000000 0.000000 0.000000
0.000000 0.000000 0.000000
0.000000 0.000000 0.000000
-0.000000 0.000000 0.000000
0.000000 -0.000000 0.000000
0.000000 0.000000 0.000000
-0.000000 -0.000000 0.000000
-0.000000 -0.000000 0.000000
0.000000 0.000000 0.000000
-0.000000 -0.000000 0.000000
-0.000000 -0.000000 0.000000
0.000000 0.000000 0.000000
0.000000 -0.000000 0.000000
-0.000000 0.000000 0.000000
0.000000 0.000000 0.000000
-0.000000 -0.000000 0.000000
-0.000000 -0.000000 0.000000
0.000000 0.000000 0.000000
-0.000000 -0.000000 0.000000
-0.000000 -0.000000 0.000000
0.000000 0.000000 0.000000
-0.000000 -0.000000 0.000000
-0.000000 0.000000 0.000000
0.000000 0.000000 0.000000
-0.000000 -0.000000 0.000000
-0.000000 -0.000000 0.000000
0.000000 0.000000 0.000000
0.000000 -0.000000 0.000000
-0.000000 -0.000000 0.000000
0.000000 0.000000 0.000000
0.000000 -0.000000 0.000000
-0.000000 0.000000 0.000000
0.000000 0.000000 0.000000
0.000000 0.000000 0.000000
0.000000 0.000000 0.000000
0.000000 0.000000 0.000000
-0.000000 -0.000000 0.000000
-0.000000 -0.000000 0.000000
0.000000 0.000000 0.000000
-0.000000 0.000000 0.000000
0.000000 0.000000 0.000000
0.000000 0.000000 0.000000
-0.000000 -0.000000 0.000000
-0.000000 -0.000000 0.000000
0.000000 0.000000 0.000000
0.000000 -0.000000 0.000000
-0.000000 -0.000000 0.000000
0.000000 0.000000 0.000000
0.000000 0.000000 0.000000
0.000000 0.000000 0.000000
0.000000 0.000000 0.000000
0.000000 -0.000000 0.000000
-0.000000 0.000000 0.000000
0.000000 0.000000 0.000000
-0.000000 -0.000000 0.000000
-0.000000 0.000000 0.000000
0.000000 0.000000 0.000000
0.000000 -0.000000 0.000000
-0.000000 0.000000 0.000000
0.000000 0.000000 0.000000
0.000000 -0.000000 0.000000
-0.000000 0.000000 0.000000
0.000000 0.000000 0.000000
0.000000 0.000000 0.000000
0.000000 -0.000000 0.000000
0.000000 0.000000 0.000000
-0.000000 0.000000 0.000000
0.000000 0.000000 0.000000
0.000000 0.000000 0.000000
0.000000 -0.000000 0.000000
-0.000000 -0.000000 0.000000
0.000000 0.000000 0.000000
-0.000000 -0.000000 0.000000
-0.000000 -0.000000 0.000000
0.000000 0.000000 0.000000
-0.000000 0.000000 0.000000
0.000000 -0.000000 0.000000
0.000000 0.000000 0.000000
-0.000000 -0.000000 0.000000
-0.000000 -0.000000 0.000000
0.000000 0.000000 0.000000
0.000000 -0.000000 0.000000
-0.000000 -0.000000 0.000000
0.000000 0.000000 0.000000
0.000000 -0.000000 0.000000
-0.000000 0.000000 0.000000
0.000000 0.000000 0.000000
-0.000000 0.000000 0.000000
0.000000 -0.000000 0.000000
0.000000 0.000000 0.000000
-0.000000 0.000000 0.000000
0.000000 0.000000 0.000000
0.000000 0.000000 0.000000
0.000000 -0.000000 0.000000
-0.000000 0.000000 0.000000
0.000000 0.000000 0.000000
0.000000 -0.000000 0.000000
-0.000000 0.000000 0.000000
0.000000 0.000000 0.000000
-0.000000 -0.000000 0.000000
-0.000000 -0.000000 0.000000
0.000000 0.000000 0.000000
-0.000000 -0.000000 0.000000
-0.000000 0.000000 0.000000
0.000000 0.000000 0.000000
0.000000 -0.000000 0.000000
-0.000000 0.000000 0.000000
0.000000 0.000000 0.000000
0.000000 -0.000000 0.000000
-0.000000 0.000000 0.000000
0.000000 0.000000 0.000000
-0.000000 0.000000 0.000000
0.000000 -0.000000 0.000000
0.000000 0.000000 0.000000
0.000000 -0.000000 0.000000
-0.000000 0.000000 0.000000
0.000000 0.000000 0.000000
-0.000000 0.000000 0.000000
0.000000 -0.000000 0.000000
0.000000 0.000000 0.000000
0.000000 -0.000000 0.000000
-0.000000 -0.000000 0.000000
0.000000 0.000000 0.000000
0.000000 -0.000000 0.000000
-0.000000 0.000000 0.000000
0.000000 0.000000 0.000000
0.000000 -0.000000 0.000000
-0.000000 0.000000 0.000000
0.000000 0.000000 0.000000
0.000000 -0.000000 0.000000
-0.000000 -0.000000 0.000000
0.000000 0.000000 0.000000
0.000000 0.000000 0.000000
0.000000 -0.000000 0.000000
0.000000 0.000000 0.000000
-0.000000 -0.000000 0.000000
-0.000000 -0.000000 0.000000
0.000000 0.000000 0.000000
0.000000 -0.000000 0.000000
-0.000000 0.000000 0.000000
0.000000 0.000000 0.000000
0.000000 -0.000000 0.000000
-0.000000 0.000000 0.000000
0.000000 0.000000 0.000000
0.000000 -0.000000 0.000000
-0.000000 0.000000 0.000000
0.000000 0.000000 0.000000
0.000000 -0.000000 0.000000
-0.000000 0.000000 0.000000
0.000000 0.000000 0.000000
-0.000000 0.000000 0.000000
0.000000 -0.000000 0.000000
0.000000 0.000000 0.000000
-0.000000 0.000000 0.000000
0.000000 -0.000000 0.000000
0.000000 0.000000 0.000000
0.000000 0.000000 0.000000
0.000000 -0.000000 0.000000
0.000000 0.000000 0.000000
0.000000 0.000000 0.000000
0.000000 0.000000 0.000000
0.000000 0.000000 0.000000
-0.000000 0.000000 0.000000
0.000000 -0.000000 0.000000
0.000000 0.000000 0.000000
-0.000000 0.000000 0.000000
0.000000 -0.000000 0.000000
0.000000 0.000000 0.000000
0.000000 0.000000 0.000000
0.000000 -0.000000 0.000000
0.000000 0.000000 0.000000
-0.000000 -0.000000 0.000000
-0.000000 -0.000000 0.000000
0.000000 0.000000 0.000000
0.000000 -0.000000 0.000000
-0.000000 0.000000 0.000000
0.000000 0.000000 0.000000
0.000000 0.000000 0.000000
0.000000 0.000000 0.000000
0.000000 0.000000 0.000000
-0.000000 -0.000000 0.000000
-0.000000 -0.000000 0.000000
0.000000 0.000000 0.000000
0.000000 0.000000 0.000000
0.000000 0.000000 0.000000
0.000000 0.000000 0.000000
0.000000 -0.000000 0.000000
-0.000000 0.000000 0.000000
0.000000 0.000000 0.000000
-0.000000 -0.000000 0.000000
-0.000000 0.000000 0.000000
0.000000 0.000000 0.000000
0.000000 0.000000 0.000000
0.000000 0.000000 0.000000
0.000000 0.000000 0.000000
-0.000000 -0.000000 0.000000
-0.000000 -0.000000 0.000000
0.000000 0.000000 0.000000
-0.000000 0.000000 0.000000
0.000000 0.000000 0.000000
0.000000 0.000000 0.000000
0.000000 0.000000 0.000000
0.000000 0.000000 0.000000
0.000000 0.000000 0.000000
-0.000000 -0.000000 0.000000
-0.000000 -0.000000 0.000000
0.000000 0.000000 0.000000
-0.000000 -0.000000 0.000000
-0.000000 -0.000000 0.000000
0.000000 0.000000 0.000000
-0.000000 0.000000 0.000000
0.000000 -0.000000 0.000000
0.000000 0.000000 0.000000
0.000000 0.000000 0.000000
0.000000 0.000000 0.000000
0.000000 0.000000 0.000000
-0.000000 0.000000 0.000000
0.000000 -0.000000 0.000000
0.000000 0.000000 0.000000
0.000000 0.000000 0.000000
0.000000 0.000000 0.000000
0.000000 0.000000 0.000000
0.000000 0.000000 0.000000
0.000000 0.000000 0.000000
0.000000 0.000000 0.000000
-0.000000 0.000000 0.000000
0.000000 0.000000 0.000000
0.000000 0.000000 0.000000
0.000000 -0.000000 0.000000
-0.000000 0.000000 0.000000
0.000000 0.000000 0.000000
0.000000 -0.000000 0.000000
-0.000000 0.000000 0.000000
0.000000 0.000000 0.000000
0.000000 -0.000000 0.000000
-0.000000 0.000000 0.000000
0.000000 0.000000 0.000000
-0.000000 0.000000 0.000000
0.000000 -0.000000 0.000000
0.000000 0.000000 0.000000
-0.000000 0.000000 0.000000
0.000000 -0.000000 0.000000
0.000000 0.000000 0.000000
-0.000000 -0.000000 0.000000
-0.000000 -0.000000 0.000000
0.000000 0.000000 0.000000
-0.000000 -0.000000 0.000000
-0.000000 -0.000000 0.000000
0.000000 0.000000 0.000000
-0.000000 0.000000 0.000000
0.000000 -0.000000 0.000000
0.000000 0.000000 0.000000
-0.000000 0.000000 0.000000
0.000000 -0.000000 0.000000
0.000000 0.000000 0.000000
0.000000 0.000000 0.000000
0.000000 0.000000 0.000000
0.000000 0.000000 0.000000
0.000000 0.000000 0.000000
0.000000 0.000000 0.000000
0.000000 0.000000 0.000000
0.000000 0.000000 0.000000
0.000000 -0.000000 0.000000
0.000000 0.000000 0.000000
0.000000 0.000000 0.000000
0.000000 0.000000 0.000000
0.000000 0.000000 0.000000
-0.000000 0.000000 0.000000
0.000000 -0.000000 0.000000
0.000000 0.000000 0.000000
0.000000 -0.000000 0.000000
-0.000000 0.000000 0.000000
0.000000 0.000000 0.000000
0.000000 -0.000000 0.000000
-0.000000 0.000000 0.000000
0.000000 0.000000 0.000000
0.000000 0.000000 0.000000
0.000000 0.000000 0.000000
0.000000 0.000000 0.000000
-0.000000 0.000000 0.000000
0.000000 -0.000000 0.000000
0.000000 0.000000 0.000000
-0.000000 -0.000000 0.000000
-0.000000 -0.000000 0.000000
0.000000 0.000000 0.000000
0.000000 0.000000 0.000000
0.000000 0.000000 0.000000
0.000000 0.000000 0.000000
0.000000 0.000000 0.000000
0.000000 0.000000 0.000000
0.000000 0.000000 0.000000
-0.000000 0.000000 0.000000
0.000000 -0.000000 0.000000
0.000000 0.000000 0.000000
0.000000 -0.000000 0.000000
-0.000000 0.000000 0.000000
0.000000 0.000000 0.000000
0.000000 -0.000000 0.000000
-0.000000 0.000000 0.000000
0.000000 0.000000 0.000000
0.000000 0.000000 0.000000
0.000000 -0.000000 0.000000
0.000000 0.000000 0.000000
0.000000 -0.000000 0.000000
-0.000000 0.000000 0.000000
0.000000 0.000000 0.000000
0.000000 0.000000 0.000000
0.000000 0.000000 0.000000
0.000000 0.000000 0.000000
0.000000 0.000000 0.000000
0.000000 0.000000 0.000000
0.000000 0.000000 0.000000
0.000000 0.000000 0.000000
0.000000 -0.000000 0.000000
0.000000 0.000000 0.000000
-0.000000 0.000000 0.000000
0.000000 -0.000000 0.000000
0.000000 0.000000 0.000000
0.000000 -0.000000 0.000000
-0.000000 0.000000 0.000000
0.000000 0.000000 0.000000
0.000000 -0.000000 0.000000
-0.000000 0.000000 0.000000
0.000000 0.000000 0.000000
0.000000 0.000000 0.000000
0.000000 -0.000000 0.000000
0.000000 0.000000 0.000000
0.000000 0.000000 0.000000
0.000000 0.000000 0.000000
0.000000 0.000000 0.000000
0.000000 0.000000 0.000000
0.000000 0.000000 0.000000
0.000000 0.000000 0.000000
0.000000 -0.000000 0.000000
-0.000000 -0.000000 0.000000
0.000000 0.000000 0.000000
-0.000000 0.000000 0.000000
0.000000 -0.000000 0.000000
0.000000 0.000000 0.000000
0.000000 0.000000 0.000000
0.000000 0.000000 0.000000
0.000000 0.000000 0.000000
0.000000 0.000000 0.000000
0.000000 0.000000 0.000000
0.000000 0.000000 0.000000
-0.000000 -0.000000 0.000000
-0.000000 0.000000 0.000000
0.000000 0.000000 0.000000
-0.000000 0.000000 0.000000
0.000000 -0.000000 0.000000
0.000000 0.000000 0.000000
-0.000000 0.000000 0.000000
0.000000 -0.000000 0.000000
0.000000 0.000000 0.000000
0.000000 -0.000000 0.000000
-0.000000 0.000000 0.000000
0.000000 0.000000 0.000000
-0.000000 -0.000000 0.000000
-0.000000 -0.000000 0.000000
0.000000 0.000000 0.000000
-0.000000 0.000000 0.000000
0.000000 -0.000000 0.000000
0.000000 0.000000 0.000000
0.000000 0.000000 0.000000
0.000000 0.000000 0.000000
0.000000 0.000000 0.000000
-0.000000 -0.000000 0.000000
-0.000000 -0.000000 0.000000
0.000000 0.000000 0.000000
-0.000000 -0.000000 0.000000
-0.000000 -0.000000 0.000000
0.000000 0.000000 0.000000
-0.000000 -0.000000 0.000000
-0.000000 -0.000000 0.000000
0.000000 0.000000 0.000000
0.000000 -0.000000 0.000000
-0.000000 0.000000 0.000000
0.000000 0.000000 0.000000
0.000000 0.000000 0.000000
0.000000 0.000000 0.000000
0.000000 0.000000 0.000000
-0.000000 0.000000 0.000000
0.000000 0.000000 0.000000
0.000000 0.000000 0.000000
-0.000000 0.000000 0.000000
0.000000 -0.000000 0.000000
0.000000 0.000000 0.000000
-0.000000 -0.000000 0.000000
-0.000000 -0.000000 0.000000
0.000000 0.000000 0.000000
0.000000 -0.000000 0.000000
-0.000000 0.000000 0.000000
0.000000 0.000000 0.000000
0.000000 0.000000 0.000000
0.000000 0.000000 0.000000
0.000000 0.000000 0.000000
-0.000000 -0.000000 0.000000
-0.000000 0.000000 0.000000
0.000000 0.000000 0.000000
-0.000000 0.000000 0.000000
0.000000 0.000000 0.000000
0.000000 0.000000 0.000000
-0.000000 -0.000000 0.000000
-0.000000 -0.000000 0.000000
0.000000 0.000000 0.000000
-0.000000 0.000000 0.000000
0.000000 -0.000000 0.000000
0.000000 0.000000 0.000000
-0.000000 -0.000000 0.000000
-0.000000 -0.000000 0.000000
0.000000 0.000000 0.000000
-0.000000 -0.000000 0.000000
-0.000000 -0.000000 0.000000
0.000000 0.000000 0.000000
-0.000000 -0.000000 0.000000
-0.000000 0.000000 0.000000
0.000000 0.000000 0.000000
-0.000000 -0.000000 0.000000
-0.000000 -0.000000 0.000000
0.000000 0.000000 0.000000
-0.000000 0.000000 0.000000
0.000000 -0.000000 0.000000
0.000000 0.000000 0.000000
-0.000000 0.000000 0.000000
0.000000 -0.000000 0.000000
0.000000 0.000000 0.000000
0.000000 0.000000 0.000000
0.000000 0.000000 0.000000
0.000000 0.000000 0.000000
-0.000000 0.000000 0.000000
0.000000 0.000000 0.000000
0.000000 0.000000 0.000000
0.000000 -0.000000 0.000000
-0.000000 0.000000 0.000000
0.000000 0.000000 0.000000
0.000000 -0.000000 0.000000
-0.000000 0.000000 0.000000
0.000000 0.000000 0.000000
-0.000000 0.000000 0.000000
0.000000 -0.000000 0.000000
0.000000 0.000000 0.000000
-0.000000 0.000000 0.000000
0.000000 0.000000 0.000000
0.000000 0.000000 0.000000
-0.000000 -0.000000 0.000000
-0.000000 0.000000 0.000000
0.000000 0.000000 0.000000
-0.000000 -0.000000 0.000000
-0.000000 -0.000000 0.000000
0.000000 0.000000 0.000000
0.000000 -0.000000 0.000000
-0.000000 -0.000000 0.000000
0.000000 0.000000 0.000000
