# vtk DataFile Version 2.0
Test
ASCII
DATASET POLYDATA
POINTS 8263 float
-205.000000 -205.000000 0.000000
205.000000 -205.000000 0.000000
205.000000 205.000000 0.000000
-205.000000 205.000000 0.000000
0.000000 -205.000000 0.000000
-199.875000 -205.000000 0.000000
-194.750000 -205.000000 0.000000
-189.625000 -205.000000 0.000000
-184.500000 -205.000000 0.000000
-179.375000 -205.000000 0.000000
-174.250000 -205.000000 0.000000
-169.125000 -205.000000 0.000000
-164.000000 -205.000000 0.000000
-158.875000 -205.000000 0.000000
-153.750000 -205.000000 0.000000
-148.625000 -205.000000 0.000000
-143.500000 -205.000000 0.000000
-138.375000 -205.000000 0.000000
-133.250000 -205.000000 0.000000
-128.125000 -205.000000 0.000000
-123.000000 -205.000000 0.000000
-117.875000 -205.000000 0.000000
-112.750000 -205.000000 0.000000
-107.625000 -205.000000 0.000000
-102.500000 -205.000000 0.000000
-97.375000 -205.000000 0.000000
-92.250000 -205.000000 0.000000
-87.125000 -205.000000 0.000000
-82.000000 -205.000000 0.000000
-76.875000 -205.000000 0.000000
-71.750000 -205.000000 0.000000
-66.625000 -205.000000 0.000000
-61.500000 -205.000000 0.000000
-56.375000 -205.000000 0.000000
-51.250000 -205.000000 0.000000
-46.125000 -205.000000 0.000000
-41.000000 -205.000000 0.000000
-35.875000 -205.000000 0.000000
-30.750000 -205.000000 0.000000
-25.625000 -205.000000 0.000000
-20.500000 -205.000000 0.000000
-15.375000 -205.000000 0.000000
-10.250000 -205.000000 0.000000
-5.125000 -205.000000 0.000000
5.125000 -205.000000 0.000000
10.250000 -205.000000 0.000000
15.375000 -205.000000 0.000000
20.500000 -205.000000 0.000000
25.625000 -205.000000 0.000000
30.750000 -205.000000 0.000000
35.875000 -205.000000 0.000000
41.000000 -205.000000 0.000000
46.125000 -205.000000 0.000000
51.250000 -205.000000 0.000000
56.375000 -205.000000 0.000000
61.500000 -205.000000 0.000000
66.625000 -205.000000 0.000000
71.750000 -205.000000 0.000000
76.875000 -205.000000 0.000000
82.000000 -205.000000 0.000000
87.125000 -205.000000 0.000000
92.250000 -205.000000 0.000000
97.375000 -205.000000 0.000000
102.500000 -205.000000 0.000000
107.625000 -205.000000 0.000000
112.750000 -205.000000 0.000000
117.875000 -205.000000 0.000000
123.000000 -205.000000 0.000000
128.125000 -205.000000 0.000000
133.250000 -205.000000 0.000000
138.375000 -205.000000 0.000000
143.500000 -205.000000 0.000000
148.625000 -205.000000 0.000000
153.750000 -205.000000 0.000000
158.875000 -205.000000 0.000000
164.000000 -205.000000 0.000000
169.125000 -205.000000 0.000000
174.250000 -205.000000 0.000000
179.375000 -205.000000 0.000000
184.500000 -205.000000 0.000000
189.625000 -205.000000 0.000000
194.750000 -205.000000 0.000000
199.875000 -205.000000 0.000000
205.000000 -199.875000 0.000000
205.000000 -194.750000 0.000000
205.000000 -189.625000 0.000000
205.000000 -184.500000 0.000000
205.000000 -179.375000 0.000000
205.000000 -174.250000 0.000000
205.000000 -169.125000 0.000000
205.000000 -164.000000 0.000000
205.000000 -158.875000 0.000000
205.000000 -153.750000 0.000000
205.000000 -148.625000 0.000000
205.000000 -143.500000 0.000000
205.000000 -138.375000 0.000000
205.000000 -133.250000 0.000000
205.000000 -128.125000 0.000000
205.000000 -123.000000 0.000000
205.000000 -117.875000 0.000000
205.000000 -112.750000 0.000000
205.000000 -107.625000 0.000000
205.000000 -102.500000 0.000000
205.000000 -97.375000 0.000000
205.000000 -92.250000 0.000000
205.000000 -87.125000 0.000000
205.000000 -82.000000 0.000000
205.000000 -76.875000 0.000000
205.000000 -71.750000 0.000000
205.000000 -66.625000 0.000000
205.000000 -61.500000 0.000000
205.000000 -56.375000 0.000000
205.000000 -51.250000 0.000000
205.000000 -46.125000 0.000000
205.000000 -41.000000 0.000000
205.000000 -35.875000 0.000000
205.000000 -30.750000 0.000000
205.000000 -25.625000 0.000000
205.000000 -20.500000 0.000000
205.000000 -15.375000 0.000000
205.000000 -10.250000 0.000000
205.000000 -5.125000 0.000000
205.000000 -0.000000 0.000000
205.000000 5.125000 0.000000
205.000000 10.250000 0.000000
205.000000 15.375000 0.000000
205.000000 20.500000 0.000000
205.000000 25.625000 0.000000
205.000000 30.750000 0.000000
205.000000 35.875000 0.000000
205.000000 41.000000 0.000000
205.000000 46.125000 0.000000
205.000000 51.250000 0.000000
205.000000 56.375000 0.000000
205.000000 61.500000 0.000000
205.000000 66.625000 0.000000
205.000000 71.750000 0.000000
205.000000 76.875000 0.000000
205.000000 82.000000 0.000000
205.000000 87.125000 0.000000
205.000000 92.250000 0.000000
205.000000 97.375000 0.000000
205.000000 102.500000 0.000000
205.000000 107.625000 0.000000
205.000000 112.750000 0.000000
205.000000 117.875000 0.000000
205.000000 123.000000 0.000000
205.000000 128.125000 0.000000
205.000000 133.250000 0.000000
205.000000 138.375000 0.000000
205.000000 143.500000 0.000000
205.000000 148.625000 0.000000
205.000000 153.750000 0.000000
205.000000 158.875000 0.000000
205.000000 164.000000 0.000000
205.000000 169.125000 0.000000
205.000000 174.250000 0.000000
205.000000 179.375000 0.000000
205.000000 184.500000 0.000000
205.000000 189.625000 0.000000
205.000000 194.750000 0.000000
205.000000 199.875000 0.000000
199.875000 205.000000 0.000000
194.750000 205.000000 0.000000
189.625000 205.000000 0.000000
184.500000 205.000000 0.000000
179.375000 205.000000 0.000000
174.250000 205.000000 0.000000
169.125000 205.000000 0.000000
164.000000 205.000000 0.000000
158.875000 205.000000 0.000000
153.750000 205.000000 0.000000
148.625000 205.000000 0.000000
143.500000 205.000000 0.000000
138.375000 205.000000 0.000000
133.250000 205.000000 0.000000
128.125000 205.000000 0.000000
123.000000 205.000000 0.000000
117.875000 205.000000 0.000000
112.750000 205.000000 0.000000
107.625000 205.000000 0.000000
102.500000 205.000000 0.000000
97.375000 205.000000 0.000000
92.250000 205.000000 0.000000
87.125000 205.000000 0.000000
82.000000 205.000000 0.000000
76.875000 205.000000 0.000000
71.750000 205.000000 0.000000
66.625000 205.000000 0.000000
61.500000 205.000000 0.000000
56.375000 205.000000 0.000000
51.250000 205.000000 0.000000
46.125000 205.000000 0.000000
41.000000 205.000000 0.000000
35.875000 205.000000 0.000000
30.750000 205.000000 0.000000
25.625000 205.000000 0.000000
20.500000 205.000000 0.000000
15.375000 205.000000 0.000000
10.250000 205.000000 0.000000
5.125000 205.000000 0.000000
0.000000 205.000000 0.000000
-5.125000 205.000000 0.000000
-10.250000 205.000000 0.000000
-15.375000 205.000000 0.000000
-20.500000 205.000000 0.000000
-25.625000 205.000000 0.000000
-30.750000 205.000000 0.000000
-35.875000 205.000000 0.000000
-41.000000 205.000000 0.000000
-46.125000 205.000000 0.000000
-51.250000 205.000000 0.000000
-56.375000 205.000000 0.000000
-61.500000 205.000000 0.000000
-66.625000 205.000000 0.000000
-71.750000 205.000000 0.000000
-76.875000 205.000000 0.000000
-82.000000 205.000000 0.000000
-87.125000 205.000000 0.000000
-92.250000 205.000000 0.000000
-97.375000 205.000000 0.000000
-102.500000 205.000000 0.000000
-107.625000 205.000000 0.000000
-112.750000 205.000000 0.000000
-117.875000 205.000000 0.000000
-123.000000 205.000000 0.000000
-128.125000 205.000000 0.000000
-133.250000 205.000000 0.000000
-138.375000 205.000000 0.000000
-143.500000 205.000000 0.000000
-148.625000 205.000000 0.000000
-153.750000 205.000000 0.000000
-158.875000 205.000000 0.000000
-164.000000 205.000000 0.000000
-169.125000 205.000000 0.000000
-174.250000 205.000000 0.000000
-179.375000 205.000000 0.000000
-184.500000 205.000000 0.000000
-189.625000 205.000000 0.000000
-194.750000 205.000000 0.000000
-199.875000 205.000000 0.000000
-205.000000 199.875000 0.000000
-205.000000 194.750000 0.000000
-205.000000 189.625000 0.000000
-205.000000 184.500000 0.000000
-205.000000 179.375000 0.000000
-205.000000 174.250000 0.000000
-205.000000 169.125000 0.000000
-205.000000 164.000000 0.000000
-205.000000 158.875000 0.000000
-205.000000 153.750000 0.000000
-205.000000 148.625000 0.000000
-205.000000 143.500000 0.000000
-205.000000 138.375000 0.000000
-205.000000 133.250000 0.000000
-205.000000 128.125000 0.000000
-205.000000 123.000000 0.000000
-205.000000 117.875000 0.000000
-205.000000 112.750000 0.000000
-205.000000 107.625000 0.000000
-205.000000 102.500000 0.000000
-205.000000 97.375000 0.000000
-205.000000 92.250000 0.000000
-205.000000 87.125000 0.000000
-205.000000 82.000000 0.000000
-205.000000 76.875000 0.000000
-205.000000 71.750000 0.000000
-205.000000 66.625000 0.000000
-205.000000 61.500000 0.000000
-205.000000 56.375000 0.000000
-205.000000 51.250000 0.000000
-205.000000 46.125000 0.000000
-205.000000 41.000000 0.000000
-205.000000 35.875000 0.000000
-205.000000 30.750000 0.000000
-205.000000 25.625000 0.000000
-205.000000 20.500000 0.000000
-205.000000 15.375000 0.000000
-205.000000 10.250000 0.000000
-205.000000 5.125000 0.000000
-205.000000 0.000000 0.000000
-205.000000 -5.125000 0.000000
-205.000000 -10.250000 0.000000
-205.000000 -15.375000 0.000000
-205.000000 -20.500000 0.000000
-205.000000 -25.625000 0.000000
-205.000000 -30.750000 0.000000
-205.000000 -35.875000 0.000000
-205.000000 -41.000000 0.000000
-205.000000 -46.125000 0.000000
-205.000000 -51.250000 0.000000
-205.000000 -56.375000 0.000000
-205.000000 -61.500000 0.000000
-205.000000 -66.625000 0.000000
-205.000000 -71.750000 0.000000
-205.000000 -76.875000 0.000000
-205.000000 -82.000000 0.000000
-205.000000 -87.125000 0.000000
-205.000000 -92.250000 0.000000
-205.000000 -97.375000 0.000000
-205.000000 -102.500000 0.000000
-205.000000 -107.625000 0.000000
-205.000000 -112.750000 0.000000
-205.000000 -117.875000 0.000000
-205.000000 -123.000000 0.000000
-205.000000 -128.125000 0.000000
-205.000000 -133.250000 0.000000
-205.000000 -138.375000 0.000000
-205.000000 -143.500000 0.000000
-205.000000 -148.625000 0.000000
-205.000000 -153.750000 0.000000
-205.000000 -158.875000 0.000000
-205.000000 -164.000000 0.000000
-205.000000 -169.125000 0.000000
-205.000000 -174.250000 0.000000
-205.000000 -179.375000 0.000000
-205.000000 -184.500000 0.000000
-205.000000 -189.625000 0.000000
-205.000000 -194.750000 0.000000
-205.000000 -199.875000 0.000000
-192.701590 63.739004 0.000000
-187.331396 62.466596 0.000000
-189.944607 67.576511 0.000000
-191.299722 59.991692 0.000000
-188.810350 112.339309 0.000000
-188.515051 106.992932 0.000000
-184.383553 110.477201 0.000000
-192.241690 110.006851 0.000000
-69.663973 200.795479 0.000000
-74.256437 201.900729 0.000000
-74.075860 197.992197 0.000000
-196.894024 64.733987 0.000000
-200.264327 67.935815 0.000000
-200.642316 63.427715 0.000000
-195.199058 68.076820 0.000000
-109.908042 163.903641 0.000000
-107.686260 159.558906 0.000000
-104.794979 162.660387 0.000000
-112.064664 159.496812 0.000000
189.602096 -74.359813 0.000000
192.263968 -70.291703 0.000000
188.191165 -70.051531 0.000000
194.794881 -73.066776 0.000000
175.903463 -169.969766 0.000000
171.477331 -166.896361 0.000000
170.775742 -171.067792 0.000000
174.791281 -164.995996 0.000000
-169.969766 -175.903463 0.000000
-166.896361 -171.477331 0.000000
-171.067792 -170.775742 0.000000
-164.995996 -174.791281 0.000000
-200.462472 146.525549 0.000000
-201.882267 141.718704 0.000000
-197.930772 142.138412 0.000000
146.525549 200.462472 0.000000
141.718704 201.882267 0.000000
142.138412 197.930772 0.000000
-157.359225 -55.616643 0.000000
-161.682448 -55.618298 0.000000
-159.729375 -59.034515 0.000000
180.042513 -178.104413 0.000000
182.362497 -174.525097 0.000000
177.440393 -174.619818 0.000000
167.494269 -168.300561 0.000000
166.780463 -173.166252 0.000000
-178.104413 -180.042513 0.000000
-174.525097 -182.362497 0.000000
-174.619818 -177.440393 0.000000
163.440688 -170.364607 0.000000
-175.443658 176.884319 0.000000
-173.044232 181.187637 0.000000
-177.767672 179.588189 0.000000
-168.300561 -167.494269 0.000000
-173.166252 -166.780463 0.000000
176.884319 175.443658 0.000000
181.187637 173.044232 0.000000
179.588189 177.767672 0.000000
-170.364607 -163.440688 0.000000
-159.444144 -51.862907 0.000000
-162.389064 -156.897270 0.000000
-162.964264 -161.456255 0.000000
-158.391811 -158.922027 0.000000
-166.307065 -157.199457 0.000000
156.897270 -162.389064 0.000000
161.456255 -162.964264 0.000000
158.922027 -158.391812 0.000000
157.199457 -166.307065 0.000000
193.875428 -105.668357 0.000000
200.128517 -106.540208 0.000000
198.388733 -101.830123 0.000000
105.642770 193.982393 0.000000
106.366169 200.356986 0.000000
101.734683 198.474582 0.000000
183.654298 80.074695 0.000000
179.276160 80.226558 0.000000
181.790707 76.995988 0.000000
-105.284873 -199.713465 0.000000
-99.501095 -200.669873 0.000000
181.930010 83.776181 0.000000
-199.715869 105.283455 0.000000
-200.669703 99.501027 0.000000
168.685206 79.039892 0.000000
170.518659 84.171591 0.000000
163.657076 82.842453 0.000000
174.146582 79.601765 0.000000
93.083990 -194.302257 0.000000
98.111414 -192.508487 0.000000
92.573849 -190.306216 0.000000
95.799916 -197.213256 0.000000
-67.381763 -200.615626 0.000000
-71.120936 -199.139306 0.000000
-75.065314 -200.428905 0.000000
197.375629 101.829796 0.000000
197.850087 106.626645 0.000000
193.486071 104.271637 0.000000
181.961194 -116.102850 0.000000
184.185258 -112.880863 0.000000
177.980764 -112.809787 0.000000
100.928980 -197.125204 0.000000
106.503761 -197.850293 0.000000
103.412335 -193.148477 0.000000
181.829382 -108.343712 0.000000
-101.780882 197.327521 0.000000
-106.606673 197.841870 0.000000
-104.463098 193.404502 0.000000
185.936204 -160.439009 0.000000
190.258180 -158.785911 0.000000
186.623508 -156.022338 0.000000
152.541202 112.863399 0.000000
147.622848 114.712940 0.000000
147.982253 110.239233 0.000000
-160.439009 -185.936204 0.000000
-158.785911 -190.258180 0.000000
-156.022338 -186.623508 0.000000
151.603183 117.790683 0.000000
-195.280645 -56.610330 0.000000
-197.700292 -60.642899 0.000000
-194.068239 -61.487886 0.000000
141.236992 97.499015 0.000000
139.846808 92.091956 0.000000
145.257787 93.039723 0.000000
-200.643236 -58.684913 0.000000
-197.094731 -101.002302 0.000000
-197.845996 -106.503687 0.000000
-193.137123 -103.411081 0.000000
-163.847110 -110.139713 0.000000
-159.656472 -108.147943 0.000000
-162.522001 -105.442450 0.000000
193.095938 -100.523623 0.000000
197.047049 -97.197426 0.000000
-159.833000 -112.210323 0.000000
100.523491 193.096171 0.000000
97.104125 197.105722 0.000000
-49.724094 164.543040 0.000000
-50.034876 168.354125 0.000000
-54.212022 164.567289 0.000000
89.801968 112.752129 0.000000
86.462875 109.485560 0.000000
90.611169 108.610887 0.000000
-46.690121 166.451761 0.000000
85.355995 113.643164 0.000000
-146.933282 42.656772 0.000000
-146.081684 38.674288 0.000000
-142.279435 41.018696 0.000000
-158.011008 134.606109 0.000000
-156.511053 139.254636 0.000000
-161.530140 137.419808 0.000000
-153.269549 136.562102 0.000000
134.572437 158.102169 0.000000
139.350457 156.441611 0.000000
137.417419 161.556629 0.000000
136.370468 153.509313 0.000000
-142.191071 35.306992 0.000000
191.392731 -27.147576 0.000000
194.991952 -30.202420 0.000000
196.949333 -26.884526 0.000000
191.278959 -32.103517 0.000000
-85.836067 -201.693178 0.000000
-82.577379 -199.653075 0.000000
-86.973772 -197.905147 0.000000
-56.211080 -148.392365 0.000000
-60.336805 -148.959113 0.000000
-57.635634 -152.492390 0.000000
170.801926 -158.537354 0.000000
173.794530 -155.225635 0.000000
170.065547 -154.995146 0.000000
-201.614909 86.038539 0.000000
-199.196411 83.532578 0.000000
-197.992725 87.107580 0.000000
-158.537353 -170.801926 0.000000
-155.225630 -173.794532 0.000000
-154.995146 -170.065547 0.000000
-62.236673 -152.129360 0.000000
-176.116346 168.303635 0.000000
-175.563773 172.793095 0.000000
-180.232666 169.686863 0.000000
78.537291 -148.484189 0.000000
73.311818 -148.506622 0.000000
74.256068 -151.956516 0.000000
168.303635 176.116346 0.000000
172.793095 175.563773 0.000000
169.686863 180.232666 0.000000
74.358094 -144.430159 0.000000
190.050333 -146.960511 0.000000
192.923128 -143.199753 0.000000
188.254496 -142.438328 0.000000
-105.822786 -106.074396 0.000000
-104.802049 -110.352610 0.000000
-102.047503 -107.068984 0.000000
-146.960511 -190.050333 0.000000
-143.199753 -192.923127 0.000000
-142.438328 -188.254496 0.000000
-108.594771 -108.960016 0.000000
-100.516276 119.987352 0.000000
-104.854031 119.393519 0.000000
-101.621230 116.398286 0.000000
-105.800737 115.459830 0.000000
-96.310187 121.204330 0.000000
-99.320682 124.199912 0.000000
197.110203 96.722775 0.000000
192.868249 99.354677 0.000000
-94.419470 125.944255 0.000000
-142.891733 49.206063 0.000000
-138.801376 50.733907 0.000000
-142.418550 54.497499 0.000000
117.860163 112.077953 0.000000
115.177668 110.041410 0.000000
118.673025 107.771352 0.000000
-96.644397 197.059212 0.000000
-99.434169 192.933906 0.000000
113.775452 105.712048 0.000000
-136.740653 54.644655 0.000000
183.707572 38.196558 0.000000
178.853861 37.202306 0.000000
182.511244 34.435081 0.000000
102.850269 188.631135 0.000000
-201.370112 186.899691 0.000000
188.415916 -102.420657 0.000000
182.278412 41.993057 0.000000
134.762740 -66.476508 0.000000
136.536355 -71.017994 0.000000
138.939748 -66.970419 0.000000
130.640693 -69.286996 0.000000
126.287742 73.418896 0.000000
126.275815 78.514063 0.000000
121.704715 74.816768 0.000000
54.030343 184.967777 0.000000
57.893745 187.161067 0.000000
53.945505 189.487049 0.000000
121.487574 79.598043 0.000000
186.899691 201.370112 0.000000
-2.277120 200.221708 0.000000
-6.952045 199.891829 0.000000
-4.333414 195.961085 0.000000
-109.360819 -179.253562 0.000000
-109.874169 -174.146946 0.000000
-113.764587 -178.414744 0.000000
-8.840612 194.247696 0.000000
-179.631124 109.950353 0.000000
-173.799651 110.390578 0.000000
-178.028339 113.949898 0.000000
72.814809 117.745168 0.000000
75.759965 113.771610 0.000000
78.756396 119.292608 0.000000
169.835052 -174.657808 0.000000
173.163873 -173.416007 0.000000
201.883380 -186.987091 0.000000
79.809875 114.467462 0.000000
-174.657808 -169.835052 0.000000
-173.416007 -173.163873 0.000000
101.680441 -119.580989 0.000000
105.723631 -120.078608 0.000000
103.603135 -116.265021 0.000000
116.844165 72.579487 0.000000
116.420838 78.117253 0.000000
-152.186773 -76.626408 0.000000
-151.642426 -70.614712 0.000000
-156.176614 -73.491316 0.000000
-146.416595 -74.416566 0.000000
-186.987091 -201.883380 0.000000
44.103871 200.865910 0.000000
40.299849 199.107178 0.000000
44.195598 196.217102 0.000000
39.200870 194.151821 0.000000
188.290928 101.591960 0.000000
-200.673316 -187.125113 0.000000
-165.813970 -165.013958 0.000000
-161.448877 -166.741156 0.000000
-185.717544 7.949586 0.000000
-191.380530 7.768026 0.000000
-190.264563 3.470856 0.000000
165.013958 -165.813970 0.000000
166.741156 -161.448877 0.000000
-196.147596 4.630992 0.000000
92.241164 -113.394823 0.000000
92.020956 -108.062037 0.000000
87.042606 -110.398156 0.000000
-102.072556 188.617014 0.000000
151.241395 130.116786 0.000000
149.451385 134.119540 0.000000
146.069089 131.345298 0.000000
146.096927 136.073021 0.000000
130.374798 -151.728573 0.000000
134.764400 -150.612678 0.000000
132.035874 -146.772629 0.000000
88.988540 -104.892855 0.000000
-151.114913 -129.884868 0.000000
-150.552081 -134.751715 0.000000
-146.680270 -132.925604 0.000000
-187.562907 17.413426 0.000000
-185.332019 22.708948 0.000000
-190.302570 21.700096 0.000000
-130.193161 151.057115 0.000000
-134.824975 150.793560 0.000000
-133.062098 146.603221 0.000000
38.502798 -116.117187 0.000000
35.454776 -118.942186 0.000000
40.543299 -118.913631 0.000000
180.399316 -23.498710 0.000000
175.647734 -20.333142 0.000000
174.534288 -26.898603 0.000000
187.125113 -200.673316 0.000000
107.749394 -115.969607 0.000000
170.439061 -22.204729 0.000000
-178.562864 -152.517908 0.000000
-173.771096 -153.832564 0.000000
-174.202912 -149.477954 0.000000
200.923771 89.139872 0.000000
-173.567514 164.786011 0.000000
-178.303975 164.892687 0.000000
-92.433951 121.731977 0.000000
-88.596495 121.869593 0.000000
-90.233400 124.793954 0.000000
164.786011 173.567514 0.000000
164.892688 178.303975 0.000000
-191.928463 197.780757 0.000000
-193.852450 194.085960 0.000000
-189.229070 194.995828 0.000000
-86.141179 124.553643 0.000000
197.780757 191.928463 0.000000
194.085960 193.852450 0.000000
194.995828 189.229070 0.000000
-102.785475 -88.737862 0.000000
-107.462556 -88.157241 0.000000
-105.797963 -92.634962 0.000000
-104.398036 -84.656465 0.000000
168.459960 -164.325252 0.000000
171.434854 -162.735829 0.000000
-164.325252 -168.459960 0.000000
-162.735828 -171.434855 0.000000
152.517908 -178.562864 0.000000
153.832564 -173.771096 0.000000
149.477954 -174.202912 0.000000
34.420227 -114.818527 0.000000
180.340270 -152.623596 0.000000
182.957384 -149.641393 0.000000
179.508710 -148.764350 0.000000
-187.796227 200.136390 0.000000
-184.777272 196.215612 0.000000
26.008756 -56.513506 0.000000
26.116814 -51.029118 0.000000
22.149476 -53.457662 0.000000
-182.410708 200.606912 0.000000
-152.623596 -180.340270 0.000000
-149.641393 -182.957384 0.000000
-148.764349 -179.508710 0.000000
200.136390 187.796227 0.000000
196.215612 184.777272 0.000000
-19.057292 184.873182 0.000000
-13.326321 185.406499 0.000000
-17.674833 189.910790 0.000000
200.606912 182.410708 0.000000
167.485350 -178.312917 0.000000
200.582756 -183.096818 0.000000
51.029957 156.091843 0.000000
46.010391 156.013284 0.000000
49.709760 152.247549 0.000000
195.711727 -185.117568 0.000000
194.229443 -189.613412 0.000000
198.598286 -188.217132 0.000000
-178.312917 -167.485350 0.000000
45.088787 151.789114 0.000000
-15.911381 179.352646 0.000000
-8.544693 -192.277072 0.000000
-14.085558 -193.908798 0.000000
-9.544946 -197.277127 0.000000
-12.841416 -188.489160 0.000000
-183.096818 -200.582756 0.000000
100.708151 184.320098 0.000000
96.732921 184.567760 0.000000
98.413690 179.806277 0.000000
-185.117568 -195.711727 0.000000
-189.613412 -194.229443 0.000000
-188.217132 -198.598286 0.000000
150.722766 180.351264 0.000000
146.317636 181.283585 0.000000
147.858312 177.274007 0.000000
97.850397 188.777825 0.000000
-201.567499 -182.718399 0.000000
-118.009030 191.512159 0.000000
-121.270302 186.915153 0.000000
-117.346072 187.366714 0.000000
83.139859 -117.821704 0.000000
83.283611 -114.092710 0.000000
77.727994 -115.905457 0.000000
-198.231631 184.590203 0.000000
-196.869673 189.699545 0.000000
-180.351264 150.722766 0.000000
-181.283585 146.317636 0.000000
-177.274007 147.858312 0.000000
-85.735098 158.081968 0.000000
-81.964649 153.948162 0.000000
-80.907805 158.993598 0.000000
80.910343 -110.200097 0.000000
-130.002962 50.684154 0.000000
-131.709575 46.426616 0.000000
-127.210197 47.650850 0.000000
-134.324400 50.255171 0.000000
184.590203 198.231631 0.000000
189.699545 196.869673 0.000000
-3.563747 -195.942161 0.000000
-4.203124 -189.123062 0.000000
-21.065985 76.019344 0.000000
-19.421948 80.793014 0.000000
-24.315918 79.281917 0.000000
91.784760 7.368506 0.000000
91.979260 1.419883 0.000000
95.875029 5.221839 0.000000
197.569024 -192.865588 0.000000
192.839915 -194.161440 0.000000
-169.622993 162.731790 0.000000
-168.157729 165.739286 0.000000
69.538571 -146.759426 0.000000
64.571595 -144.458259 0.000000
65.297854 -149.098929 0.000000
182.718399 -201.567499 0.000000
-192.865588 -197.569024 0.000000
-194.161440 -192.839915 0.000000
-187.452812 -16.523651 0.000000
-182.310847 -18.466099 0.000000
-183.574737 -14.401861 0.000000
-175.352863 -59.915166 0.000000
-178.626575 -57.809015 0.000000
-179.778949 -61.909405 0.000000
-196.031165 -188.616476 0.000000
-191.378851 -189.816718 0.000000
-192.983295 -186.367271 0.000000
-182.615861 -58.651979 0.000000
144.834987 -84.339042 0.000000
147.461288 -80.498754 0.000000
143.017322 -79.194891 0.000000
162.731790 169.622993 0.000000
165.739287 168.157729 0.000000
147.028229 -75.885472 0.000000
-59.514233 176.216475 0.000000
-57.274415 179.789054 0.000000
-61.473542 179.733891 0.000000
-60.360163 183.621287 0.000000
188.616476 -196.031165 0.000000
189.816718 -191.378851 0.000000
186.367271 -192.983295 0.000000
-186.422975 -21.385463 0.000000
26.407539 -164.350877 0.000000
25.317450 -158.618547 0.000000
21.370590 -162.430694 0.000000
-180.650179 -144.759601 0.000000
-181.953399 -148.877457 0.000000
-178.159213 -148.031058 0.000000
-191.344443 190.128589 0.000000
-184.408370 -145.591795 0.000000
144.759601 -180.650180 0.000000
148.877457 -181.953399 0.000000
148.031057 -178.159214 0.000000
-177.158200 200.513834 0.000000
-178.636876 -21.461487 0.000000
-182.260139 -23.814933 0.000000
-186.887316 191.755093 0.000000
-182.966441 193.054071 0.000000
29.206053 -169.945942 0.000000
24.318434 -169.755660 0.000000
26.358069 -173.685260 0.000000
145.591795 -184.408370 0.000000
190.128589 191.344443 0.000000
28.854702 -178.034484 0.000000
33.259710 -177.335167 0.000000
30.261459 -174.594066 0.000000
200.513834 177.158200 0.000000
0.731726 159.385507 0.000000
3.846539 162.540702 0.000000
-0.948563 163.299768 0.000000
191.755093 186.887316 0.000000
193.054071 182.966441 0.000000
-99.293605 -178.525659 0.000000
-102.507195 -179.537140 0.000000
-100.298592 -182.423950 0.000000
2.084415 166.178121 0.000000
201.429967 -178.186070 0.000000
-76.415093 117.662882 0.000000
-76.504297 121.923264 0.000000
-80.774432 119.265630 0.000000
192.783414 -183.211577 0.000000
191.442558 -186.864998 0.000000
-80.784006 124.245994 0.000000
-178.231212 99.714314 0.000000
-179.182268 103.560023 0.000000
-181.985869 100.552735 0.000000
-143.172703 94.574163 0.000000
-145.878056 92.537850 0.000000
-142.416927 90.899400 0.000000
-178.186070 -201.429967 0.000000
-147.425668 96.916382 0.000000
-183.211577 -192.783414 0.000000
-186.864998 -191.442558 0.000000
124.333038 56.310059 0.000000
119.610634 54.740067 0.000000
122.775729 52.222239 0.000000
121.409145 59.054127 0.000000
-94.568610 -143.170761 0.000000
-92.531471 -145.877307 0.000000
-90.892091 -142.415351 0.000000
-200.483521 -178.925009 0.000000
-145.165210 192.022198 0.000000
-140.710343 190.125555 0.000000
-141.487600 194.194803 0.000000
-195.772992 182.238229 0.000000
-193.865614 185.763413 0.000000
-144.253267 187.939136 0.000000
-96.912529 -147.425971 0.000000
100.590090 -177.043833 0.000000
95.857595 -181.080643 0.000000
100.484103 -182.924811 0.000000
192.022198 145.165210 0.000000
190.125555 140.710343 0.000000
194.194803 141.487600 0.000000
182.238229 195.772992 0.000000
185.763413 193.865614 0.000000
187.939136 144.253267 0.000000
34.977319 192.486304 0.000000
36.100115 197.126806 0.000000
32.308868 195.656976 0.000000
96.591287 -187.247820 0.000000
-177.195847 -100.652364 0.000000
-181.185520 -95.758305 0.000000
-182.928551 -100.479049 0.000000
-187.226236 -96.578932 0.000000
-100.466006 177.062201 0.000000
-95.962949 181.279954 0.000000
-100.863983 183.295263 0.000000
178.925009 -200.483521 0.000000
-97.551861 187.386519 0.000000
-191.685197 -183.211585 0.000000
-196.821023 -183.678738 0.000000
-188.853330 -186.947305 0.000000
-191.531850 182.644207 0.000000
-188.897325 187.053055 0.000000
161.651677 -176.293826 0.000000
182.644207 191.531850 0.000000
187.053055 188.897325 0.000000
160.844700 -109.312162 0.000000
162.394546 -113.653248 0.000000
165.431843 -109.725067 0.000000
183.211585 -191.685197 0.000000
183.678738 -196.821023 0.000000
186.947305 -188.853330 0.000000
157.516383 -113.462154 0.000000
109.527438 161.018317 0.000000
113.654458 162.398162 0.000000
109.725618 165.433455 0.000000
-172.988215 200.836095 0.000000
-179.545419 191.612505 0.000000
-179.373870 196.745376 0.000000
-184.153383 188.901324 0.000000
113.525426 157.554223 0.000000
-108.961182 -160.981146 0.000000
-113.577516 -162.372883 0.000000
-109.611924 -165.507419 0.000000
-113.215368 -157.455347 0.000000
200.836095 172.988215 0.000000
191.612505 179.545419 0.000000
196.745376 179.373870 0.000000
188.901324 184.153383 0.000000
-160.754855 109.029610 0.000000
-162.043774 113.280212 0.000000
-164.604872 109.914195 0.000000
-157.361653 113.176524 0.000000
200.140062 -174.366933 0.000000
196.633906 -179.701468 0.000000
191.327542 -179.935666 0.000000
188.801336 -184.438182 0.000000
154.836889 -67.180098 0.000000
155.191339 -62.378224 0.000000
151.288904 -63.556537 0.000000
159.049958 -62.835793 0.000000
-174.366933 -200.140062 0.000000
-179.701468 -196.633906 0.000000
-179.935666 -191.327542 0.000000
-184.438182 -188.801336 0.000000
-195.304959 -178.815996 0.000000
-199.207646 -174.711923 0.000000
110.594424 -82.666653 0.000000
110.028155 -86.499330 0.000000
113.991349 -84.087422 0.000000
-194.790295 178.882298 0.000000
-199.532890 180.031504 0.000000
113.184735 -88.533836 0.000000
-176.293826 -161.651677 0.000000
178.882298 194.790295 0.000000
180.031504 199.532890 0.000000
-113.079526 61.389623 0.000000
-114.392576 56.195032 0.000000
-110.121635 57.495100 0.000000
-117.636452 59.159178 0.000000
178.815996 -195.304959 0.000000
174.711923 -199.207646 0.000000
-106.367394 -101.719378 0.000000
-109.429431 -104.330091 0.000000
-189.666630 -179.359496 0.000000
-186.481948 -184.100704 0.000000
-189.878172 178.561720 0.000000
-185.986703 183.366530 0.000000
-198.444403 175.357958 0.000000
178.561720 189.878172 0.000000
183.366530 185.986703 0.000000
175.357958 198.444403 0.000000
179.359496 -189.666630 0.000000
184.100704 -186.481948 0.000000
-170.640309 -58.311119 0.000000
-164.795246 -58.077150 0.000000
-168.202796 -53.722344 0.000000
-174.551404 194.894618 0.000000
-169.856472 198.772021 0.000000
-175.590322 189.512950 0.000000
-180.637096 186.566691 0.000000
-102.574202 -102.304459 0.000000
194.894618 174.551404 0.000000
198.772021 169.856472 0.000000
-112.732695 -102.365952 0.000000
-112.434506 -107.025054 0.000000
189.512950 175.590322 0.000000
186.566691 180.637096 0.000000
194.563180 -174.784417 0.000000
198.213317 -170.154644 0.000000
-116.719724 -104.085705 0.000000
188.976921 -176.196779 0.000000
186.206495 -181.281574 0.000000
-174.784417 -194.563180 0.000000
-170.154644 -198.213317 0.000000
58.529858 -168.733668 0.000000
59.305086 -162.706398 0.000000
53.447324 -166.332410 0.000000
-176.196779 -188.976921 0.000000
-181.281574 -186.206495 0.000000
-193.788674 -174.624889 0.000000
-173.808780 -41.081950 0.000000
-177.912762 -39.470185 0.000000
-177.729791 -43.573882 0.000000
-193.581463 174.460172 0.000000
54.272677 -159.781953 0.000000
105.463538 49.957915 0.000000
104.217782 53.812247 0.000000
100.659024 51.629888 0.000000
174.460172 193.581463 0.000000
-175.082506 -36.509783 0.000000
-154.966092 117.598150 0.000000
-151.549028 113.414293 0.000000
-149.751671 118.648684 0.000000
174.624889 -193.788674 0.000000
64.546965 -139.318819 0.000000
68.073396 -139.921639 0.000000
66.573230 -136.429461 0.000000
-187.772228 -175.325792 0.000000
-182.966772 -180.078009 0.000000
-197.420965 -170.464443 0.000000
-188.216771 173.834612 0.000000
108.383926 53.592755 0.000000
-197.726848 170.533813 0.000000
173.834612 188.216771 0.000000
-167.602365 -17.920794 0.000000
-171.080053 -20.153839 0.000000
-167.178497 -22.099712 0.000000
170.533813 197.726848 0.000000
175.325792 -187.772228 0.000000
180.078009 -182.966772 0.000000
170.464443 -197.420965 0.000000
-171.538191 -15.740692 0.000000
-181.683268 181.724336 0.000000
-170.068896 192.926089 0.000000
-117.598039 -154.966186 0.000000
-113.413913 -151.549373 0.000000
-118.654936 -149.758691 0.000000
-171.875636 186.795295 0.000000
-176.863482 184.282500 0.000000
-165.697542 197.422454 0.000000
-102.873894 89.821522 0.000000
-98.048218 88.988058 0.000000
-100.176712 93.902592 0.000000
181.724336 181.683268 0.000000
192.926089 170.068896 0.000000
117.666839 155.064881 0.000000
114.185132 151.761049 0.000000
118.648399 149.782909 0.000000
186.795295 171.875636 0.000000
184.282500 176.863482 0.000000
197.422454 165.697542 0.000000
191.749543 -170.562981 0.000000
-147.552401 -194.118261 0.000000
-151.166250 -192.188585 0.000000
-151.350576 -187.497405 0.000000
186.060306 -172.945938 0.000000
183.954457 -177.670095 0.000000
196.400188 -165.342815 0.000000
-170.562981 -191.749543 0.000000
194.118262 -147.552401 0.000000
192.188585 -151.166250 0.000000
187.497405 -151.350576 0.000000
-172.945938 -186.060306 0.000000
-177.670095 -183.954457 0.000000
-165.342815 -196.400188 0.000000
-190.982207 -171.099560 0.000000
-152.443799 -167.315695 0.000000
-151.481798 -171.750744 0.000000
-156.607504 -166.437992 0.000000
-192.501594 170.089701 0.000000
167.315695 -152.443799 0.000000
171.750744 -151.481798 0.000000
166.437992 -156.607504 0.000000
170.089701 192.501594 0.000000
-138.612946 -186.466151 0.000000
-139.563183 -190.160058 0.000000
-141.815409 -183.857372 0.000000
171.099560 -190.982207 0.000000
186.466152 -138.612949 0.000000
190.160058 -139.563184 0.000000
183.857373 -141.815411 0.000000
-186.024688 -171.363144 0.000000
155.064165 -117.666473 0.000000
151.751576 -114.190045 0.000000
149.814133 -118.659361 0.000000
-134.026814 155.437629 0.000000
-139.365490 152.009139 0.000000
-94.969687 92.721776 0.000000
-196.556261 165.946366 0.000000
105.732988 -175.198804 0.000000
102.801828 -171.841154 0.000000
-137.592911 147.266707 0.000000
165.946366 196.556261 0.000000
171.363144 -186.024688 0.000000
147.501433 -162.095071 0.000000
145.454873 -166.909642 0.000000
148.943654 -166.740484 0.000000
-155.298166 -133.968113 0.000000
-151.996983 -139.479379 0.000000
-175.595133 -105.923864 0.000000
-171.991161 -102.996606 0.000000
-162.095069 -147.501434 0.000000
-166.909640 -145.454874 0.000000
-166.740483 -148.943654 0.000000
-147.700509 -137.481076 0.000000
-105.135719 175.144697 0.000000
-102.682072 171.883580 0.000000
96.186552 -175.878275 0.000000
92.553146 -177.498460 0.000000
-167.116907 188.742049 0.000000
-93.642354 118.279572 0.000000
-94.379404 114.695440 0.000000
-90.002983 117.532787 0.000000
-90.285349 111.689431 0.000000
-168.569975 184.120547 0.000000
-173.428045 144.644836 0.000000
-173.298947 149.655053 0.000000
144.644836 173.428045 0.000000
149.655053 173.298947 0.000000
183.640995 136.493748 0.000000
184.778991 133.305318 0.000000
187.937885 136.327585 0.000000
188.742049 167.116907 0.000000
190.063158 132.567549 0.000000
-136.493748 183.640994 0.000000
-133.284604 184.784383 0.000000
-136.327585 187.937884 0.000000
184.120547 168.569975 0.000000
-132.567497 190.062868 0.000000
190.527712 -165.581845 0.000000
183.950749 -153.706539 0.000000
181.598082 -157.422215 0.000000
177.639663 -155.234848 0.000000
-153.706539 -183.950749 0.000000
-157.422215 -181.598082 0.000000
-155.234848 -177.639663 0.000000
-176.396807 -96.246063 0.000000
-177.513558 -92.332834 0.000000
-96.142539 175.715208 0.000000
-92.450343 177.403993 0.000000
191.507521 -51.617522 0.000000
188.039885 -54.443203 0.000000
192.991171 -54.940290 0.000000
-165.581845 -190.527712 0.000000
189.815336 -58.007007 0.000000
-95.908467 -180.488626 0.000000
-96.295901 -174.687417 0.000000
-127.205941 85.952073 0.000000
-122.914799 87.594810 0.000000
-126.642575 89.705923 0.000000
-180.395803 96.102807 0.000000
-174.685651 96.295803 0.000000
133.968978 -155.295815 0.000000
139.397017 -151.883829 0.000000
-123.709616 83.234522 0.000000
137.595321 -147.102664 0.000000
190.065814 -136.021588 0.000000
194.795022 -138.282523 0.000000
-136.023092 -190.068152 0.000000
-191.778035 164.625178 0.000000
-138.282522 -194.795022 0.000000
93.970932 182.030851 0.000000
-125.944901 93.728122 0.000000
-130.116136 92.164880 0.000000
165.115685 -104.858685 0.000000
158.981607 -104.812282 0.000000
164.625178 191.778035 0.000000
155.564094 -109.277872 0.000000
104.963608 165.096168 0.000000
105.152157 158.784486 0.000000
109.447221 155.600826 0.000000
-104.321208 -165.927485 0.000000
-103.920474 -159.173724 0.000000
-109.120603 -155.450017 0.000000
-59.763316 162.236621 0.000000
-55.874644 160.059929 0.000000
-165.939887 104.679781 0.000000
-159.129322 104.005907 0.000000
-155.449622 109.121040 0.000000
-134.927652 -185.132430 0.000000
-137.808082 -182.581928 0.000000
185.118395 -134.918615 0.000000
182.581929 -137.808086 0.000000
-129.490086 96.409438 0.000000
-51.911433 160.502082 0.000000
-154.283266 -65.326941 0.000000
-158.031809 -63.041839 0.000000
-159.181094 -66.753169 0.000000
86.667900 142.830479 0.000000
87.010472 147.537078 0.000000
83.652710 145.134438 0.000000
-45.813138 187.380484 0.000000
-41.567735 183.677802 0.000000
-39.962998 189.399889 0.000000
-46.032997 181.859308 0.000000
45.605674 -186.032482 0.000000
41.799607 -183.027211 0.000000
41.190916 -187.537210 0.000000
47.262188 -180.746490 0.000000
-148.055643 -169.440473 0.000000
-147.636444 -173.480033 0.000000
169.440473 -148.055643 0.000000
173.480033 -147.636444 0.000000
176.688829 -145.288053 0.000000
181.367285 -145.379009 0.000000
179.421478 -140.401764 0.000000
-145.287862 -176.688926 0.000000
-145.379008 -181.367285 0.000000
-140.401761 -179.421478 0.000000
90.992500 145.071874 0.000000
-170.540036 -147.089372 0.000000
-175.426713 -144.522367 0.000000
80.566395 147.794749 0.000000
80.201803 142.892073 0.000000
-199.959861 33.688141 0.000000
-196.193237 29.449186 0.000000
-193.400674 34.220181 0.000000
76.878967 145.599015 0.000000
147.089371 -170.540037 0.000000
144.522367 -175.426714 0.000000
-166.619364 57.617396 0.000000
-170.550236 56.929812 0.000000
-168.464369 52.645601 0.000000
-172.807966 54.512000 0.000000
134.548944 47.841859 0.000000
133.209795 43.074593 0.000000
137.605748 43.557753 0.000000
154.598923 173.064087 0.000000
151.517349 169.013460 0.000000
129.571402 45.094590 0.000000
153.222557 164.371440 0.000000
157.208867 164.147197 0.000000
156.305917 168.055949 0.000000
-162.209051 -63.336454 0.000000
-173.064087 154.598922 0.000000
-169.013459 151.517349 0.000000
-93.721965 -125.925586 0.000000
-92.156671 -130.102497 0.000000
-89.804443 -126.666003 0.000000
-164.371440 153.222557 0.000000
-164.147196 157.208867 0.000000
-168.055949 156.305917 0.000000
185.569770 139.857074 0.000000
180.267638 139.406832 0.000000
-139.857073 185.569768 0.000000
-139.406834 180.267599 0.000000
-90.342057 -173.108390 0.000000
-91.144951 -178.373551 0.000000
-174.623520 140.623291 0.000000
-178.228472 142.386147 0.000000
-94.310709 -168.701158 0.000000
140.623291 174.623521 0.000000
142.386148 178.228473 0.000000
-140.004160 -174.837153 0.000000
-143.935811 -172.035983 0.000000
174.836496 -140.005275 0.000000
172.035973 -143.935998 0.000000
-172.602655 90.579555 0.000000
-178.378626 91.157107 0.000000
177.669643 -107.939083 0.000000
-169.148064 95.292149 0.000000
174.093355 -110.427888 0.000000
192.326242 39.017431 0.000000
190.954155 44.353053 0.000000
187.212834 41.054902 0.000000
196.842017 42.942817 0.000000
-96.421382 -129.481795 0.000000
117.595131 -81.985834 0.000000
117.419425 -86.210171 0.000000
98.150841 -172.072498 0.000000
200.525534 132.618931 0.000000
201.197788 136.969763 0.000000
197.902239 135.753501 0.000000
-132.601782 200.534802 0.000000
-136.966823 201.199372 0.000000
-135.753500 197.902222 0.000000
134.980010 185.078580 0.000000
135.641943 189.507939 0.000000
131.670662 188.830360 0.000000
133.643561 194.103112 0.000000
-185.078596 134.979972 0.000000
-189.507967 135.641906 0.000000
-188.830479 131.670527 0.000000
-194.103110 133.643560 0.000000
-165.738763 148.512524 0.000000
-169.837733 147.496654 0.000000
148.512525 165.738763 0.000000
147.496654 169.837733 0.000000
189.203372 -131.539982 0.000000
194.651884 -133.212273 0.000000
-164.974142 -185.071692 0.000000
-162.329213 -189.227502 0.000000
-131.539976 -189.203367 0.000000
-133.212273 -194.651883 0.000000
-149.120558 -165.207769 0.000000
-154.325331 -163.006474 0.000000
165.207770 -149.120559 0.000000
163.006474 -154.325332 0.000000
-172.188500 -98.201999 0.000000
-98.165689 172.013351 0.000000
-164.267534 -152.625371 0.000000
-169.608498 -152.514090 0.000000
152.625371 -164.267534 0.000000
152.514090 -169.608498 0.000000
114.233587 -79.704448 0.000000
173.771218 100.546742 0.000000
168.745534 98.428095 0.000000
173.598711 95.261745 0.000000
-34.065123 -197.863720 0.000000
-29.801655 -196.614618 0.000000
-34.113678 -192.788486 0.000000
117.105427 -91.688318 0.000000
120.870900 -89.483680 0.000000
-168.163760 144.639447 0.000000
185.071692 -164.974142 0.000000
189.227502 -162.329213 0.000000
144.640204 168.163079 0.000000
182.608816 16.905671 0.000000
181.540869 21.394067 0.000000
178.948242 17.875670 0.000000
-65.998775 172.226096 0.000000
-67.432135 176.367208 0.000000
-70.347332 172.654602 0.000000
-70.980544 176.986339 0.000000
92.638694 174.193401 0.000000
94.639348 169.133805 0.000000
97.350091 174.184846 0.000000
-76.315034 159.676914 0.000000
-78.096535 156.116956 0.000000
-148.014592 153.692838 0.000000
-146.267075 158.690431 0.000000
-150.776283 157.034984 0.000000
-79.348688 163.133497 0.000000
-152.504859 152.556381 0.000000
-154.363368 148.635646 0.000000
-150.403692 149.302635 0.000000
178.526227 -92.484213 0.000000
173.392474 -92.513924 0.000000
174.302312 -96.906016 0.000000
-153.607701 -147.669620 0.000000
-157.646064 -146.171704 0.000000
-157.022198 -150.323931 0.000000
169.286365 -94.787179 0.000000
-152.596824 -152.344915 0.000000
-148.652172 -154.413881 0.000000
-149.369188 -150.344932 0.000000
-181.563558 -75.199240 0.000000
-177.963831 -74.881354 0.000000
-181.623678 -71.395170 0.000000
153.692837 148.014590 0.000000
158.690432 146.267073 0.000000
157.034985 150.776283 0.000000
-177.047172 -70.916369 0.000000
152.556365 152.504902 0.000000
148.635651 154.363382 0.000000
149.352843 150.471169 0.000000
177.537377 92.917673 0.000000
173.459607 89.280788 0.000000
179.419270 88.276225 0.000000
147.669620 -153.607704 0.000000
146.171704 -157.646067 0.000000
150.323932 -157.022200 0.000000
-118.652285 88.993835 0.000000
-119.519717 84.782789 0.000000
152.344953 -152.596818 0.000000
154.413887 -148.652177 0.000000
150.342181 -149.354776 0.000000
88.414697 -173.812323 0.000000
87.714949 -179.728952 0.000000
93.687532 -172.896625 0.000000
-173.939403 -88.347940 0.000000
-179.598098 -87.913623 0.000000
-154.113435 -158.777797 0.000000
-172.205000 -93.446395 0.000000
-88.393073 173.939479 0.000000
-87.631549 179.199174 0.000000
-93.478599 172.000708 0.000000
158.777798 -154.113436 0.000000
-122.192875 91.395238 0.000000
110.543243 184.861622 0.000000
105.810989 184.565054 0.000000
109.201737 180.978157 0.000000
-166.177229 99.214333 0.000000
-170.687050 100.483316 0.000000
107.912837 188.768107 0.000000
-144.418753 -167.803426 0.000000
167.803427 -144.418754 0.000000
-98.845726 -166.116653 0.000000
-100.014838 -170.638809 0.000000
-166.533798 160.972608 0.000000
-161.524041 160.226904 0.000000
108.328998 177.437669 0.000000
113.354943 177.465759 0.000000
160.972608 166.533798 0.000000
160.226904 161.524041 0.000000
136.897607 -188.376395 0.000000
140.724024 -189.406841 0.000000
141.141029 -184.549916 0.000000
138.173642 -193.683164 0.000000
-188.376390 -136.897608 0.000000
-189.406840 -140.724024 0.000000
-184.549914 -141.141029 0.000000
-193.683164 -138.173642 0.000000
-57.952685 -165.098045 0.000000
-58.706237 -169.604422 0.000000
-53.287466 -167.542666 0.000000
-55.781310 -172.209899 0.000000
163.719724 145.099274 0.000000
167.224306 148.730525 0.000000
161.962291 149.720299 0.000000
169.521387 144.794931 0.000000
-145.099274 163.719722 0.000000
-148.730525 167.224302 0.000000
-149.720299 161.962291 0.000000
-144.794932 169.521365 0.000000
-171.413984 137.475626 0.000000
-176.762150 137.280802 0.000000
-170.619245 141.492081 0.000000
137.480278 171.406088 0.000000
137.280803 176.762152 0.000000
141.492082 170.619248 0.000000
164.788359 -57.752690 0.000000
169.590508 -58.673043 0.000000
167.284207 -53.083832 0.000000
172.275217 -54.202857 0.000000
110.557833 173.875861 0.000000
60.393970 -152.617240 0.000000
61.857802 -157.844938 0.000000
66.200278 -154.908143 0.000000
178.590656 -134.949548 0.000000
-134.949477 -178.590672 0.000000
-130.632339 -183.884308 0.000000
183.802451 -130.579539 0.000000
166.944308 -99.282252 0.000000
170.986543 -101.917513 0.000000
-159.157969 -163.583147 0.000000
58.178543 -157.483227 0.000000
163.583148 -159.157969 0.000000
-183.603856 130.204576 0.000000
-180.203193 134.270656 0.000000
130.230962 183.570387 0.000000
134.280490 180.185587 0.000000
99.333436 166.661641 0.000000
102.027370 170.925531 0.000000
176.775932 21.793904 0.000000
-38.968233 109.992520 0.000000
-38.609881 114.008104 0.000000
-43.450113 112.779448 0.000000
-40.524813 117.421732 0.000000
-155.233102 155.824566 0.000000
-157.647261 159.153321 0.000000
-159.778463 154.946088 0.000000
-154.321028 160.655265 0.000000
-8.841505 -160.394595 0.000000
-2.913004 -162.309583 0.000000
-3.402564 -157.800243 0.000000
-121.746315 103.565855 0.000000
-125.113115 105.499527 0.000000
-125.097305 101.907533 0.000000
155.824564 155.233110 0.000000
159.153320 157.647263 0.000000
154.946088 159.778463 0.000000
160.655265 154.321030 0.000000
-121.004844 108.069500 0.000000
91.140398 140.564636 0.000000
86.671718 137.900572 0.000000
-189.582315 -130.381484 0.000000
-187.507842 -133.137842 0.000000
-184.469923 -130.201011 0.000000
-182.034486 -134.882457 0.000000
130.381485 -189.582356 0.000000
133.137842 -187.507855 0.000000
130.201010 -184.469929 0.000000
134.882457 -182.034490 0.000000
-163.267384 145.348941 0.000000
-161.313348 149.877815 0.000000
-145.280466 -162.847853 0.000000
-150.199358 -160.832691 0.000000
145.352833 163.266231 0.000000
149.877816 161.313349 0.000000
162.847856 -145.280468 0.000000
160.832693 -150.199360 0.000000
139.302781 -198.959393 0.000000
142.745455 -200.578066 0.000000
141.694418 -196.371355 0.000000
-198.959393 -139.302781 0.000000
-200.578066 -142.745455 0.000000
-196.371355 -141.694418 0.000000
83.311522 140.459374 0.000000
138.027426 200.858825 0.000000
134.725297 199.083862 0.000000
-103.594756 -121.680153 0.000000
-105.748351 -124.803811 0.000000
-101.979049 -125.028768 0.000000
-200.858826 138.027335 0.000000
-199.083870 134.724753 0.000000
127.067886 188.540072 0.000000
128.885195 193.607752 0.000000
-188.573504 127.034266 0.000000
-193.607809 128.885099 0.000000
188.218633 -127.277824 0.000000
193.893316 -128.833187 0.000000
-127.300726 -188.408686 0.000000
-128.833091 -193.893374 0.000000
-108.017063 -120.588222 0.000000
-129.203799 186.749371 0.000000
-128.027074 193.241158 0.000000
-48.957151 199.064243 0.000000
-45.295106 195.498513 0.000000
-42.858991 199.612539 0.000000
-134.925618 180.164484 0.000000
-130.189379 180.150696 0.000000
142.117585 -111.748309 0.000000
147.571608 -110.627558 0.000000
143.600529 -106.840527 0.000000
186.712733 129.327982 0.000000
193.165886 128.285960 0.000000
148.230663 -106.495623 0.000000
180.165329 134.925623 0.000000
180.153844 130.189419 0.000000
126.795584 -188.906936 0.000000
128.446336 -193.950955 0.000000
-188.906759 -126.795578 0.000000
-193.950954 -128.446337 0.000000
-178.912755 -140.422279 0.000000
140.422279 -178.912757 0.000000
111.655182 141.844397 0.000000
110.549185 147.445596 0.000000
106.482473 144.149447 0.000000
106.397906 148.440264 0.000000
-86.305870 -176.912126 0.000000
-84.993035 -171.299553 0.000000
-88.962212 -168.759747 0.000000
-176.884359 86.493899 0.000000
-171.545142 85.235352 0.000000
165.453910 140.640112 0.000000
170.011043 140.059921 0.000000
-167.487236 90.298306 0.000000
142.048530 -164.882390 0.000000
141.691376 -170.290228 0.000000
-41.244784 194.569502 0.000000
-140.640111 165.453906 0.000000
-140.059922 170.010974 0.000000
-90.034973 -102.133789 0.000000
-90.217689 -97.744980 0.000000
-94.045214 -100.172295 0.000000
-164.882385 -142.048533 0.000000
-170.290225 -141.691377 0.000000
-166.091388 140.341646 0.000000
-85.781895 -100.374811 0.000000
-141.092432 -164.587338 0.000000
201.412396 99.686078 0.000000
201.526765 104.316966 0.000000
140.342293 166.088451 0.000000
152.783626 -104.384070 0.000000
146.911752 -101.750145 0.000000
152.111462 -97.916797 0.000000
164.587083 -141.093698 0.000000
99.069526 -201.086182 0.000000
104.030243 -201.292980 0.000000
104.813444 152.936899 0.000000
101.760311 147.522971 0.000000
99.106443 152.637747 0.000000
-156.799735 151.264448 0.000000
-155.708913 -154.629230 0.000000
-151.322376 -156.527982 0.000000
151.264450 156.799739 0.000000
154.629230 -155.708914 0.000000
156.527991 -151.322377 0.000000
-176.630310 -137.155221 0.000000
-174.184926 -140.073001 0.000000
-172.285915 -136.788201 0.000000
137.155219 -176.630318 0.000000
140.073000 -174.184928 0.000000
136.788200 -172.285920 0.000000
-136.559559 193.448467 0.000000
-143.750854 182.904570 0.000000
-143.702964 178.487162 0.000000
193.448467 136.559559 0.000000
182.904572 143.750854 0.000000
178.487164 143.702965 0.000000
175.648977 133.657931 0.000000
176.643020 136.907764 0.000000
172.496355 136.872915 0.000000
-133.658275 175.640317 0.000000
-136.907777 176.642812 0.000000
-136.872921 172.496167 0.000000
-200.790286 -99.021628 0.000000
-201.261524 -104.044215 0.000000
-99.020997 201.308828 0.000000
-104.515956 201.416806 0.000000
191.102675 32.947466 0.000000
186.708432 31.527819 0.000000
190.150856 28.236229 0.000000
133.610161 -175.733494 0.000000
-175.733466 -133.610165 0.000000
185.838544 26.918970 0.000000
-99.002310 113.541739 0.000000
-95.815041 110.046196 0.000000
-97.528387 117.082914 0.000000
54.962370 156.232965 0.000000
52.497342 159.854522 0.000000
-176.380995 13.010530 0.000000
-180.623361 10.820992 0.000000
-176.845191 9.125929 0.000000
83.580398 -176.746685 0.000000
-125.380812 188.793791 0.000000
-125.773428 183.463332 0.000000
-183.256650 -126.075077 0.000000
-179.271502 -129.893759 0.000000
126.075056 -183.256983 0.000000
129.893755 -179.271517 0.000000
188.636834 125.848700 0.000000
183.477685 125.770948 0.000000
172.525450 -135.476544 0.000000
175.248056 -131.272853 0.000000
178.787417 -129.019603 0.000000
-135.471701 -172.528725 0.000000
-131.262990 -175.254862 0.000000
-129.050824 -178.977960 0.000000
121.900732 -188.240105 0.000000
123.768886 -193.941284 0.000000
187.502353 121.023443 0.000000
193.577470 123.267689 0.000000
-188.239569 -121.900702 0.000000
-193.941142 -123.768859 0.000000
-122.201961 193.759412 0.000000
-180.321217 15.274602 0.000000
-179.840332 126.604115 0.000000
-177.678459 130.143518 0.000000
-126.025378 -182.992733 0.000000
182.896231 -125.771659 0.000000
-53.668051 -97.437720 0.000000
-55.661347 -100.538443 0.000000
-51.405004 -101.585224 0.000000
126.803857 180.010006 0.000000
130.192699 177.664035 0.000000
55.061114 152.416007 0.000000
-176.561285 -83.274810 0.000000
54.627796 163.108644 0.000000
50.374427 163.329977 0.000000
-83.349493 176.755150 0.000000
52.708623 167.246878 0.000000
173.639789 -80.653390 0.000000
171.882678 -85.389149 0.000000
175.578648 -84.656834 0.000000
130.336094 -163.242362 0.000000
126.572758 -160.407120 0.000000
126.408924 -166.114454 0.000000
130.906070 -159.137002 0.000000
-133.210575 170.436743 0.000000
-137.047625 167.736957 0.000000
-170.440303 -133.181536 0.000000
-167.619650 -137.454273 0.000000
-176.019256 -156.876077 0.000000
170.436970 133.210592 0.000000
167.737064 137.047629 0.000000
133.181533 -170.440317 0.000000
137.454270 -167.619660 0.000000
137.767152 -162.456530 0.000000
142.422077 -159.923213 0.000000
162.447770 137.758227 0.000000
160.147603 141.772853 0.000000
-137.758226 162.447758 0.000000
-141.772852 160.147598 0.000000
156.876077 -176.019256 0.000000
-162.456519 -137.767155 0.000000
-159.923209 -142.422087 0.000000
175.285461 -50.179474 0.000000
177.556551 -54.625774 0.000000
181.151043 -50.661927 0.000000
-53.781699 -181.081882 0.000000
-48.171688 -179.301817 0.000000
-51.589415 -176.637865 0.000000
-49.595493 -184.319463 0.000000
-51.767532 -172.392480 0.000000
-55.272766 -176.208319 0.000000
129.759799 -173.738404 0.000000
173.998343 129.841276 0.000000
-173.738284 -129.759816 0.000000
-129.843382 173.950998 0.000000
195.409438 132.278710 0.000000
-132.278710 195.409437 0.000000
-121.946090 180.606084 0.000000
-126.005220 177.411359 0.000000
-181.475920 -121.663039 0.000000
-177.176226 -125.996373 0.000000
121.662860 -181.476977 0.000000
125.996394 -177.176437 0.000000
180.738386 121.905103 0.000000
177.422190 126.005140 0.000000
-158.325419 146.470994 0.000000
185.043861 87.907674 0.000000
-146.663553 -158.169377 0.000000
-53.699141 180.704997 0.000000
-55.611201 184.253421 0.000000
146.470998 158.325425 0.000000
194.790160 78.171644 0.000000
192.700859 73.160121 0.000000
197.550154 75.102503 0.000000
158.169384 -146.663558 0.000000
-163.252210 -130.346463 0.000000
-160.463453 -126.604090 0.000000
-166.120557 -126.420909 0.000000
201.821038 74.663126 0.000000
82.387013 -171.978085 0.000000
86.703057 -167.573643 0.000000
124.088487 -98.865786 0.000000
128.492717 -101.864476 0.000000
128.069161 -96.264671 0.000000
-159.136944 -130.873340 0.000000
-171.800107 -82.629843 0.000000
-6.261348 -165.328949 0.000000
-100.229520 -85.012889 0.000000
-98.358319 -88.975964 0.000000
-101.128735 -93.187207 0.000000
133.615444 175.131495 0.000000
-175.155499 133.605773 0.000000
198.643737 129.336615 0.000000
-129.236659 198.697779 0.000000
-138.467017 157.485872 0.000000
-143.264918 155.481516 0.000000
-157.360838 -138.528396 0.000000
-155.160098 -143.286944 0.000000
157.485902 138.466925 0.000000
155.481514 143.264905 0.000000
138.528333 -157.360839 0.000000
143.289229 -155.172424 0.000000
104.362325 -143.655510 0.000000
110.101476 -144.302280 0.000000
107.593393 -139.382277 0.000000
-158.241874 -82.987026 0.000000
-162.588798 -82.481203 0.000000
-160.576812 -86.434190 0.000000
-103.731279 145.596317 0.000000
-109.762651 144.169893 0.000000
-107.021903 140.172121 0.000000
-160.546083 -79.385945 0.000000
-129.802478 168.550534 0.000000
-133.743995 165.576192 0.000000
-168.436037 -129.814541 0.000000
-165.564430 -133.746931 0.000000
168.551073 129.802505 0.000000
165.576336 133.744004 0.000000
129.814530 -168.436076 0.000000
133.746926 -165.564453 0.000000
46.432491 192.160954 0.000000
42.613218 192.059345 0.000000
44.178717 188.570219 0.000000
-130.968123 -170.411036 0.000000
-135.402024 -166.165296 0.000000
170.407487 -130.968191 0.000000
166.163927 -135.406087 0.000000
-97.451851 157.704869 0.000000
-94.641783 153.519941 0.000000
-91.102896 156.975807 0.000000
-136.253376 -74.132067 0.000000
-141.403013 -75.220823 0.000000
-138.424060 -79.366560 0.000000
55.627230 -92.934243 0.000000
59.253510 -93.126873 0.000000
57.071488 -89.657263 0.000000
-154.104373 144.671311 0.000000
-159.971626 142.251223 0.000000
-139.547006 -156.672125 0.000000
-142.714131 -159.629415 0.000000
-138.830693 -161.410524 0.000000
-144.870634 -154.089276 0.000000
62.034649 -90.669437 0.000000
144.704974 154.131577 0.000000
142.273162 159.968321 0.000000
156.672256 -139.547150 0.000000
159.629364 -142.713712 0.000000
161.411052 -138.833056 0.000000
154.088551 -144.864344 0.000000
-140.631427 -70.518743 0.000000
155.537640 129.334909 0.000000
158.698750 130.740104 0.000000
154.501694 134.164205 0.000000
157.027447 103.371628 0.000000
153.537239 99.842574 0.000000
157.777112 98.302317 0.000000
-82.978206 172.115907 0.000000
-116.854844 96.297020 0.000000
-121.361691 95.301400 0.000000
-118.000036 92.135451 0.000000
129.443596 -156.230214 0.000000
-120.229929 99.635992 0.000000
-96.925876 -116.666828 0.000000
-95.294938 -121.344544 0.000000
-92.782825 -118.071548 0.000000
-99.664461 -120.211177 0.000000
-156.159372 -129.242968 0.000000
-88.360910 -119.300564 0.000000
-90.534301 -115.407549 0.000000
-85.706597 -114.842982 0.000000
96.732494 131.581555 0.000000
94.587958 135.216007 0.000000
92.339771 131.744246 0.000000
-129.312552 156.011014 0.000000
-130.814655 159.332111 0.000000
98.816573 135.482281 0.000000
-156.415657 33.825956 0.000000
-151.844331 35.069950 0.000000
-155.663030 38.566449 0.000000
174.141222 -127.189897 0.000000
-150.790203 39.908440 0.000000
88.742002 4.669043 0.000000
74.170537 33.431798 0.000000
73.974875 28.602492 0.000000
78.469418 30.459039 0.000000
-127.155261 -174.196485 0.000000
-26.960369 116.184082 0.000000
-31.834799 115.899725 0.000000
-29.686795 112.221075 0.000000
77.584587 25.689206 0.000000
-83.846150 36.979618 0.000000
-89.588163 40.116125 0.000000
-87.157485 34.228010 0.000000
160.335446 134.169355 0.000000
134.208926 -160.509500 0.000000
-134.159821 160.620810 0.000000
-160.511518 -134.205066 0.000000
118.126119 -185.951147 0.000000
-91.056812 35.051255 0.000000
-34.314681 112.128621 0.000000
29.507843 -53.016448 0.000000
-185.950222 -118.125992 0.000000
-111.813189 80.369691 0.000000
-113.276413 77.053282 0.000000
-109.588124 76.837127 0.000000
-115.558585 81.302679 0.000000
-107.598355 73.447171 0.000000
-105.739802 76.866433 0.000000
-103.404510 72.546534 0.000000
-85.477075 150.253093 0.000000
-85.692164 144.748859 0.000000
-80.709525 147.838161 0.000000
26.850112 70.682618 0.000000
28.708926 75.047464 0.000000
24.306344 74.336917 0.000000
-166.539781 135.324307 0.000000
-200.754469 27.920074 0.000000
-197.330484 24.705989 0.000000
77.196917 -173.954969 0.000000
79.354605 -178.875205 0.000000
80.461374 -175.417880 0.000000
-139.908525 -169.667512 0.000000
-134.498646 91.015028 0.000000
-138.511902 89.624879 0.000000
-135.357360 87.446879 0.000000
-138.756910 84.595955 0.000000
-99.046547 45.414978 0.000000
-94.162940 49.711658 0.000000
-100.734348 49.823372 0.000000
135.337557 166.527961 0.000000
-133.673559 95.097041 0.000000
169.666871 -139.910108 0.000000
160.002632 -135.404632 0.000000
-94.769837 42.959451 0.000000
9.953507 -128.968346 0.000000
7.172232 -133.278229 0.000000
13.562968 -134.724461 0.000000
-135.397872 -159.998445 0.000000
9.212522 -138.814407 0.000000
31.197135 71.288808 0.000000
126.205917 -171.442293 0.000000
171.777008 126.182070 0.000000
-171.439561 -126.208335 0.000000
-126.194362 171.516342 0.000000
196.199679 -52.115637 0.000000
198.065744 -47.634021 0.000000
192.728821 -47.057557 0.000000
-91.011769 -134.488041 0.000000
-89.617636 -138.504525 0.000000
-87.446377 -135.340712 0.000000
-84.588900 -138.745776 0.000000
-95.094612 -133.665175 0.000000
95.995633 -79.427718 0.000000
100.721387 -81.379045 0.000000
99.186549 -76.811832 0.000000
104.069602 -78.359531 0.000000
105.574645 -103.931266 0.000000
104.352823 -98.972839 0.000000
100.201342 -103.099553 0.000000
-126.161101 166.205573 0.000000
-130.148223 163.445297 0.000000
166.168843 126.142090 0.000000
163.302224 130.142666 0.000000
-145.308005 150.521591 0.000000
-150.526778 -145.310999 0.000000
150.689570 145.567671 0.000000
145.297165 -150.479710 0.000000
100.319220 -97.201906 0.000000
-151.028504 141.045998 0.000000
-148.914339 138.068537 0.000000
-200.905322 22.836720 0.000000
-89.879915 151.925560 0.000000
-86.831927 154.236918 0.000000
-108.911754 -138.173447 0.000000
-111.544456 -141.856793 0.000000
-106.605625 -142.747403 0.000000
-141.187364 -151.154305 0.000000
-135.866986 -153.889018 0.000000
-138.132052 -148.332844 0.000000
-139.347480 -143.391276 0.000000
-143.462281 -140.851291 0.000000
-142.746487 -145.701666 0.000000
-138.173816 108.913632 0.000000
-141.856687 111.545755 0.000000
-142.747467 106.607551 0.000000
141.014050 151.106239 0.000000
137.908629 149.132562 0.000000
49.099531 -66.443194 0.000000
50.698684 -62.237926 0.000000
46.100856 -63.679095 0.000000
88.690245 -156.478074 0.000000
91.517082 -160.525255 0.000000
93.640707 -157.374833 0.000000
138.791897 -107.472985 0.000000
151.153877 -141.191132 0.000000
153.896305 -135.874352 0.000000
148.321573 -138.187222 0.000000
136.977358 -112.870484 0.000000
143.408517 -139.346436 0.000000
140.842106 -143.449830 0.000000
145.705663 -142.745823 0.000000
-169.359958 126.241946 0.000000
-172.400117 130.112110 0.000000
-174.867759 126.063877 0.000000
-167.399586 130.969050 0.000000
-126.312801 -169.002454 0.000000
-130.634453 -163.822353 0.000000
168.990976 -126.387430 0.000000
163.825869 -130.652791 0.000000
126.253941 169.282763 0.000000
130.132962 172.350416 0.000000
126.092481 174.736317 0.000000
130.987986 167.367147 0.000000
173.483163 -121.639683 0.000000
47.605059 -60.237341 0.000000
121.173622 172.934456 0.000000
121.972223 178.967812 0.000000
-121.210245 -173.416235 0.000000
-33.543788 -24.060122 0.000000
-38.299298 -26.157686 0.000000
-34.647084 -29.329233 0.000000
-173.203506 121.150699 0.000000
-179.202957 121.910029 0.000000
107.459863 138.792382 0.000000
112.677289 135.850123 0.000000
87.733236 -161.905917 0.000000
79.693752 -9.478554 0.000000
84.727118 -7.860014 0.000000
80.973583 -3.837727 0.000000
-72.068458 -108.447340 0.000000
-76.940509 -105.659516 0.000000
-76.608802 -110.279052 0.000000
39.049278 -196.974317 0.000000
40.491624 -192.161867 0.000000
35.519361 -193.805316 0.000000
154.245513 94.276897 0.000000
149.061593 96.943836 0.000000
152.420156 140.395249 0.000000
149.009849 137.892568 0.000000
-72.837655 -103.927943 0.000000
44.703898 -163.333749 0.000000
45.097222 -167.297957 0.000000
48.441983 -165.445730 0.000000
12.510305 85.826198 0.000000
15.822351 90.629861 0.000000
10.799505 89.578388 0.000000
48.319153 -169.990418 0.000000
43.227448 -200.711921 0.000000
37.965142 -201.317260 0.000000
133.899097 -103.618558 0.000000
128.900462 -107.128857 0.000000
123.796846 -104.916996 0.000000
-3.766853 -74.143026 0.000000
-5.876602 -69.598346 0.000000
-8.342082 -74.080838 0.000000
100.290382 127.303057 0.000000
105.123474 123.963572 0.000000
105.789805 129.484690 0.000000
-59.421221 -174.713345 0.000000
-63.804692 -171.164710 0.000000
-61.990051 -166.897869 0.000000
-38.779886 197.396649 0.000000
-38.021497 201.201608 0.000000
-78.144921 195.177259 0.000000
-77.858368 188.974880 0.000000
-73.549142 193.389502 0.000000
78.894109 -192.726204 0.000000
76.792533 -187.997962 0.000000
74.058883 -193.420974 0.000000
-113.030254 -96.490541 0.000000
-109.412796 -95.152077 0.000000
-113.168148 -92.764779 0.000000
-122.211341 174.962728 0.000000
-118.181529 177.979349 0.000000
-110.084176 -99.589226 0.000000
-174.904667 -122.178050 0.000000
-178.013251 -118.145851 0.000000
-64.663491 140.018884 0.000000
-68.924176 141.132189 0.000000
-67.872792 137.455321 0.000000
122.176655 -174.907578 0.000000
118.145616 -178.016255 0.000000
-66.847400 145.100400 0.000000
175.013215 122.218642 0.000000
178.060712 118.190252 0.000000
-198.481925 -77.710786 0.000000
-193.767788 -78.421425 0.000000
-194.588516 -74.376420 0.000000
-154.302509 132.994073 0.000000
-112.320446 97.433212 0.000000
-114.944541 100.607126 0.000000
166.429491 -192.483749 0.000000
-113.590399 93.037078 0.000000
132.809830 154.874172 0.000000
164.370374 -196.906806 0.000000
-192.483749 -166.429491 0.000000
-148.126952 145.738044 0.000000
-145.961021 -148.240899 0.000000
145.837660 148.244893 0.000000
148.238911 -145.927902 0.000000
174.314575 -62.038987 0.000000
169.041513 -64.392575 0.000000
166.103877 -61.300614 0.000000
-179.408029 51.226930 0.000000
-184.455159 51.701052 0.000000
-181.549897 46.945508 0.000000
-186.086266 47.235350 0.000000
-173.919756 50.114948 0.000000
-176.826303 54.842805 0.000000
51.102483 177.103873 0.000000
49.775655 182.399625 0.000000
45.620206 178.515552 0.000000
45.543634 184.232706 0.000000
52.152586 172.409141 0.000000
55.996552 175.167175 0.000000
55.747783 170.391654 0.000000
-166.844998 122.125128 0.000000
-164.083465 127.579505 0.000000
-122.089004 -166.783501 0.000000
-126.218415 -163.872494 0.000000
166.774444 -122.111176 0.000000
163.871519 -126.239817 0.000000
122.130345 166.836564 0.000000
127.608916 164.048633 0.000000
-196.906806 -164.370374 0.000000
108.933593 -90.869203 0.000000
105.741241 -88.367671 0.000000
172.464624 118.414311 0.000000
169.350201 122.696179 0.000000
118.443415 -172.216316 0.000000
122.605727 -169.117189 0.000000
-172.211420 -118.443929 0.000000
-169.111621 -122.610772 0.000000
-118.378492 172.343858 0.000000
-122.536518 169.356221 0.000000
105.571485 -83.738437 0.000000
-97.647527 -112.268997 0.000000
-100.488125 -115.322872 0.000000
173.866425 -67.372567 0.000000
179.473318 -64.523662 0.000000
-93.745003 -113.902074 0.000000
-147.687263 -84.281999 0.000000
-142.154676 -83.746165 0.000000
-144.208713 -79.564966 0.000000
103.152083 -138.470359 0.000000
106.068484 -136.451005 0.000000
-142.672386 146.905375 0.000000
-147.065676 -142.844218 0.000000
147.352408 143.015221 0.000000
142.846031 -146.931627 0.000000
169.671640 -117.114377 0.000000
-126.812584 110.148966 0.000000
-130.531918 113.090028 0.000000
-132.487778 109.211123 0.000000
117.347614 168.795353 0.000000
-127.648294 115.492894 0.000000
-117.048037 -169.713363 0.000000
-57.863495 144.551875 0.000000
-52.984350 146.619728 0.000000
-57.132868 149.563157 0.000000
-169.585698 118.269200 0.000000
-53.544914 141.299158 0.000000
-110.192612 -126.671770 0.000000
-113.111474 -130.486035 0.000000
-109.222150 -132.453119 0.000000
-105.092842 -129.815898 0.000000
-115.515923 -127.587153 0.000000
-129.828772 105.090363 0.000000
-152.346217 130.073289 0.000000
-158.284739 129.564057 0.000000
-149.601030 134.164809 0.000000
200.721187 -54.710378 0.000000
200.744135 -59.671938 0.000000
129.896062 152.665047 0.000000
129.537851 158.333305 0.000000
134.078958 150.264567 0.000000
-143.314901 -100.100802 0.000000
-142.768574 -105.275053 0.000000
-138.178592 -102.713209 0.000000
-146.652531 -104.406839 0.000000
-145.244754 141.981356 0.000000
141.912114 145.177479 0.000000
109.703539 -133.916534 0.000000
104.080936 -133.079223 0.000000
-56.728804 153.395026 0.000000
-60.599824 152.396498 0.000000
187.665252 -108.288938 0.000000
-59.141871 156.920001 0.000000
-157.285297 -93.126989 0.000000
-159.510331 -97.730127 0.000000
-155.024182 -96.495823 0.000000
-155.920994 -101.066173 0.000000
103.979886 -92.901564 0.000000
108.378150 -95.591393 0.000000
153.208935 -130.590977 0.000000
159.298160 -128.049022 0.000000
155.656187 -125.251453 0.000000
161.180068 -123.444741 0.000000
125.237332 155.394812 0.000000
123.927353 161.009355 0.000000
-130.595193 -153.171566 0.000000
-128.035861 -159.275389 0.000000
-125.243432 -155.595480 0.000000
-123.417603 -161.159087 0.000000
-155.495238 125.362956 0.000000
-161.099090 123.811913 0.000000
-101.454534 138.987269 0.000000
-106.016009 135.376578 0.000000
58.404227 165.661226 0.000000
59.837332 171.265313 0.000000
-163.976870 117.715084 0.000000
-118.369749 -163.560381 0.000000
163.560422 -118.427259 0.000000
118.418151 163.565000 0.000000
-138.920557 -109.155552 0.000000
-133.707419 -105.916851 0.000000
-112.367421 104.965461 0.000000
-117.450573 104.023940 0.000000
-111.197102 101.296486 0.000000
-116.036225 107.715154 0.000000
-192.814391 72.529207 0.000000
-187.773725 71.064572 0.000000
144.236524 139.588172 0.000000
-136.041846 142.299190 0.000000
-140.396205 143.915410 0.000000
166.871486 64.432223 0.000000
167.048141 59.438425 0.000000
172.054798 61.560117 0.000000
162.488302 60.630810 0.000000
88.949176 116.684585 0.000000
92.660330 116.128922 0.000000
189.383880 106.450103 0.000000
94.791470 111.772760 0.000000
107.057476 -188.619381 0.000000
101.578816 -188.524368 0.000000
87.310672 120.168154 0.000000
84.029851 117.747427 0.000000
-188.613279 -107.055838 0.000000
-188.513707 -101.576408 0.000000
83.942283 122.204657 0.000000
-107.144802 188.593676 0.000000
135.745535 -142.067779 0.000000
112.991545 188.495747 0.000000
111.267819 193.072978 0.000000
-172.012067 -66.386668 0.000000
-175.696670 -67.707598 0.000000
-172.643587 -70.418198 0.000000
-169.234627 114.152983 0.000000
-149.533242 126.726065 0.000000
-146.860546 131.627772 0.000000
-126.821056 -149.747477 0.000000
-131.660939 -147.151712 0.000000
126.553078 149.717684 0.000000
131.159324 147.405739 0.000000
149.880647 -126.736515 0.000000
147.457848 -131.605073 0.000000
150.521238 -83.735749 0.000000
152.437593 -89.219822 0.000000
156.780618 -85.186567 0.000000
146.724009 -89.135752 0.000000
74.448994 153.291870 0.000000
73.411770 157.987128 0.000000
70.349256 155.352866 0.000000
77.579883 156.427505 0.000000
-131.046281 125.845429 0.000000
-128.941009 120.629159 0.000000
-127.139504 124.579970 0.000000
143.505316 -74.574423 0.000000
141.308728 -70.869995 0.000000
139.776928 -75.223419 0.000000
-125.861301 -131.078224 0.000000
-120.630506 -128.942462 0.000000
-124.580110 -127.150970 0.000000
153.429613 125.764069 0.000000
159.816746 125.889382 0.000000
125.395374 -154.582562 0.000000
-154.783383 -124.884430 0.000000
-125.652472 154.117009 0.000000
-125.875658 160.111204 0.000000
11.693101 93.766207 0.000000
150.589358 65.154425 0.000000
146.288588 65.945059 0.000000
148.450773 61.368160 0.000000
-5.836026 85.563600 0.000000
-8.815288 90.078681 0.000000
-10.278606 85.654205 0.000000
149.345365 57.071623 0.000000
152.530832 61.348184 0.000000
188.333511 -97.553350 0.000000
-59.255140 187.917288 0.000000
-54.465198 188.929873 0.000000
-50.706996 184.476373 0.000000
119.141388 83.404637 0.000000
123.895115 83.137492 0.000000
121.996240 87.336999 0.000000
178.351799 42.517205 0.000000
174.764155 38.753687 0.000000
35.821395 165.290292 0.000000
39.083578 163.878489 0.000000
38.332456 168.093922 0.000000
42.538678 165.653074 0.000000
136.011085 -75.740716 0.000000
-118.145096 166.934843 0.000000
153.605132 -75.768469 0.000000
157.218133 -76.372343 0.000000
156.248734 -72.425472 0.000000
-166.785090 -118.174257 0.000000
154.658020 -79.746228 0.000000
118.132681 -166.771882 0.000000
-38.267925 180.136756 0.000000
-42.446826 178.951166 0.000000
-39.553685 175.699010 0.000000
167.352018 118.488074 0.000000
114.134204 -170.699005 0.000000
114.376426 -175.749461 0.000000
169.729455 113.518656 0.000000
175.300400 114.252883 0.000000
-170.689677 -114.194125 0.000000
-175.742435 -114.377753 0.000000
-114.061216 170.767231 0.000000
-113.845525 175.669470 0.000000
152.578000 -122.075253 0.000000
157.919677 -120.589717 0.000000
122.070649 152.577266 0.000000
120.665298 157.848903 0.000000
-122.045148 -152.510050 0.000000
-120.549155 -157.867277 0.000000
-152.511528 122.044570 0.000000
-157.909227 120.524752 0.000000
94.425125 107.001994 0.000000
90.857544 104.218195 0.000000
132.506530 -125.115959 0.000000
131.694112 -120.674856 0.000000
127.328074 -123.618124 0.000000
86.940195 105.478622 0.000000
124.945186 132.629440 0.000000
120.749619 131.808571 0.000000
124.087355 127.432087 0.000000
-125.243729 148.650244 0.000000
70.908765 92.114473 0.000000
66.407332 91.482901 0.000000
69.155109 88.354503 0.000000
-148.726731 -124.765719 0.000000
65.609091 86.967003 0.000000
148.071937 125.614008 0.000000
127.175530 -148.922073 0.000000
-187.162443 -58.876513 0.000000
-184.790017 -55.562690 0.000000
-189.444194 -54.407946 0.000000
-185.069882 -52.036192 0.000000
113.533640 100.711383 0.000000
117.319442 102.527438 0.000000
108.817606 102.085773 0.000000
-107.708607 98.142967 0.000000
-108.808471 93.386991 0.000000
-103.882000 99.287069 0.000000
-106.804682 102.999142 0.000000
-101.629063 102.676564 0.000000
194.586028 -22.631242 0.000000
189.973169 -22.537993 0.000000
-100.263892 -128.560952 0.000000
-97.509991 -125.100617 0.000000
-90.835645 -122.424845 0.000000
109.900413 -178.949701 0.000000
104.962728 -180.363812 0.000000
108.104269 -183.746049 0.000000
110.236613 -174.291131 0.000000
-82.976401 -146.917563 0.000000
-88.135573 -146.091016 0.000000
-86.509866 -151.305079 0.000000
-128.569291 100.237377 0.000000
-125.096410 97.416081 0.000000
-146.916719 82.976829 0.000000
-146.090657 88.141213 0.000000
-151.303146 86.505047 0.000000
-201.118534 -63.685533 0.000000
-19.423118 -75.951600 0.000000
-18.237606 -70.282377 0.000000
-23.430543 -70.993504 0.000000
-178.889448 -109.904978 0.000000
-180.344769 -104.978675 0.000000
-13.683371 -73.567315 0.000000
187.398043 97.242371 0.000000
-98.106161 -108.159858 0.000000
-94.113293 -109.332294 0.000000
-98.208594 -103.388582 0.000000
-183.729590 -108.106498 0.000000
52.641850 139.980623 0.000000
56.242627 137.437132 0.000000
56.616329 142.082901 0.000000
60.532216 138.786187 0.000000
-174.265600 -110.245730 0.000000
-44.692053 -161.304475 0.000000
-39.661017 -162.473560 0.000000
-41.074563 -158.392877 0.000000
-43.418744 -165.474302 0.000000
-38.102736 -155.926714 0.000000
-41.889927 -154.786152 0.000000
-39.260600 -151.230317 0.000000
93.970699 -128.363213 0.000000
90.257239 -124.803313 0.000000
89.650049 -129.463789 0.000000
94.163530 -122.973362 0.000000
200.267701 -84.640002 0.000000
196.781525 -80.701658 0.000000
195.252867 -85.958926 0.000000
-147.005148 123.126670 0.000000
-142.980775 128.121137 0.000000
-123.164967 -147.047833 0.000000
-128.216659 -143.008218 0.000000
123.005149 147.244475 0.000000
127.548798 144.725135 0.000000
147.243001 -122.884712 0.000000
143.747922 -127.886495 0.000000
201.067488 -79.378632 0.000000
150.738109 122.041212 0.000000
95.222576 65.459184 0.000000
98.139758 63.274734 0.000000
98.519849 68.701265 0.000000
122.321704 -150.138746 0.000000
101.920396 64.963852 0.000000
-152.906275 -120.919575 0.000000
94.062974 69.211666 0.000000
91.715803 64.957820 0.000000
-121.346044 152.375568 0.000000
89.751574 69.187863 0.000000
174.923283 -88.561941 0.000000
179.790706 -86.888918 0.000000
-150.985135 56.909765 0.000000
-146.730129 55.736259 0.000000
-148.323220 59.590228 0.000000
-144.559410 59.711268 0.000000
-63.353220 167.305040 0.000000
-65.499430 161.015402 0.000000
-72.124747 84.592823 0.000000
-66.976302 82.997157 0.000000
-68.599845 87.007808 0.000000
-90.982117 -196.376761 0.000000
-90.504186 -200.907670 0.000000
-69.582228 79.863429 0.000000
-47.147448 -125.136589 0.000000
-47.210382 -120.074630 0.000000
-50.881514 -122.121365 0.000000
-43.365743 -121.350281 0.000000
-115.716925 52.243319 0.000000
-118.554536 54.365424 0.000000
-196.165636 90.396248 0.000000
-200.885407 90.427536 0.000000
-142.611574 -135.676992 0.000000
111.759002 -75.676034 0.000000
107.094637 -74.698799 0.000000
108.887123 -79.140650 0.000000
109.079986 -70.036945 0.000000
201.266604 142.077231 0.000000
-159.349244 82.605518 0.000000
-156.574932 86.880445 0.000000
-161.373440 86.362842 0.000000
-154.610038 82.600293 0.000000
197.492351 139.743913 0.000000
-82.796098 -159.179655 0.000000
-86.907437 -156.512737 0.000000
-86.254720 -161.356707 0.000000
-82.606438 -154.625331 0.000000
-142.077231 201.266596 0.000000
-139.743423 197.492611 0.000000
-161.653726 44.583756 0.000000
-163.350404 40.339867 0.000000
-158.917022 40.859198 0.000000
-166.206655 44.055064 0.000000
-155.870644 44.680854 0.000000
109.820065 -169.102629 0.000000
-62.939187 -197.586150 0.000000
-63.718645 -201.962675 0.000000
-59.303042 -201.429760 0.000000
138.282759 -79.942493 0.000000
-169.048691 -110.164813 0.000000
140.212412 -83.824475 0.000000
-109.869709 169.043554 0.000000
-110.106487 174.305711 0.000000
101.044878 -87.313117 0.000000
95.674329 -88.339815 0.000000
98.760367 -92.431696 0.000000
96.219905 -83.926669 0.000000
-111.406189 52.614506 0.000000
67.910471 -68.843638 0.000000
71.329740 -65.847872 0.000000
67.718010 -63.212098 0.000000
73.059549 -69.583025 0.000000
77.595249 79.999287 0.000000
80.837525 82.174745 0.000000
77.151806 84.181931 0.000000
80.694917 87.254125 0.000000
74.147009 78.284798 0.000000
77.832729 76.277611 0.000000
123.742431 -145.656407 0.000000
73.639566 74.032299 0.000000
61.597653 -173.187081 0.000000
63.174330 -167.180326 0.000000
-77.794198 143.982192 0.000000
-75.687031 139.896639 0.000000
-72.538193 143.917736 0.000000
-79.666087 140.420810 0.000000
-52.894192 -151.671478 0.000000
118.300057 136.147773 0.000000
116.336039 131.559356 0.000000
-54.477567 -157.034099 0.000000
-57.300299 -197.328969 0.000000
135.742629 -118.394368 0.000000
131.849349 -115.344193 0.000000
-59.857016 -193.338902 0.000000
-185.650260 96.582329 0.000000
-183.268162 91.837755 0.000000
172.666713 73.997739 0.000000
177.658221 75.417108 0.000000
-167.470804 -63.948622 0.000000
65.211133 -161.509682 0.000000
-145.427858 136.588418 0.000000
-96.582677 -185.651531 0.000000
-91.835076 -183.269649 0.000000
-135.574818 -145.944897 0.000000
-134.069177 -149.915899 0.000000
-139.833768 -139.313162 0.000000
-53.981642 170.158441 0.000000
-49.300010 173.624864 0.000000
-54.672948 175.749327 0.000000
136.167552 145.605212 0.000000
-58.640872 171.553940 0.000000
78.367476 -153.814443 0.000000
145.841018 -135.899564 0.000000
149.924061 -134.066027 0.000000
139.808754 -139.152305 0.000000
82.292359 -151.385820 0.000000
-115.949571 -108.686739 0.000000
-111.870844 -111.550305 0.000000
64.673579 200.730616 0.000000
59.424003 199.896520 0.000000
72.601663 143.326634 0.000000
73.521385 148.253360 0.000000
69.468976 146.154242 0.000000
-145.245210 119.942603 0.000000
69.857888 150.565285 0.000000
-119.942277 -145.245494 0.000000
90.311767 99.401825 0.000000
87.048215 101.629886 0.000000
90.220176 95.129086 0.000000
95.056649 96.696514 0.000000
93.274274 91.791017 0.000000
-13.793286 200.758553 0.000000
-14.594675 194.704337 0.000000
-10.886124 198.920483 0.000000
119.669965 145.055041 0.000000
145.123970 -119.352637 0.000000
47.810336 166.404890 0.000000
45.993867 163.019233 0.000000
48.036585 159.778471 0.000000
49.843205 169.422615 0.000000
45.403215 169.757565 0.000000
47.779067 173.311883 0.000000
37.873409 173.514248 0.000000
41.321921 170.391117 0.000000
33.355757 169.836312 0.000000
43.071763 174.056492 0.000000
119.426138 122.879623 0.000000
125.454914 122.152318 0.000000
-178.613163 42.657687 0.000000
-180.159389 38.866992 0.000000
-176.470136 38.772087 0.000000
101.307016 60.541401 0.000000
97.688635 59.220245 0.000000
-183.519707 41.827322 0.000000
-7.682740 -5.097836 0.000000
-2.665266 -6.583377 0.000000
-2.408313 -2.477545 0.000000
-150.263719 -116.380095 0.000000
-156.787089 -116.639077 0.000000
-5.434294 -9.912808 0.000000
-117.135456 150.262313 0.000000
-116.455953 156.034465 0.000000
-115.099132 -113.279543 0.000000
58.731108 178.467225 0.000000
54.657410 180.080831 0.000000
-174.714919 34.978875 0.000000
-172.753467 38.431379 0.000000
157.581416 61.429576 0.000000
161.353611 65.823481 0.000000
155.038083 66.027178 0.000000
-170.109547 34.301972 0.000000
151.239020 -72.509805 0.000000
150.007733 -67.774163 0.000000
146.194271 -70.510878 0.000000
-178.366960 58.468087 0.000000
-174.279165 58.026835 0.000000
146.663785 -64.949307 0.000000
142.842175 -67.497504 0.000000
122.744122 -119.822594 0.000000
122.251599 -126.147671 0.000000
79.246739 137.856431 0.000000
78.869190 133.332075 0.000000
82.993388 135.594977 0.000000
74.609432 134.874200 0.000000
86.533118 132.223295 0.000000
91.107033 136.028286 0.000000
110.383717 -104.859181 0.000000
108.837944 -100.224500 0.000000
107.156283 -108.336807 0.000000
-61.769064 142.955944 0.000000
-59.007879 138.956227 0.000000
-116.117753 162.442591 0.000000
-63.548550 134.346782 0.000000
-162.619104 -114.959697 0.000000
84.508673 84.972016 0.000000
85.303739 79.845732 0.000000
114.669467 -162.750584 0.000000
116.190407 -156.903001 0.000000
111.111206 -159.846918 0.000000
200.197239 -7.900914 0.000000
200.704058 -13.535733 0.000000
-3.346285 89.388197 0.000000
169.954037 -112.627024 0.000000
166.184742 -114.243905 0.000000
-79.275936 103.657497 0.000000
-83.945104 100.621206 0.000000
-79.192459 98.703193 0.000000
-83.816331 105.655892 0.000000
134.402199 -79.525908 0.000000
135.540247 -82.998514 0.000000
132.435709 -86.541257 0.000000
137.334903 -86.522313 0.000000
135.652875 -89.861551 0.000000
147.745381 -44.065099 0.000000
144.627439 -41.794360 0.000000
143.794075 -45.081737 0.000000
140.563148 -42.533809 0.000000
-87.643157 -130.698004 0.000000
-83.834631 -133.264211 0.000000
-82.880730 -128.745792 0.000000
55.063181 -154.465605 0.000000
56.064031 -149.824731 0.000000
-100.851158 76.651597 0.000000
-102.850683 80.836197 0.000000
-97.811061 81.051157 0.000000
-95.708255 76.439945 0.000000
-76.797309 -100.825826 0.000000
-81.095670 -102.795394 0.000000
-85.713890 -126.379392 0.000000
-81.294269 -97.734725 0.000000
-76.875936 -95.780927 0.000000
-74.814312 134.909675 0.000000
-79.029118 136.231101 0.000000
-80.136202 -131.417321 0.000000
-201.750045 -89.290467 0.000000
-200.125239 -93.456221 0.000000
-143.226859 45.209983 0.000000
124.794553 -140.227738 0.000000
120.325670 -142.269269 0.000000
-44.509192 -182.504868 0.000000
-43.037046 -177.856674 0.000000
-147.127080 47.248300 0.000000
-46.946003 -174.266266 0.000000
99.876061 113.532755 0.000000
96.412368 115.867885 0.000000
99.758507 108.486939 0.000000
95.274704 119.922111 0.000000
90.971489 120.274230 0.000000
-123.984275 121.887523 0.000000
-33.565534 160.745981 0.000000
-35.631390 165.658983 0.000000
-37.675787 160.702229 0.000000
-30.717620 165.291620 0.000000
-76.941198 152.348071 0.000000
62.028895 33.806805 0.000000
66.070316 34.407975 0.000000
62.259255 38.317034 0.000000
175.801762 -101.469618 0.000000
179.976938 -97.912581 0.000000
-128.871813 -118.903938 0.000000
-134.053531 -120.154640 0.000000
-130.854561 -123.545850 0.000000
101.564806 175.773563 0.000000
-98.310790 -98.061622 0.000000
-104.688148 -97.513794 0.000000
-176.517857 61.558159 0.000000
-112.560429 -169.872335 0.000000
-114.175760 -166.186207 0.000000
-46.676338 -140.973401 0.000000
-49.911388 -137.760549 0.000000
-50.553779 -142.102630 0.000000
-44.811941 -136.458063 0.000000
69.822997 -143.159769 0.000000
72.573328 -140.229364 0.000000
-104.863467 -172.129792 0.000000
-172.039887 105.588879 0.000000
76.270386 -140.458765 0.000000
74.751928 -136.235738 0.000000
-121.940759 -123.940888 0.000000
-59.295422 -180.214443 0.000000
79.327259 -137.313379 0.000000
-124.779046 79.193722 0.000000
-128.509451 82.446972 0.000000
-128.326294 77.295548 0.000000
-121.412195 118.903933 0.000000
-118.475014 122.785778 0.000000
-152.949873 -48.105927 0.000000
-156.884708 -49.155241 0.000000
-154.800680 -51.986276 0.000000
-156.187247 -44.313206 0.000000
-119.005099 -121.210610 0.000000
-122.927675 -118.341654 0.000000
-152.838854 -55.371219 0.000000
-154.647396 -59.661641 0.000000
-38.261482 -22.059195 0.000000
112.647221 169.824440 0.000000
114.244170 166.187167 0.000000
-82.189871 -123.351198 0.000000
-77.766632 -127.364628 0.000000
19.482702 -170.544542 0.000000
21.843316 -166.556666 0.000000
17.874711 -165.680759 0.000000
75.711251 140.437989 0.000000
71.013016 138.533407 0.000000
67.993841 142.271214 0.000000
-140.672327 139.595120 0.000000
-141.274152 134.092916 0.000000
-134.688728 -141.122216 0.000000
139.234788 140.194137 0.000000
132.711497 141.456787 0.000000
128.568722 82.301041 0.000000
142.144508 -134.450860 0.000000
-87.806434 98.338311 0.000000
-88.329725 102.860952 0.000000
-84.307307 96.057388 0.000000
-78.986582 200.603604 0.000000
90.408641 165.418565 0.000000
85.987070 167.299121 0.000000
85.908144 162.464231 0.000000
82.718655 164.672860 0.000000
-130.793372 87.517110 0.000000
-133.223499 83.888018 0.000000
-131.528385 80.047810 0.000000
78.754829 -200.810487 0.000000
-198.582598 71.965211 0.000000
97.413271 123.451898 0.000000
92.719497 123.870011 0.000000
-143.035782 -58.457471 0.000000
-144.545673 -54.025305 0.000000
-148.972811 -57.729142 0.000000
170.726505 56.915118 0.000000
179.095249 -59.742514 0.000000
174.354085 -57.909327 0.000000
183.016330 -55.912119 0.000000
-149.327275 -51.805719 0.000000
200.468229 84.783065 0.000000
151.153319 -51.032184 0.000000
155.686477 -48.615665 0.000000
151.120349 -46.956596 0.000000
154.218050 -53.942936 0.000000
151.365808 -42.472934 0.000000
147.894015 -38.867812 0.000000
80.892145 157.062468 0.000000
84.993983 157.124611 0.000000
80.772775 160.778675 0.000000
88.315665 -200.105182 0.000000
83.571761 -201.545900 0.000000
129.871416 91.082231 0.000000
128.164073 95.625400 0.000000
125.133210 91.327968 0.000000
123.691103 96.513512 0.000000
-84.591153 201.078203 0.000000
37.867010 -184.871671 0.000000
36.957302 -181.006189 0.000000
42.158411 -178.659433 0.000000
38.487783 -175.990572 0.000000
-200.845266 -85.257507 0.000000
-117.591061 117.165899 0.000000
-113.093469 115.177101 0.000000
-112.996741 120.905652 0.000000
78.402730 165.726308 0.000000
75.035011 161.638934 0.000000
-38.486530 -194.621792 0.000000
-105.137304 -134.789614 0.000000
-100.443094 -133.275624 0.000000
-134.795951 105.135839 0.000000
-133.282229 100.443255 0.000000
74.183032 166.636880 0.000000
-38.545297 -199.989187 0.000000
103.795970 179.767126 0.000000
66.261876 -176.550829 0.000000
67.274396 -170.927431 0.000000
192.950612 -77.188265 0.000000
197.663356 -76.169210 0.000000
-129.054854 72.046574 0.000000
-130.445397 67.871617 0.000000
-125.497218 68.615114 0.000000
-128.463158 63.650420 0.000000
199.259588 31.272248 0.000000
200.482061 34.932274 0.000000
195.224636 34.233365 0.000000
-72.043751 -128.991817 0.000000
-67.873161 -130.369493 0.000000
-68.609797 -125.427337 0.000000
-63.629831 -128.313998 0.000000
-194.470033 45.867787 0.000000
-199.494835 48.254276 0.000000
-198.581664 43.815650 0.000000
75.466445 201.593708 0.000000
72.004548 199.559228 0.000000
76.075658 197.376527 0.000000
72.526390 194.075232 0.000000
105.141937 -112.414528 0.000000
100.817059 -112.882827 0.000000
102.515758 -108.094716 0.000000
-129.161334 -102.530068 0.000000
-124.794511 -105.485829 0.000000
-124.096464 -100.410113 0.000000
172.306637 -45.547249 0.000000
178.017003 -46.020721 0.000000
175.765857 -42.385504 0.000000
95.491067 142.983484 0.000000
95.744054 148.207429 0.000000
142.774543 -93.676731 0.000000
147.080673 -95.589344 0.000000
36.795262 135.687324 0.000000
43.062906 137.076562 0.000000
38.916341 141.054351 0.000000
-167.773526 66.687968 0.000000
-170.580317 61.847230 0.000000
-164.786963 62.288857 0.000000
43.996868 142.602686 0.000000
-17.860631 200.167947 0.000000
-127.266989 -97.460757 0.000000
-131.576630 -98.686551 0.000000
-101.975069 -112.073416 0.000000
-103.496227 -117.316634 0.000000
68.242419 201.658549 0.000000
-107.237889 -114.023960 0.000000
83.510731 106.496516 0.000000
82.112329 110.019443 0.000000
91.895990 -152.512780 0.000000
179.658261 -103.615943 0.000000
97.593689 -150.767541 0.000000
92.909800 -146.936973 0.000000
184.341644 -104.628183 0.000000
-98.890717 149.975456 0.000000
-93.202891 148.608637 0.000000
-97.345803 144.400476 0.000000
-187.943034 169.045343 0.000000
-183.720574 173.259385 0.000000
60.996112 -140.678191 0.000000
-184.361999 168.185840 0.000000
57.782273 -136.927607 0.000000
56.894746 -141.937554 0.000000
52.654095 -139.972177 0.000000
169.045343 187.943034 0.000000
173.259385 183.720574 0.000000
34.688569 144.776146 0.000000
30.657046 148.708689 0.000000
30.505350 144.097653 0.000000
25.726292 146.213953 0.000000
168.185840 184.361999 0.000000
199.535788 -72.215670 0.000000
201.314172 -68.828279 0.000000
78.354249 110.537231 0.000000
74.662042 108.778005 0.000000
70.455176 107.336873 0.000000
74.349080 103.675097 0.000000
68.566468 101.560134 0.000000
201.688849 -75.303758 0.000000
159.070844 -79.390162 0.000000
161.195222 -82.529969 0.000000
163.599088 -78.416260 0.000000
-151.936476 -92.304567 0.000000
-151.488026 -98.035487 0.000000
-146.197145 -94.588128 0.000000
82.000474 76.901041 0.000000
164.743752 -83.964170 0.000000
-65.825360 -166.518743 0.000000
-62.631299 -163.590767 0.000000
-50.444281 -155.127907 0.000000
-48.446179 -151.318657 0.000000
-136.012591 136.812282 0.000000
191.080404 -66.886860 0.000000
-137.454773 -135.294367 0.000000
135.761017 136.179727 0.000000
-158.303625 163.617951 0.000000
136.903102 -136.446622 0.000000
-154.245600 166.338478 0.000000
163.617951 158.303626 0.000000
166.338478 154.245600 0.000000
-157.686413 29.601242 0.000000
-159.167757 24.887710 0.000000
-154.424768 26.006562 0.000000
-155.158253 20.464781 0.000000
-161.546148 32.805966 0.000000
-160.140320 37.054293 0.000000
-132.106073 -158.031354 0.000000
-103.703535 111.740228 0.000000
-108.695628 113.006966 0.000000
80.238405 201.099388 0.000000
48.866552 148.160807 0.000000
53.264950 149.069110 0.000000
44.584610 147.422739 0.000000
48.724654 143.934087 0.000000
74.672439 189.667948 0.000000
77.017515 192.523710 0.000000
-100.352957 109.251254 0.000000
-188.473226 74.726344 0.000000
-191.633406 77.417127 0.000000
-196.846117 76.101206 0.000000
181.465625 30.004093 0.000000
187.420474 36.326244 0.000000
77.408975 150.758842 0.000000
81.458223 153.186555 0.000000
83.797689 149.197569 0.000000
-33.341103 170.580424 0.000000
-28.222924 168.656828 0.000000
-29.489393 173.241826 0.000000
-26.187026 175.760857 0.000000
-30.772003 178.133329 0.000000
98.030683 -142.359884 0.000000
92.107079 -141.175985 0.000000
-25.730605 180.283431 0.000000
120.524825 92.009677 0.000000
119.459877 95.559847 0.000000
116.100372 93.419884 0.000000
116.534870 98.040802 0.000000
126.606643 86.733275 0.000000
158.046380 -132.114355 0.000000
-183.847484 67.582871 0.000000
-21.495952 -46.739828 0.000000
-20.452503 -43.364889 0.000000
-24.551661 -42.893736 0.000000
167.553812 -42.501181 0.000000
171.160517 -40.564700 0.000000
167.542189 -47.462254 0.000000
72.763198 -131.150044 0.000000
77.424668 -132.084441 0.000000
-189.422699 87.647028 0.000000
-192.681396 92.290804 0.000000
-194.418847 86.178089 0.000000
-137.215743 131.312703 0.000000
-131.590292 -137.045685 0.000000
130.542436 136.515646 0.000000
-180.401336 -12.142272 0.000000
-184.318009 -10.546971 0.000000
137.844393 -130.819523 0.000000
-187.588588 92.491031 0.000000
-38.611312 170.952337 0.000000
126.438174 68.234131 0.000000
131.100580 70.323146 0.000000
122.004171 70.217880 0.000000
-185.588900 88.651799 0.000000
-114.398336 -139.433648 0.000000
-112.886914 -134.781950 0.000000
-139.433753 114.399385 0.000000
-134.783630 112.887913 0.000000
-87.363517 -190.165450 0.000000
-92.687708 -192.848546 0.000000
-88.245392 -194.353802 0.000000
-92.491267 -187.592130 0.000000
200.363333 48.311330 0.000000
197.904229 52.760469 0.000000
194.461308 48.324822 0.000000
103.409408 111.053016 0.000000
104.846788 115.397243 0.000000
-201.371694 75.398219 0.000000
46.240650 -153.173336 0.000000
45.045865 -158.059979 0.000000
50.277118 -156.181520 0.000000
40.424798 -154.357714 0.000000
169.651678 93.186619 0.000000
39.815751 146.015240 0.000000
40.352505 151.035057 0.000000
32.470359 139.673129 0.000000
-88.639902 -185.797043 0.000000
-163.204898 89.723779 0.000000
-165.931942 85.815924 0.000000
-169.801056 -38.369985 0.000000
-168.767943 -43.478865 0.000000
-173.275195 -45.757225 0.000000
-166.243160 -35.240398 0.000000
-171.725900 -33.502420 0.000000
191.852189 60.082624 0.000000
196.279413 57.566164 0.000000
196.510040 62.874622 0.000000
-168.372464 -30.040983 0.000000
-102.848644 -138.941217 0.000000
-122.409667 113.907424 0.000000
-117.568644 -116.808536 0.000000
-113.940410 -122.294705 0.000000
141.596501 -63.777655 0.000000
48.560510 199.853976 0.000000
144.374985 -61.056503 0.000000
140.921350 -60.089173 0.000000
143.735301 -57.856101 0.000000
-195.989483 60.391760 0.000000
47.412225 132.845235 0.000000
48.237829 138.566486 0.000000
40.782627 130.985846 0.000000
52.909657 144.515718 0.000000
-86.721574 -122.754357 0.000000
-160.369264 -42.965760 0.000000
-163.985249 -44.270168 0.000000
-160.929330 -47.713976 0.000000
-166.737684 -48.417529 0.000000
-164.085468 82.546092 0.000000
-48.285664 148.394618 0.000000
-48.737851 143.337769 0.000000
-43.210437 150.996921 0.000000
-48.203832 152.492436 0.000000
-45.269448 156.035343 0.000000
-188.006648 -12.360412 0.000000
77.219099 88.602894 0.000000
73.165625 87.391844 0.000000
-38.743748 -168.451161 0.000000
-43.580952 -170.008403 0.000000
-40.717813 -173.368382 0.000000
-37.238192 -177.554055 0.000000
122.994787 118.912814 0.000000
119.053497 116.754340 0.000000
123.896914 115.248436 0.000000
-40.375768 -181.036347 0.000000
-147.537917 74.614577 0.000000
-142.954022 74.444420 0.000000
-144.673555 78.396490 0.000000
118.672594 -124.060252 0.000000
115.617841 -120.489290 0.000000
115.313007 -125.076043 0.000000
-143.834738 69.787560 0.000000
-148.521322 79.219939 0.000000
-152.331650 77.801529 0.000000
-28.417156 161.305508 0.000000
-29.223559 157.541159 0.000000
-64.399844 -142.300921 0.000000
-59.969012 -145.127944 0.000000
-59.455737 -139.852121 0.000000
-63.203802 -137.548676 0.000000
-74.618769 -147.555898 0.000000
-74.450076 -142.930372 0.000000
-78.400525 -144.663778 0.000000
-69.806577 -143.793299 0.000000
186.195181 -9.093960 0.000000
181.552019 -7.642116 0.000000
181.313222 -12.041581 0.000000
-79.231556 -148.521318 0.000000
-138.943582 102.851061 0.000000
-77.850130 -152.530550 0.000000
183.702733 -5.032479 0.000000
-42.322349 160.741284 0.000000
-43.822390 164.650864 0.000000
-47.074110 161.301766 0.000000
-102.054372 132.953156 0.000000
-40.263593 155.727809 0.000000
-133.734123 -101.817491 0.000000
-34.394872 155.658008 0.000000
14.152848 -201.433466 0.000000
10.862304 -199.363268 0.000000
-90.171946 -164.395836 0.000000
-84.755317 -166.793054 0.000000
116.007440 -96.707338 0.000000
111.984047 -97.475927 0.000000
114.407310 -101.534976 0.000000
112.289389 -93.321427 0.000000
-116.889849 -89.794747 0.000000
-112.498573 -87.645986 0.000000
-109.685794 -91.372129 0.000000
3.899401 -201.656761 0.000000
1.008963 -199.256028 0.000000
-166.101176 32.234555 0.000000
-165.023257 36.187028 0.000000
133.422880 -109.680339 0.000000
140.449669 -101.851360 0.000000
-163.359638 28.266083 0.000000
163.653059 -64.600416 0.000000
162.224057 -61.215011 0.000000
-168.600063 40.050577 0.000000
84.095054 -158.539058 0.000000
84.777055 -154.408728 0.000000
81.635024 -155.560741 0.000000
-53.760975 200.141651 0.000000
78.643177 -159.655654 0.000000
-144.532656 102.084266 0.000000
-180.516892 -4.187085 0.000000
-180.679280 0.542317 0.000000
-184.314744 -2.521899 0.000000
74.840937 -155.843740 0.000000
-102.081483 -144.532304 0.000000
-177.332510 -1.651455 0.000000
62.786443 158.279343 0.000000
66.577526 162.670492 0.000000
61.876581 163.054236 0.000000
63.785103 168.047527 0.000000
83.091585 -163.225237 0.000000
60.578908 150.723384 0.000000
65.394419 147.101670 0.000000
65.006463 153.640910 0.000000
-82.232503 -163.179546 0.000000
-142.380324 64.393373 0.000000
-139.767134 59.383450 0.000000
-137.663353 63.240433 0.000000
89.453881 170.536661 0.000000
-109.609494 -83.896041 0.000000
170.368963 -89.438612 0.000000
75.312787 -89.056914 0.000000
68.950358 -87.639362 0.000000
70.370010 -93.340671 0.000000
70.162301 -158.196115 0.000000
72.036732 -83.589758 0.000000
68.937877 122.145849 0.000000
67.721321 116.074525 0.000000
70.162418 111.809189 0.000000
162.684271 97.151758 0.000000
165.182351 101.982924 0.000000
166.448652 -37.977694 0.000000
163.282639 -40.145611 0.000000
189.263942 -113.676215 0.000000
-132.435204 133.284576 0.000000
73.601947 82.175599 0.000000
-133.460516 -132.308907 0.000000
80.179855 -73.004800 0.000000
76.968721 -69.905893 0.000000
74.653468 -74.499513 0.000000
132.885191 131.579205 0.000000
-152.999213 -21.354997 0.000000
-156.344326 -18.765642 0.000000
-157.454421 -24.126326 0.000000
133.108068 -133.953635 0.000000
163.699275 -44.401357 0.000000
170.689195 -35.725669 0.000000
165.625364 -33.048416 0.000000
170.208847 -30.850923 0.000000
-199.132484 -0.274081 0.000000
-200.994552 3.263845 0.000000
5.731719 198.394504 0.000000
9.188983 200.915910 0.000000
-200.153372 -48.225082 0.000000
-199.759949 -53.295716 0.000000
-193.871769 -49.728746 0.000000
141.548725 103.488030 0.000000
136.114564 99.896559 0.000000
136.762177 105.049551 0.000000
132.179331 102.845241 0.000000
34.939735 -168.113590 0.000000
36.273050 -163.236035 0.000000
31.725581 -164.821385 0.000000
-99.407969 -152.377139 0.000000
-95.372458 -151.963465 0.000000
31.520636 -159.362131 0.000000
-152.375737 99.410036 0.000000
-151.961428 95.374381 0.000000
34.272507 -172.784136 0.000000
39.417661 -171.489444 0.000000
-46.716210 -193.635414 0.000000
-44.927989 -187.886360 0.000000
-50.858050 -190.558555 0.000000
-51.756113 -196.591369 0.000000
-47.242263 -197.826530 0.000000
101.072391 140.851073 0.000000
108.379951 133.591498 0.000000
74.292837 -120.898982 0.000000
67.986156 -119.315966 0.000000
70.424434 -125.719114 0.000000
72.458868 -115.141557 0.000000
114.544282 82.471078 0.000000
112.782763 86.467243 0.000000
110.669700 82.330280 0.000000
-144.113659 -88.749553 0.000000
-148.362367 -89.199048 0.000000
-140.353400 -92.662132 0.000000
87.172591 -150.079946 0.000000
87.016950 -143.713634 0.000000
108.681285 85.990386 0.000000
36.835998 -158.119753 0.000000
40.689766 -160.596981 0.000000
49.364811 -161.522557 0.000000
191.993971 -110.499781 0.000000
50.941397 -185.648514 0.000000
48.263581 -200.146145 0.000000
53.804398 -199.434332 0.000000
49.876921 -194.403504 0.000000
103.742185 134.987437 0.000000
21.305437 148.279431 0.000000
25.732020 151.750465 0.000000
19.347002 153.156619 0.000000
-25.084710 -153.509472 0.000000
-30.334402 -157.572683 0.000000
-23.904859 -159.138696 0.000000
-27.080641 -163.022822 0.000000
199.895003 -3.106456 0.000000
195.011455 -4.822341 0.000000
196.295777 1.502401 0.000000
-133.515949 129.381507 0.000000
-33.856668 181.758648 0.000000
-36.831419 185.266379 0.000000
-129.472971 -133.484828 0.000000
133.638785 -130.042215 0.000000
-29.564504 183.552764 0.000000
128.653396 133.306763 0.000000
-29.878082 -167.839598 0.000000
-32.050043 -162.497169 0.000000
-35.161566 -165.465860 0.000000
-158.120360 -33.621798 0.000000
-161.646779 -36.341773 0.000000
-158.073668 -38.701296 0.000000
-163.209081 -31.896510 0.000000
70.237667 -13.679965 0.000000
69.395677 -9.684123 0.000000
65.054663 -12.649254 0.000000
67.000332 -6.417915 0.000000
86.311528 -120.798191 0.000000
90.846192 -119.301887 0.000000
85.818078 -125.924782 0.000000
196.890458 -62.345009 0.000000
196.746625 -57.607258 0.000000
192.830629 -59.836639 0.000000
13.501418 -177.389624 0.000000
16.174486 -181.457544 0.000000
19.347777 -176.864157 0.000000
21.515146 -182.457350 0.000000
64.016273 195.320638 0.000000
59.483651 195.127850 0.000000
61.603285 190.293597 0.000000
160.972965 45.608844 0.000000
166.806515 48.480669 0.000000
162.508949 51.816690 0.000000
165.413713 43.082734 0.000000
157.571423 49.944394 0.000000
155.713661 44.618258 0.000000
201.029557 -64.848295 0.000000
196.753468 -68.175998 0.000000
27.185527 -183.135078 0.000000
24.218722 -187.940600 0.000000
28.708362 -189.444350 0.000000
180.542401 66.106106 0.000000
186.292343 67.031469 0.000000
182.536174 72.299065 0.000000
-192.785153 16.349100 0.000000
-189.608260 12.239173 0.000000
163.319541 -95.320206 0.000000
-177.851679 -31.826524 0.000000
-173.431169 -28.841534 0.000000
95.523330 163.333752 0.000000
-95.253658 -162.656791 0.000000
67.380701 -131.614148 0.000000
-162.490717 95.143077 0.000000
-65.988379 193.859229 0.000000
-66.144219 197.529736 0.000000
-69.854106 196.086608 0.000000
76.442502 -125.749107 0.000000
69.796024 133.502475 0.000000
65.478708 136.903137 0.000000
31.027815 153.309523 0.000000
35.919760 155.374620 0.000000
30.505994 158.445987 0.000000
36.595959 160.481922 0.000000
40.788233 155.861289 0.000000
35.507294 150.210926 0.000000
93.841164 154.109098 0.000000
42.313525 160.361966 0.000000
94.506437 -117.703497 0.000000
96.666183 -113.572240 0.000000
97.008524 -108.587804 0.000000
90.348414 -89.459898 0.000000
91.958987 -85.368914 0.000000
94.238509 -91.955879 0.000000
-28.946183 -190.687372 0.000000
-25.362267 -195.761909 0.000000
-24.115531 -191.026030 0.000000
-19.089915 -189.292357 0.000000
-24.710679 -185.417059 0.000000
-19.650157 -182.724831 0.000000
-94.610066 86.006497 0.000000
-92.564517 80.705873 0.000000
-100.110407 85.404043 0.000000
-86.732693 -94.666294 0.000000
-81.290818 -92.378427 0.000000
180.185811 46.606268 0.000000
181.870947 50.684296 0.000000
176.947570 50.111869 0.000000
185.358597 46.381103 0.000000
173.654093 53.685409 0.000000
172.047963 48.976543 0.000000
-138.197560 -58.867500 0.000000
-140.412195 -62.621628 0.000000
-139.390294 -54.131898 0.000000
-142.128086 -66.260291 0.000000
-138.324627 -66.336780 0.000000
-125.072281 -60.034993 0.000000
-129.967825 -58.755406 0.000000
-128.363097 -64.890200 0.000000
-126.825842 -55.134218 0.000000
-192.609146 -66.182592 0.000000
-197.397494 -65.005049 0.000000
-195.893009 -69.657077 0.000000
105.919161 74.674653 0.000000
103.640591 69.774434 0.000000
108.080823 71.374784 0.000000
107.131901 66.213238 0.000000
105.857310 80.115486 0.000000
100.534224 75.501354 0.000000
100.215040 81.092109 0.000000
66.097573 -193.187571 0.000000
65.382572 -197.410959 0.000000
69.782148 -195.946977 0.000000
-116.392868 -64.416136 0.000000
-119.078967 -68.625772 0.000000
-114.323898 -69.956755 0.000000
-118.900356 -73.674575 0.000000
-111.825552 -61.681997 0.000000
-115.636228 -58.746484 0.000000
-153.330259 -25.294700 0.000000
-150.260985 -29.888150 0.000000
-149.383431 -24.406084 0.000000
-157.173578 78.530802 0.000000
-162.521099 78.318297 0.000000
-78.572748 -157.313871 0.000000
-79.038750 -161.820126 0.000000
-199.482488 -24.247411 0.000000
-201.838007 -28.256000 0.000000
-197.209841 -27.446634 0.000000
-136.563420 -113.569338 0.000000
-133.108137 -111.052962 0.000000
-68.136810 -195.005624 0.000000
-73.270791 -194.646373 0.000000
-70.198785 -191.400534 0.000000
-69.852839 -119.334142 0.000000
-64.895435 -122.447133 0.000000
-65.205441 -116.690806 0.000000
16.939626 141.971154 0.000000
17.947412 145.922921 0.000000
14.002208 143.920224 0.000000
-120.167568 69.264936 0.000000
-122.770970 64.706529 0.000000
-116.954528 64.295855 0.000000
21.153939 142.836720 0.000000
-122.718754 -85.440955 0.000000
-126.155618 -88.646245 0.000000
-121.643659 -90.624544 0.000000
-128.601580 -84.876313 0.000000
155.023516 -32.508500 0.000000
160.161306 -29.203776 0.000000
153.947115 -27.762447 0.000000
157.868402 -23.399931 0.000000
150.240240 -33.669551 0.000000
154.129046 -38.237603 0.000000
81.296523 -90.320791 0.000000
78.371859 -84.250907 0.000000
77.352574 -94.549413 0.000000
79.829608 -78.331562 0.000000
74.667594 -80.209757 0.000000
-75.822633 105.952208 0.000000
-70.094471 106.452803 0.000000
-73.108970 110.066317 0.000000
175.431268 -33.119334 0.000000
175.842602 -38.087730 0.000000
-73.672901 101.424520 0.000000
181.039495 -35.647069 0.000000
129.254980 -131.724073 0.000000
180.939875 -29.535548 0.000000
-45.504897 140.690369 0.000000
-43.837916 144.912409 0.000000
-42.092264 140.568810 0.000000
194.785407 28.343709 0.000000
115.073570 -71.111262 0.000000
116.729994 -75.878803 0.000000
199.984183 24.518495 0.000000
195.164764 23.586671 0.000000
199.149090 20.953702 0.000000
195.033909 18.979484 0.000000
70.099307 128.150614 0.000000
64.774725 126.337914 0.000000
-96.082769 -156.481047 0.000000
-99.300024 -159.420463 0.000000
15.522555 -151.868079 0.000000
18.650878 -154.393467 0.000000
19.886564 -150.893266 0.000000
-156.454388 96.079745 0.000000
-159.364975 99.323624 0.000000
-187.772464 -7.052337 0.000000
-193.150057 -10.187049 0.000000
22.774661 -154.240215 0.000000
-189.056663 -1.569885 0.000000
-185.193129 2.774574 0.000000
-104.112473 151.282284 0.000000
-161.099829 5.325061 0.000000
-157.435877 8.179753 0.000000
-161.561136 9.538186 0.000000
-157.353479 12.263151 0.000000
-151.929370 -103.602451 0.000000
130.875924 -52.032124 0.000000
133.892182 -48.397237 0.000000
129.138603 -46.263574 0.000000
-106.413421 -146.854103 0.000000
134.882128 -43.009034 0.000000
-85.480894 64.449613 0.000000
-87.320422 69.090175 0.000000
-89.148435 65.268773 0.000000
-146.853910 106.414899 0.000000
129.919744 -40.073578 0.000000
125.105334 -39.449684 0.000000
121.517232 -36.987737 0.000000
120.819408 -42.366550 0.000000
116.190313 -39.103345 0.000000
157.354120 -95.353662 0.000000
159.730463 -99.323085 0.000000
-82.669759 67.988995 0.000000
87.694677 -62.809726 0.000000
83.275972 -62.828743 0.000000
85.881550 -67.667215 0.000000
58.034947 -132.017284 0.000000
62.329222 -128.760297 0.000000
57.701853 -126.574753 0.000000
81.045206 -67.432193 0.000000
52.654071 -133.840298 0.000000
51.637295 128.512036 0.000000
45.603476 126.727770 0.000000
131.029081 -77.008508 0.000000
132.383012 -73.068104 0.000000
127.673553 -73.718537 0.000000
125.949693 -79.220726 0.000000
-31.548700 145.450071 0.000000
-28.358107 149.158002 0.000000
-33.052918 149.923200 0.000000
-54.060245 136.134423 0.000000
-57.838211 133.314132 0.000000
112.229602 69.604391 0.000000
117.175674 66.564856 0.000000
112.662192 64.286777 0.000000
-27.326340 144.655573 0.000000
25.660124 163.022509 0.000000
31.739227 164.160812 0.000000
24.215771 157.218588 0.000000
28.496131 167.887852 0.000000
23.027844 169.023227 0.000000
197.515801 13.941556 0.000000
192.054655 14.173400 0.000000
195.751328 9.613391 0.000000
121.640064 42.666302 0.000000
117.188262 40.772673 0.000000
120.320385 38.173190 0.000000
83.868023 -105.746735 0.000000
117.477408 45.238709 0.000000
11.439195 154.180824 0.000000
11.270463 150.044597 0.000000
14.365002 152.583288 0.000000
126.325708 59.897350 0.000000
123.101297 64.420283 0.000000
7.174480 153.672964 0.000000
-14.841825 -199.137906 0.000000
81.910235 -187.903648 0.000000
8.534964 -189.155898 0.000000
11.270278 -193.434420 0.000000
14.023120 -188.816859 0.000000
46.770974 -126.881238 0.000000
44.727852 -130.647786 0.000000
49.105025 -130.331567 0.000000
166.536833 89.029732 0.000000
5.574364 -184.554132 0.000000
3.863788 -189.951554 0.000000
46.856559 -134.320139 0.000000
61.649251 -119.366122 0.000000
64.748602 -114.428720 0.000000
64.808845 -124.200976 0.000000
11.689051 -169.761989 0.000000
14.867375 -172.987991 0.000000
15.514379 -168.515888 0.000000
140.278486 108.434745 0.000000
-75.206265 95.736497 0.000000
-79.931853 93.485247 0.000000
52.373187 -0.914712 0.000000
54.307643 -4.940702 0.000000
58.043084 -2.308602 0.000000
-134.382779 -41.297675 0.000000
-132.055751 -37.418873 0.000000
-136.201966 -36.714928 0.000000
29.144095 187.031497 0.000000
26.185305 190.045732 0.000000
24.355866 186.329414 0.000000
30.121780 192.002866 0.000000
18.784913 185.951975 0.000000
22.745814 181.267590 0.000000
17.677930 179.826472 0.000000
153.300100 -5.038802 0.000000
157.026046 -2.499573 0.000000
153.843265 -0.379958 0.000000
158.503102 -6.880334 0.000000
181.354140 24.829544 0.000000
176.900431 27.602755 0.000000
-37.857914 151.049828 0.000000
-36.072413 146.100541 0.000000
142.448342 44.211563 0.000000
146.539470 45.346047 0.000000
144.579647 49.223704 0.000000
149.348879 48.813325 0.000000
21.756504 -147.428089 0.000000
24.447421 -150.069675 0.000000
16.263601 196.863375 0.000000
20.619157 196.040206 0.000000
18.696833 200.729994 0.000000
23.835723 200.212783 0.000000
16.439631 191.838886 0.000000
21.921012 191.157981 0.000000
13.515601 200.528944 0.000000
-69.942759 133.232100 0.000000
-70.712437 127.622292 0.000000
-65.965447 129.314088 0.000000
-64.445499 -177.706038 0.000000
17.067372 -147.180598 0.000000
-132.033449 54.613177 0.000000
-127.981857 58.112045 0.000000
-133.780006 59.730026 0.000000
-33.774016 -127.249737 0.000000
-35.888939 -132.057621 0.000000
-30.931198 -131.473557 0.000000
-33.342681 -136.058336 0.000000
-180.123547 5.739004 0.000000
135.660695 -15.963563 0.000000
133.806508 -20.753969 0.000000
137.743799 -19.419046 0.000000
130.366365 -16.734793 0.000000
141.724906 -22.311066 0.000000
141.822079 -18.846262 0.000000
23.822262 99.613277 0.000000
19.158533 99.570917 0.000000
20.964525 94.338710 0.000000
-98.539684 129.090592 0.000000
-102.933488 128.101404 0.000000
-97.419265 134.859744 0.000000
-107.862283 127.035880 0.000000
-103.645956 123.962687 0.000000
-108.748589 122.707027 0.000000
-85.254898 90.934104 0.000000
-80.747202 88.122954 0.000000
-80.487351 82.148168 0.000000
-76.237741 85.699093 0.000000
98.952647 -130.219566 0.000000
103.785183 -127.902270 0.000000
98.776680 -135.894251 0.000000
-75.000972 80.104059 0.000000
75.064552 -109.752621 0.000000
78.475272 -105.304900 0.000000
80.778910 -122.174026 0.000000
96.118423 72.723631 0.000000
92.426896 73.684050 0.000000
-189.218103 43.037080 0.000000
-187.735569 37.140967 0.000000
-26.118459 140.716966 0.000000
-30.195701 141.956998 0.000000
-29.726918 138.189854 0.000000
191.218111 -18.225641 0.000000
197.297152 -18.404518 0.000000
182.032079 152.716396 0.000000
176.057364 152.276709 0.000000
180.000888 147.887794 0.000000
201.767522 -18.197793 0.000000
-195.535758 10.621303 0.000000
-197.370704 15.536322 0.000000
-152.716396 182.032079 0.000000
-152.276708 176.057361 0.000000
-147.887794 180.000888 0.000000
-79.206190 109.587965 0.000000
-75.561076 113.700249 0.000000
144.132878 -15.480579 0.000000
145.714745 -20.004310 0.000000
186.552431 -30.336166 0.000000
185.353421 -25.324816 0.000000
185.723813 -20.306831 0.000000
180.743419 -17.664646 0.000000
15.686097 96.580691 0.000000
157.279844 -180.111047 0.000000
147.263894 -11.975818 0.000000
141.982652 -11.662607 0.000000
-180.111047 -157.279844 0.000000
143.927517 -8.578387 0.000000
31.825170 99.387523 0.000000
34.239001 103.996931 0.000000
30.427885 102.798352 0.000000
85.789119 -72.249948 0.000000
155.822656 181.349810 0.000000
157.573307 177.004410 0.000000
160.576299 180.413348 0.000000
-35.951773 -183.482848 0.000000
-32.817581 -178.167171 0.000000
-181.349810 155.822656 0.000000
-177.004410 157.573307 0.000000
-180.413348 160.576299 0.000000
-28.068559 -180.042322 0.000000
-29.109514 -174.189262 0.000000
37.071327 99.587746 0.000000
112.765097 -128.851020 0.000000
108.127932 -128.700579 0.000000
124.766195 -66.502494 0.000000
121.429556 -61.682766 0.000000
118.522941 -66.037946 0.000000
126.964846 -60.336230 0.000000
112.797834 -64.847013 0.000000
-122.761468 130.876041 0.000000
-122.753403 135.480697 0.000000
-127.408318 133.589178 0.000000
-135.331307 -123.375997 0.000000
-133.547385 -127.588378 0.000000
-143.897735 25.104484 0.000000
-146.844511 21.866388 0.000000
-141.956155 21.271263 0.000000
-67.142453 189.688870 0.000000
-62.752772 191.136125 0.000000
-145.402875 18.152830 0.000000
165.863800 -28.651846 0.000000
164.261904 -23.695745 0.000000
169.061580 -26.460369 0.000000
-177.433856 -49.132790 0.000000
-171.804789 -50.473209 0.000000
160.380383 -35.880588 0.000000
-106.189575 -80.695815 0.000000
-110.832883 -78.474635 0.000000
-199.876034 -192.075214 0.000000
-197.100504 -197.005745 0.000000
192.075214 -199.876034 0.000000
197.005745 -197.100504 0.000000
-170.311289 18.034587 0.000000
-172.698170 14.454947 0.000000
-169.202009 13.239119 0.000000
-175.298489 18.245284 0.000000
-49.376273 -113.363381 0.000000
-45.652527 -111.369051 0.000000
-49.686491 -109.617117 0.000000
200.828929 -200.797094 0.000000
201.182979 -196.202205 0.000000
-45.511686 -116.288984 0.000000
-165.321950 11.501627 0.000000
-162.076742 14.115432 0.000000
-200.797094 -200.828929 0.000000
-196.202205 -201.182979 0.000000
-20.840808 -39.232745 0.000000
201.613386 -191.622316 0.000000
-168.355964 9.574686 0.000000
-191.622316 -201.613386 0.000000
-89.390919 73.069449 0.000000
-84.015121 73.216287 0.000000
-87.785739 78.107941 0.000000
-30.643107 -28.758291 0.000000
-196.826670 201.722799 0.000000
-200.948726 199.896864 0.000000
-195.924475 198.268600 0.000000
-199.014938 194.661647 0.000000
201.722799 196.826670 0.000000
199.896864 200.948726 0.000000
198.268600 195.924475 0.000000
-172.512539 10.153033 0.000000
194.661647 199.014938 0.000000
56.480600 -110.382085 0.000000
51.673256 -107.850806 0.000000
51.818827 -113.349335 0.000000
132.075201 110.556311 0.000000
127.210262 111.897869 0.000000
128.697675 106.294145 0.000000
-192.975604 201.463573 0.000000
-73.596525 -87.919578 0.000000
-75.310822 -81.926973 0.000000
-79.651279 -86.441063 0.000000
55.209165 -105.817176 0.000000
-165.347298 -27.038849 0.000000
179.270475 -3.622998 0.000000
183.041624 -1.092324 0.000000
177.904582 0.256016 0.000000
201.463573 192.975604 0.000000
71.500533 -174.358079 0.000000
69.518535 167.357070 0.000000
-128.146230 43.067299 0.000000
-125.559017 38.692408 0.000000
-123.014027 44.678355 0.000000
-172.758323 67.692183 0.000000
-119.076894 39.840071 0.000000
-201.604856 -196.909850 0.000000
196.909850 -201.604856 0.000000
-54.696672 -131.797886 0.000000
-57.894578 -127.841959 0.000000
-59.621161 -133.554466 0.000000
-52.189700 -127.145203 0.000000
-110.128119 132.054696 0.000000
-113.428487 126.847568 0.000000
47.767447 117.223640 0.000000
48.223238 113.177570 0.000000
51.414277 115.159659 0.000000
122.855337 -56.167963 0.000000
44.583284 113.918674 0.000000
-128.764915 -33.263882 0.000000
-135.071832 -32.532195 0.000000
-41.714821 -113.440144 0.000000
-41.646170 -108.992933 0.000000
-127.612711 -113.654930 0.000000
-129.141768 -108.231822 0.000000
-9.171474 -146.667308 0.000000
-12.563433 -150.905684 0.000000
-8.992664 -151.537947 0.000000
-14.507576 -146.031895 0.000000
72.792792 -98.841174 0.000000
66.530585 -99.006519 0.000000
-6.674800 -154.810702 0.000000
-5.214495 -149.912914 0.000000
78.759878 100.156320 0.000000
73.570757 97.299322 0.000000
-199.483729 52.137632 0.000000
-2.465878 -153.380489 0.000000
-100.122703 -68.025074 0.000000
-99.312216 -71.810004 0.000000
-96.045063 -70.181073 0.000000
-102.752638 -71.559467 0.000000
53.446221 200.733073 0.000000
-124.116930 -76.510095 0.000000
-129.975986 -73.626643 0.000000
-129.054608 -79.378205 0.000000
58.688468 -200.837243 0.000000
-68.133449 -173.447755 0.000000
186.435189 -15.183675 0.000000
-201.494302 191.268913 0.000000
191.268913 201.494302 0.000000
63.715957 121.250430 0.000000
62.095977 116.675475 0.000000
-120.178038 -59.996106 0.000000
-122.062097 -64.863928 0.000000
-59.179343 200.789806 0.000000
-12.477013 190.504617 0.000000
-8.602967 188.571657 0.000000
-27.688119 -26.188089 0.000000
-20.181392 195.218273 0.000000
-5.213743 -179.678037 0.000000
0.048591 -176.402814 0.000000
-5.427386 -173.345153 0.000000
0.684987 -181.605219 0.000000
127.786102 -55.574205 0.000000
125.983960 -51.412174 0.000000
31.979112 134.859893 0.000000
34.442386 131.065942 0.000000
81.735856 72.762376 0.000000
87.179913 74.266051 0.000000
76.924308 71.684663 0.000000
69.504862 84.286729 0.000000
131.298763 58.979883 0.000000
135.952609 57.095758 0.000000
135.503776 62.493459 0.000000
-196.431649 -82.707337 0.000000
-24.920866 151.493565 0.000000
-24.502109 147.703373 0.000000
-29.243684 153.198531 0.000000
-145.548818 -38.456944 0.000000
-140.636126 -35.349156 0.000000
-145.145731 -33.046007 0.000000
62.914402 94.422258 0.000000
64.467026 98.238754 0.000000
60.214887 97.776824 0.000000
62.658193 101.700249 0.000000
-119.854096 -49.695760 0.000000
-117.237933 -46.366794 0.000000
-121.011326 -44.452582 0.000000
44.861108 -174.669064 0.000000
50.876131 -176.553244 0.000000
12.795175 186.332384 0.000000
-181.182662 27.338484 0.000000
-175.902924 24.185406 0.000000
-174.707022 30.116834 0.000000
-115.991667 -50.092159 0.000000
37.287765 126.489244 0.000000
34.987832 122.066004 0.000000
41.150721 122.097926 0.000000
-186.643119 -67.934238 0.000000
-189.406578 -62.543810 0.000000
31.268473 125.987413 0.000000
6.905620 148.145410 0.000000
10.408134 146.076281 0.000000
9.594151 141.966711 0.000000
13.574907 139.001266 0.000000
-82.858499 196.761818 0.000000
118.942352 50.295945 0.000000
124.119155 47.554600 0.000000
74.403702 -169.978969 0.000000
74.597519 -164.570516 0.000000
70.818646 -168.111407 0.000000
-7.931522 -13.444916 0.000000
-10.424084 -9.827135 0.000000
-11.751960 -14.744686 0.000000
-21.916157 154.302843 0.000000
-25.542123 155.409247 0.000000
175.704905 -14.247644 0.000000
177.278485 -8.419560 0.000000
-57.816110 -111.859949 0.000000
-54.145877 -108.341925 0.000000
-59.028763 -106.901965 0.000000
111.487195 -124.518254 0.000000
160.011447 -90.313312 0.000000
-55.230855 -104.420019 0.000000
154.008707 -93.481320 0.000000
96.866651 157.937809 0.000000
90.567739 159.491555 0.000000
140.013828 58.473621 0.000000
-121.901591 -113.181107 0.000000
-91.003873 -158.744914 0.000000
-158.741156 90.998748 0.000000
70.545792 76.225451 0.000000
69.785543 80.028043 0.000000
13.047426 5.514051 0.000000
11.011117 1.780970 0.000000
15.494706 1.716701 0.000000
12.352090 -1.855381 0.000000
15.859798 9.176135 0.000000
11.094830 9.579039 0.000000
13.606451 13.375441 0.000000
122.893559 -27.698795 0.000000
122.386076 -32.309412 0.000000
126.497517 -30.385606 0.000000
5.817179 -160.749196 0.000000
4.069535 -156.269649 0.000000
0.768417 -159.738132 0.000000
195.940207 88.252841 0.000000
195.453529 82.901866 0.000000
9.354192 -156.705721 0.000000
118.277714 -29.384660 0.000000
128.305172 -26.162628 0.000000
123.276637 -22.500471 0.000000
-60.920166 121.999929 0.000000
-63.356314 118.910920 0.000000
-59.225831 118.386994 0.000000
-63.074667 115.003455 0.000000
-57.868914 124.785136 0.000000
-62.600812 125.656633 0.000000
-60.506750 129.446136 0.000000
12.849729 -143.602364 0.000000
17.089203 -142.759171 0.000000
14.102450 -139.544641 0.000000
18.960289 -138.620564 0.000000
41.777360 -128.533544 0.000000
44.405877 -122.508658 0.000000
37.835275 -124.112795 0.000000
67.876290 -188.555984 0.000000
62.406980 -189.358445 0.000000
-57.576548 98.385945 0.000000
-57.994686 102.471489 0.000000
-61.793561 100.867141 0.000000
-61.544467 104.913691 0.000000
-197.793477 -30.861241 0.000000
-199.334119 -35.023160 0.000000
-194.056703 -33.991030 0.000000
11.634281 21.902821 0.000000
10.190004 16.399958 0.000000
14.300112 18.689576 0.000000
-31.433598 196.057120 0.000000
-35.596087 197.844340 0.000000
-36.178070 193.755255 0.000000
6.854812 20.871287 0.000000
16.918624 15.510355 0.000000
17.752382 20.285365 0.000000
21.462817 18.675038 0.000000
-59.754674 -102.724962 0.000000
-58.546513 -98.236087 0.000000
105.387250 -36.753962 0.000000
108.643667 -31.910035 0.000000
104.690659 -32.199811 0.000000
-63.357433 -104.768947 0.000000
-62.772615 -108.872987 0.000000
-118.837978 128.828384 0.000000
-14.692641 -158.343645 0.000000
-11.131694 -155.838026 0.000000
-14.904892 -154.454462 0.000000
148.569730 52.764902 0.000000
143.906734 54.494975 0.000000
-10.745208 -183.204122 0.000000
-6.309592 -184.826826 0.000000
-19.159822 -160.463021 0.000000
-21.201877 -164.214567 0.000000
-14.837193 -163.316272 0.000000
-15.551619 -180.032067 0.000000
-16.087608 -184.634983 0.000000
8.104619 -170.822246 0.000000
8.419341 -167.238123 0.000000
10.396697 -173.635520 0.000000
9.012327 -163.262833 0.000000
5.767203 -164.749632 0.000000
117.436401 -128.765662 0.000000
121.571207 -131.728939 0.000000
7.368600 178.221109 0.000000
1.398066 177.955499 0.000000
4.386062 173.623732 0.000000
-150.322123 170.880660 0.000000
4.619468 180.577135 0.000000
-106.887496 54.491281 0.000000
-106.287910 58.657893 0.000000
127.011354 117.460983 0.000000
130.913208 120.944232 0.000000
30.252665 -195.567592 0.000000
34.455290 -198.309078 0.000000
107.365660 45.609395 0.000000
110.087436 49.533734 0.000000
61.270268 175.730515 0.000000
170.880666 150.322123 0.000000
-162.733902 165.462588 0.000000
-149.456689 91.799310 0.000000
-154.081180 91.320986 0.000000
89.410251 60.458474 0.000000
87.418776 55.338843 0.000000
91.124939 56.894523 0.000000
85.014529 59.775552 0.000000
0.864286 170.188473 0.000000
5.679140 169.429474 0.000000
-0.418548 173.845853 0.000000
7.063198 164.595948 0.000000
9.618876 168.770923 0.000000
11.725096 165.308964 0.000000
41.886635 92.413691 0.000000
41.349987 97.591862 0.000000
37.306980 93.841837 0.000000
4.200140 15.490266 0.000000
1.097754 20.754300 0.000000
-1.010138 15.807507 0.000000
38.625265 105.340424 0.000000
35.494420 109.018430 0.000000
31.293172 107.427179 0.000000
-50.465864 -105.598385 0.000000
-53.122898 -112.936155 0.000000
-47.112516 -103.254776 0.000000
157.564707 -12.590772 0.000000
155.043229 -17.844115 0.000000
161.279662 -17.444401 0.000000
-47.633145 -97.701645 0.000000
-33.446101 135.945238 0.000000
-29.057240 133.617574 0.000000
-34.286720 140.906112 0.000000
-126.017145 29.591961 0.000000
-126.452712 34.514768 0.000000
-129.930717 32.492139 0.000000
-121.790895 33.253442 0.000000
-131.625957 28.825804 0.000000
-128.192008 24.251874 0.000000
-14.428380 -6.156150 0.000000
165.462588 162.733902 0.000000
-15.176107 -11.539613 0.000000
-2.445393 155.605049 0.000000
2.219415 155.107462 0.000000
-3.293675 160.388785 0.000000
-18.883055 -143.048192 0.000000
-20.598913 -137.968018 0.000000
-23.409919 -141.968581 0.000000
-17.084137 -138.772682 0.000000
-27.103745 -141.820827 0.000000
-26.125965 -145.382159 0.000000
160.202302 87.828704 0.000000
-29.924078 -145.148993 0.000000
-194.909520 146.826259 0.000000
-190.156575 145.703173 0.000000
-191.568278 150.471118 0.000000
-196.321697 151.317195 0.000000
146.021196 -1.537716 0.000000
149.321827 1.645517 0.000000
144.690134 2.205934 0.000000
147.746120 5.667305 0.000000
-187.420703 149.783572 0.000000
146.826259 194.909521 0.000000
145.703174 190.156576 0.000000
150.471118 191.568278 0.000000
151.317195 196.321697 0.000000
143.446490 -4.478502 0.000000
147.773054 -6.065030 0.000000
149.783572 187.420703 0.000000
-48.575165 105.273562 0.000000
-47.464724 109.312692 0.000000
-51.839256 108.021701 0.000000
-43.156104 106.518798 0.000000
152.824544 19.124733 0.000000
152.693243 22.597679 0.000000
149.114539 20.860691 0.000000
157.239428 20.915932 0.000000
53.092282 8.257838 0.000000
50.520754 13.267444 0.000000
48.542750 7.961237 0.000000
55.111008 13.314597 0.000000
152.583394 3.688655 0.000000
155.583392 5.887045 0.000000
151.615510 7.464325 0.000000
155.736072 10.398278 0.000000
150.007630 -2.119398 0.000000
186.743352 1.901163 0.000000
188.454366 -3.710998 0.000000
154.930581 26.350645 0.000000
157.659823 31.245493 0.000000
151.753467 30.107035 0.000000
152.902636 34.557483 0.000000
11.082967 -148.730945 0.000000
7.069869 -152.515932 0.000000
11.645367 -153.326424 0.000000
7.657524 133.917959 0.000000
11.231329 134.974998 0.000000
8.492505 137.598474 0.000000
-34.819356 -117.419717 0.000000
-37.899671 -122.631655 0.000000
-32.132167 -122.525520 0.000000
-40.107635 -117.226815 0.000000
10.582136 130.593776 0.000000
30.977229 -122.992536 0.000000
33.899820 -127.989901 0.000000
188.005552 62.105352 0.000000
187.164228 56.860416 0.000000
5.115668 139.746674 0.000000
5.131893 143.903611 0.000000
-187.369528 56.755724 0.000000
-136.250230 28.481812 0.000000
-134.070873 24.657762 0.000000
-135.294771 33.479274 0.000000
87.667367 64.667274 0.000000
85.547604 68.813174 0.000000
83.008442 64.201860 0.000000
80.930108 68.631716 0.000000
94.180076 60.762458 0.000000
-134.061516 -2.407191 0.000000
-138.898722 -3.842761 0.000000
-135.134910 -7.088411 0.000000
-137.312318 0.792039 0.000000
-59.322044 113.331543 0.000000
-55.372953 116.137159 0.000000
150.637743 78.559371 0.000000
152.232999 83.505727 0.000000
147.392181 83.307412 0.000000
150.138202 92.108640 0.000000
154.055212 88.268590 0.000000
2.074705 147.082371 0.000000
3.237116 151.633158 0.000000
-7.438485 -142.243084 0.000000
-3.749236 -144.844735 0.000000
-4.401732 -140.219865 0.000000
-12.897935 170.427645 0.000000
-16.488679 167.643508 0.000000
-13.449782 165.384603 0.000000
-17.672026 172.519417 0.000000
162.793995 23.174582 0.000000
168.002599 24.438492 0.000000
164.697644 27.583075 0.000000
165.779467 20.517860 0.000000
61.993188 184.827851 0.000000
165.755950 32.481105 0.000000
162.321256 30.417486 0.000000
162.196255 34.781350 0.000000
111.421779 -36.059371 0.000000
-20.595737 30.050115 0.000000
-24.076304 27.584482 0.000000
-18.675696 25.719612 0.000000
-104.733785 63.695300 0.000000
-102.135869 59.502152 0.000000
-102.341044 54.950235 0.000000
-112.564327 -34.894675 0.000000
-115.694185 -38.319505 0.000000
-111.647528 -40.104564 0.000000
-117.522118 -34.392814 0.000000
-5.707793 -57.586130 0.000000
-9.276957 -58.975448 0.000000
-7.042882 -61.713749 0.000000
-153.739167 -6.896319 0.000000
-159.142723 -6.164410 0.000000
-156.901111 -10.848270 0.000000
-156.057749 -1.511356 0.000000
-29.127960 -135.266697 0.000000
-26.102542 -132.007009 0.000000
-24.047557 32.295681 0.000000
128.878775 -21.656009 0.000000
34.779463 13.759705 0.000000
30.957189 16.543445 0.000000
29.819003 12.211511 0.000000
131.923707 -30.976356 0.000000
132.765316 -25.365714 0.000000
34.217694 20.063034 0.000000
-56.776878 -189.403586 0.000000
-62.109197 -188.329304 0.000000
172.634094 -9.191858 0.000000
174.756964 -4.516026 0.000000
170.591402 -4.988505 0.000000
-197.490056 156.535294 0.000000
-200.404103 161.447292 0.000000
-201.775287 156.572607 0.000000
188.636717 -62.405135 0.000000
168.894629 -1.017256 0.000000
167.001075 -4.736778 0.000000
164.846792 -1.558024 0.000000
131.844760 -12.669101 0.000000
137.341018 -11.871433 0.000000
-195.950136 161.613397 0.000000
200.906848 71.022578 0.000000
139.337103 -6.538778 0.000000
158.866689 78.665426 0.000000
157.399809 83.384389 0.000000
-55.779919 129.149931 0.000000
-53.497746 125.717750 0.000000
-51.207355 123.106447 0.000000
-49.372252 126.474710 0.000000
-161.102397 -0.097625 0.000000
-167.811652 -0.642626 0.000000
-164.317159 -5.520558 0.000000
-46.515838 123.104826 0.000000
-3.923227 171.315008 0.000000
-4.152734 176.347984 0.000000
-8.605764 173.209213 0.000000
-8.319024 177.171818 0.000000
65.661991 82.297593 0.000000
61.721262 85.154870 0.000000
61.856916 79.967229 0.000000
57.978064 83.262562 0.000000
156.535294 197.490056 0.000000
161.447292 200.404103 0.000000
156.572607 201.775287 0.000000
-16.672300 -150.904470 0.000000
-17.807380 -147.270944 0.000000
-20.924224 -150.838437 0.000000
-22.173674 -146.238708 0.000000
-149.375697 5.332719 0.000000
-153.201454 6.892060 0.000000
-152.454705 2.068745 0.000000
-157.032668 3.350552 0.000000
-4.806479 -169.375076 0.000000
-0.375008 -171.174870 0.000000
-1.394410 -166.593630 0.000000
161.613397 195.950136 0.000000
-91.798049 -149.455944 0.000000
1.808266 -163.956074 0.000000
-10.914005 -62.395265 0.000000
165.872279 109.852068 0.000000
165.583917 114.466185 0.000000
161.340847 111.265382 0.000000
-8.461712 -169.025569 0.000000
-10.324257 -164.898586 0.000000
-12.896670 -168.157772 0.000000
-0.752893 -148.868429 0.000000
0.867615 -145.105208 0.000000
-0.231615 -141.019577 0.000000
-64.456696 -92.258208 0.000000
-66.494757 -96.372882 0.000000
-61.834682 -95.115000 0.000000
160.438473 116.018125 0.000000
-171.480234 170.559151 0.000000
-69.110539 -91.822984 0.000000
91.905659 -100.283248 0.000000
96.103395 -100.138078 0.000000
95.057504 -95.959873 0.000000
170.559151 171.480234 0.000000
-57.177740 -93.718791 0.000000
-21.491547 -90.997868 0.000000
-20.292292 -95.689973 0.000000
-17.733373 -92.083073 0.000000
-133.054793 2.121753 0.000000
-129.224610 0.033245 0.000000
47.906270 -104.251203 0.000000
52.162007 -102.335930 0.000000
77.989810 63.467945 0.000000
80.237930 58.934618 0.000000
168.463470 16.261866 0.000000
164.039911 16.729055 0.000000
164.893708 13.356648 0.000000
160.608690 10.363528 0.000000
165.765446 9.771132 0.000000
163.989858 6.387624 0.000000
48.459755 99.842256 0.000000
48.319483 104.900499 0.000000
44.755482 101.145823 0.000000
52.460258 101.572624 0.000000
41.102916 102.065594 0.000000
-24.346377 13.977237 0.000000
-22.515523 18.097456 0.000000
-26.799014 18.636086 0.000000
-19.545719 14.361811 0.000000
-132.011154 21.246311 0.000000
-132.344140 17.094766 0.000000
-128.534801 19.726847 0.000000
-136.947383 19.964169 0.000000
75.288195 67.387238 0.000000
73.047237 62.999308 0.000000
75.526137 58.366039 0.000000
73.213792 70.398469 0.000000
144.686567 8.959332 0.000000
149.692233 10.992699 0.000000
144.536193 13.358292 0.000000
-38.555234 105.977861 0.000000
-35.183876 108.185230 0.000000
-34.670564 104.321112 0.000000
1.041948 141.643387 0.000000
-2.561202 145.888450 0.000000
-5.652221 149.187986 0.000000
-6.881953 143.928049 0.000000
-10.799102 146.926244 0.000000
90.333441 -96.680808 0.000000
-157.142289 16.135371 0.000000
94.371403 -104.177263 0.000000
108.355494 -52.713230 0.000000
108.960784 -47.187834 0.000000
104.380687 -49.105385 0.000000
112.406320 -49.891334 0.000000
-13.074392 -19.863189 0.000000
-16.488335 -16.466605 0.000000
-8.224003 -17.777305 0.000000
-18.796384 -13.110452 0.000000
-20.749962 -17.283647 0.000000
-22.846868 -12.171485 0.000000
-141.518296 15.494360 0.000000
-147.096550 14.265373 0.000000
-144.015292 11.192815 0.000000
61.540741 90.057033 0.000000
-15.386863 -95.690422 0.000000
57.168101 87.565920 0.000000
-140.636899 -20.389808 0.000000
-144.703231 -18.869100 0.000000
-144.788925 -22.687898 0.000000
-146.293450 -185.680222 0.000000
-141.989169 -16.885262 0.000000
-145.005046 -27.389273 0.000000
-149.956123 18.394448 0.000000
-151.009934 22.379119 0.000000
-148.844246 25.896184 0.000000
-152.732963 14.639703 0.000000
-149.156304 9.936620 0.000000
145.810295 28.630994 0.000000
140.358025 27.280986 0.000000
144.872057 23.755847 0.000000
142.204131 32.232644 0.000000
-146.533323 -15.037400 0.000000
-141.306702 -13.273814 0.000000
-145.339292 -10.650744 0.000000
-43.201031 -100.143375 0.000000
-42.182126 -104.581084 0.000000
-45.781798 -107.163512 0.000000
159.941272 26.608935 0.000000
-36.866485 -106.394479 0.000000
-2.945839 167.239899 0.000000
-6.114546 164.065592 0.000000
-13.571535 -137.712766 0.000000
-15.088277 -141.502078 0.000000
-11.367111 -141.924587 0.000000
98.730866 -55.047136 0.000000
94.910349 -58.524850 0.000000
101.006575 -59.671159 0.000000
97.554070 -62.345175 0.000000
185.680223 -146.293450 0.000000
21.358023 8.193808 0.000000
18.947464 11.963388 0.000000
18.304824 5.299757 0.000000
21.634924 14.641110 0.000000
-111.909198 -117.326518 0.000000
-117.405812 111.857447 0.000000
139.908306 16.041264 0.000000
135.128865 19.355399 0.000000
135.629938 13.717202 0.000000
131.541187 15.117078 0.000000
-20.834255 0.001021 0.000000
-16.694874 -1.876756 0.000000
-16.464365 2.086156 0.000000
-19.663495 -4.625421 0.000000
46.672880 90.949719 0.000000
41.719772 86.982589 0.000000
45.914473 95.906605 0.000000
171.190272 20.452104 0.000000
174.505646 15.873000 0.000000
154.098823 15.384951 0.000000
170.810415 11.852649 0.000000
172.991926 24.530187 0.000000
169.156477 29.016814 0.000000
-7.136653 0.232169 0.000000
-23.060831 71.638636 0.000000
-18.480542 72.591009 0.000000
105.371118 -58.504400 0.000000
110.063812 -61.426645 0.000000
109.105699 -56.726566 0.000000
106.105081 -63.897785 0.000000
113.081297 -54.074159 0.000000
19.349097 -133.052422 0.000000
22.599846 -136.328180 0.000000
23.491987 -132.447539 0.000000
26.768369 -130.176110 0.000000
21.928354 -127.529143 0.000000
26.949108 -126.063483 0.000000
15.551139 -128.664642 0.000000
-13.688254 143.619870 0.000000
-15.042774 147.396177 0.000000
-17.487467 143.739164 0.000000
-189.538998 51.547188 0.000000
-25.753764 -0.094053 0.000000
-23.748672 -3.504767 0.000000
-33.108355 86.271932 0.000000
-28.785227 82.790293 0.000000
-28.185319 86.656136 0.000000
-15.037758 59.251208 0.000000
-8.239413 60.015054 0.000000
-12.478207 65.309131 0.000000
-37.074702 -0.936264 0.000000
-33.512411 -5.666040 0.000000
-31.362066 -0.610145 0.000000
-38.792369 -6.583834 0.000000
-96.977748 58.501602 0.000000
-91.317291 58.410184 0.000000
-93.270449 63.132557 0.000000
-92.795823 54.493238 0.000000
144.389539 18.630932 0.000000
149.096417 25.656650 0.000000
139.307705 10.222267 0.000000
-60.151310 90.441267 0.000000
-54.898764 90.373218 0.000000
-57.574716 94.220396 0.000000
-53.377823 95.279335 0.000000
-56.934753 85.447402 0.000000
-33.840051 81.452912 0.000000
-143.777526 -3.194510 0.000000
-141.804822 0.996112 0.000000
-20.714317 9.401251 0.000000
-26.276679 8.902625 0.000000
15.573355 133.455172 0.000000
14.670575 127.186004 0.000000
19.224577 129.054898 0.000000
159.674313 15.161656 0.000000
18.553158 123.392460 0.000000
13.871798 121.049045 0.000000
161.103559 18.983197 0.000000
-21.513278 -133.019813 0.000000
-17.278901 -133.632355 0.000000
-185.183137 158.990197 0.000000
-182.595725 164.434872 0.000000
-187.079228 164.277344 0.000000
-22.399354 -128.426196 0.000000
-55.125082 -116.547996 0.000000
-28.027042 -126.552518 0.000000
-62.341902 -112.978691 0.000000
-59.632401 -116.663321 0.000000
-97.522116 53.571816 0.000000
196.993525 -111.151723 0.000000
201.513415 -110.466043 0.000000
158.990197 185.183137 0.000000
164.434872 182.595725 0.000000
164.277344 187.079228 0.000000
-74.617973 173.945936 0.000000
-78.260794 170.279043 0.000000
-73.803948 168.601938 0.000000
68.233779 197.507986 0.000000
110.523721 197.883976 0.000000
110.170841 201.800966 0.000000
-110.820019 -196.778606 0.000000
-110.406556 -201.379705 0.000000
-91.326397 -154.072824 0.000000
-197.303668 110.532679 0.000000
-201.668360 109.894664 0.000000
198.921118 -119.954106 0.000000
201.157868 -114.950743 0.000000
196.604329 -115.700032 0.000000
-185.628656 145.442154 0.000000
-187.440171 140.096336 0.000000
193.692615 -114.170129 0.000000
192.256518 -118.273462 0.000000
-9.871087 -70.014493 0.000000
-120.113696 -199.076399 0.000000
-114.547517 -200.785430 0.000000
-115.677854 -196.432736 0.000000
-113.950609 -193.273306 0.000000
-118.957428 -192.249939 0.000000
-114.159928 -189.246857 0.000000
-42.991128 -196.570471 0.000000
-44.317718 -200.956795 0.000000
197.568769 116.869721 0.000000
201.253041 116.392133 0.000000
199.319879 120.231572 0.000000
116.921354 -197.614457 0.000000
116.420917 -201.295421 0.000000
120.419587 -199.453037 0.000000
-197.614244 -116.921285 0.000000
-201.295313 -116.420881 0.000000
-199.452917 -120.419557 0.000000
-117.262109 196.427472 0.000000
-116.392234 201.245510 0.000000
-120.313672 200.122649 0.000000
-105.837572 -193.883483 0.000000
-100.563429 -195.091353 0.000000
-193.804266 105.883801 0.000000
-195.041826 100.505752 0.000000
-44.451427 89.778950 0.000000
-41.621377 86.770810 0.000000
-40.595532 90.782734 0.000000
-193.130094 141.756743 0.000000
-182.597877 142.196620 0.000000
-6.908159 158.686938 0.000000
-6.323438 153.832129 0.000000
145.442154 185.628656 0.000000
140.096338 187.440172 0.000000
114.032443 201.141147 0.000000
120.209027 -94.992173 0.000000
-142.008460 123.276959 0.000000
-137.075786 126.183800 0.000000
-138.378459 122.870895 0.000000
141.756745 193.130094 0.000000
-201.063047 113.920482 0.000000
142.196620 182.597877 0.000000
-123.309728 -142.017070 0.000000
-126.248106 -137.055572 0.000000
182.954165 118.222194 0.000000
186.755042 117.209153 0.000000
-118.234717 182.904581 0.000000
-117.927430 -186.244201 0.000000
-116.687020 -181.534619 0.000000
-121.090525 -182.008260 0.000000
-118.710727 -177.700715 0.000000
-184.319052 119.393248 0.000000
-180.971495 116.848194 0.000000
-177.330854 117.892788 0.000000
-188.309543 121.979162 0.000000
-188.380117 117.153174 0.000000
-192.669835 119.631123 0.000000
186.411013 -118.063676 0.000000
182.418681 -120.904016 0.000000
177.886225 -118.744994 0.000000
119.627662 184.043000 0.000000
116.933432 180.653403 0.000000
117.975593 176.924511 0.000000
122.058521 188.216935 0.000000
117.221525 188.271028 0.000000
119.649132 192.652017 0.000000
-201.409594 41.595137 0.000000
-33.381280 201.040713 0.000000
84.354457 -138.471589 0.000000
80.452270 -143.412979 0.000000
172.592202 -176.984301 0.000000
176.204965 -179.552895 0.000000
34.244729 -201.897584 0.000000
154.650880 75.499213 0.000000
150.314476 73.824741 0.000000
154.650242 71.264206 0.000000
-137.210875 -84.623806 0.000000
-133.232869 -81.743931 0.000000
-176.984301 -172.592202 0.000000
37.198640 201.281429 0.000000
95.316594 83.306485 0.000000
100.080372 85.090375 0.000000
96.846049 87.960398 0.000000
-96.899776 -93.486175 0.000000
-94.025508 -89.779382 0.000000
-179.552895 -176.204965 0.000000
78.325533 -168.804721 0.000000
-48.547921 -128.813374 0.000000
-45.711543 -130.478758 0.000000
-190.205084 -117.669634 0.000000
-193.941207 -119.206736 0.000000
117.669801 -190.205830 0.000000
119.206820 -193.941580 0.000000
190.157197 117.121768 0.000000
193.722042 118.841988 0.000000
-184.830333 114.879190 0.000000
-192.775117 114.285533 0.000000
115.293893 184.747624 0.000000
114.873756 192.358257 0.000000
-152.096949 61.218595 0.000000
-155.189752 63.850940 0.000000
-156.821574 58.954449 0.000000
-159.667430 63.854203 0.000000
-33.732280 -201.887247 0.000000
-122.870097 -138.379596 0.000000
-71.929866 180.994010 0.000000
-76.316815 182.849476 0.000000
-74.686872 178.049420 0.000000
-78.982062 179.355758 0.000000
-73.243633 185.313256 0.000000
-106.137031 -188.522802 0.000000
-110.137815 -191.658390 0.000000
-65.265423 150.485356 0.000000
-64.391855 155.697293 0.000000
-61.900172 147.698931 0.000000
98.271543 201.306217 0.000000
201.185466 -98.551124 0.000000
-110.335496 -186.758186 0.000000
-86.761274 184.297979 0.000000
-91.116217 181.897810 0.000000
-88.059029 188.936603 0.000000
-92.161472 186.617547 0.000000
163.477433 -49.054528 0.000000
162.655119 -53.401864 0.000000
-167.056441 174.119231 0.000000
-171.805827 175.803924 0.000000
159.996286 -50.096764 0.000000
-165.258304 169.874111 0.000000
-13.316146 -67.050977 0.000000
-70.508338 70.454242 0.000000
-66.526524 69.600101 0.000000
-67.379964 75.247975 0.000000
-113.888354 185.085997 0.000000
-114.242962 180.447192 0.000000
-184.602727 -114.532131 0.000000
-186.765844 -111.076848 0.000000
-188.700136 -114.554360 0.000000
-190.482657 -111.361175 0.000000
-42.304741 -126.787208 0.000000
-182.477897 -118.436086 0.000000
-180.659155 -114.739350 0.000000
174.119231 167.056441 0.000000
175.803924 171.805827 0.000000
114.532418 -184.604009 0.000000
111.077854 -186.768581 0.000000
114.554777 -188.701551 0.000000
111.361913 -190.484970 0.000000
169.874111 165.258304 0.000000
118.436127 -182.478407 0.000000
114.739439 -180.662861 0.000000
-55.316520 -143.271768 0.000000
184.556315 114.185257 0.000000
180.280394 114.022400 0.000000
-51.538589 -147.203326 0.000000
183.742983 61.795916 0.000000
-115.406237 -173.873217 0.000000
173.844864 -115.560625 0.000000
-93.208899 131.039326 0.000000
115.472176 173.424488 0.000000
-89.099930 128.017875 0.000000
-134.635604 -94.685395 0.000000
-139.096818 -97.556857 0.000000
93.660608 -133.270135 0.000000
112.634208 -114.884353 0.000000
118.353754 -114.882431 0.000000
110.120007 -120.181100 0.000000
113.883256 119.326118 0.000000
110.676416 124.657589 0.000000
108.485427 119.374774 0.000000
-62.637401 70.919707 0.000000
195.115156 -14.721312 0.000000
-193.522226 159.512856 0.000000
-135.707752 -99.169860 0.000000
114.637277 113.904766 0.000000
98.958413 92.728944 0.000000
100.559921 96.677814 0.000000
105.172930 99.722472 0.000000
99.353231 100.715373 0.000000
102.701394 103.865516 0.000000
103.774258 94.013411 0.000000
101.814713 89.216678 0.000000
-175.962656 -64.218598 0.000000
-180.817865 -66.598155 0.000000
195.640162 -10.377147 0.000000
-105.649918 -177.400505 0.000000
-182.397030 105.637409 0.000000
-177.060738 106.183022 0.000000
159.512856 193.522226 0.000000
85.983511 200.988303 0.000000
84.461855 196.822607 0.000000
-198.771725 -112.137426 0.000000
-193.840844 -109.171598 0.000000
104.476710 -185.139026 0.000000
-201.575849 -108.612066 0.000000
112.137574 -198.773235 0.000000
109.172269 -193.845187 0.000000
108.609316 -201.583302 0.000000
-185.132867 -104.473186 0.000000
-69.332496 157.631639 0.000000
-68.853740 153.724809 0.000000
-62.224466 158.544403 0.000000
-104.473778 185.132591 0.000000
70.609818 -154.187280 0.000000
-109.519158 178.221367 0.000000
-104.656748 180.293298 0.000000
122.516031 -164.006978 0.000000
121.863058 -158.961532 0.000000
-9.763973 151.700793 0.000000
164.215804 122.139740 0.000000
159.255608 121.138926 0.000000
-164.063060 -122.550094 0.000000
-158.404713 -121.736369 0.000000
89.884815 -58.156152 0.000000
92.147459 -62.415434 0.000000
-121.548545 164.146291 0.000000
-120.388320 159.846292 0.000000
-159.149103 53.879248 0.000000
-153.917481 53.597669 0.000000
-161.620771 58.269930 0.000000
-156.447530 50.146968 0.000000
-160.296250 49.260072 0.000000
69.869068 -150.902819 0.000000
12.901070 -165.317784 0.000000
198.792734 112.139756 0.000000
194.022932 109.126706 0.000000
15.793007 -161.378831 0.000000
201.633917 108.691673 0.000000
82.781069 -133.196319 0.000000
87.987823 -134.245577 0.000000
-112.178620 198.749645 0.000000
-109.376990 193.885747 0.000000
-108.735250 201.601664 0.000000
184.298568 104.375208 0.000000
182.807222 99.965553 0.000000
159.479220 -116.673124 0.000000
116.671468 159.482106 0.000000
-116.620957 -159.412477 0.000000
-165.690998 112.940641 0.000000
-159.406546 116.615839 0.000000
148.516196 -55.085273 0.000000
142.136022 -53.303241 0.000000
146.312469 -49.067443 0.000000
-182.117432 113.064012 0.000000
-170.224681 71.961624 0.000000
-165.309931 70.343718 0.000000
-166.752519 75.754380 0.000000
-63.691728 186.705839 0.000000
-113.630940 166.639207 0.000000
-166.579396 -113.674747 0.000000
113.660487 -166.577165 0.000000
-70.170409 148.905186 0.000000
-75.057917 148.488268 0.000000
142.313334 -122.598009 0.000000
139.351721 -126.110776 0.000000
123.212803 142.654024 0.000000
127.277938 140.166948 0.000000
-64.185266 183.276109 0.000000
170.132426 40.744847 0.000000
170.401800 34.811590 0.000000
176.911500 33.353463 0.000000
-121.264387 -103.487067 0.000000
-120.468068 -108.172158 0.000000
159.687519 -45.881099 0.000000
-168.594846 109.640732 0.000000
-107.862797 -169.173849 0.000000
169.900514 -107.547415 0.000000
174.701821 -105.267982 0.000000
107.549313 169.904858 0.000000
105.332765 174.693742 0.000000
-109.704038 118.096859 0.000000
62.357145 180.023084 0.000000
58.625246 182.557257 0.000000
201.925503 -47.982287 0.000000
200.606354 -43.452375 0.000000
93.346625 -53.434212 0.000000
143.029123 87.346733 0.000000
148.702126 87.922249 0.000000
146.868910 120.070338 0.000000
-81.595406 143.163987 0.000000
119.935650 -146.952395 0.000000
117.266425 -150.409846 0.000000
39.145654 189.146955 0.000000
34.166348 187.728488 0.000000
188.824288 -39.779160 0.000000
192.281980 -42.011830 0.000000
192.053623 -36.781205 0.000000
-30.843117 107.961405 0.000000
-30.234774 102.716338 0.000000
-26.702541 105.732000 0.000000
196.515493 -38.827915 0.000000
119.132051 140.835633 0.000000
122.431301 139.060007 0.000000
-119.416260 -141.365709 0.000000
-49.396799 -201.159999 0.000000
-141.365384 119.416648 0.000000
170.044730 108.284772 0.000000
173.651446 110.531264 0.000000
111.433609 -155.596427 0.000000
157.433765 112.883051 0.000000
156.187846 116.904441 0.000000
-156.242604 -110.795567 0.000000
-152.864817 -113.103257 0.000000
-110.472114 155.853761 0.000000
-167.895467 80.729169 0.000000
-171.555308 76.663635 0.000000
177.750745 97.143908 0.000000
182.375810 95.257722 0.000000
-122.288223 144.546526 0.000000
-118.880656 141.783793 0.000000
-117.717608 145.568484 0.000000
84.730401 -58.656729 0.000000
-144.310277 -121.802106 0.000000
-141.353620 -118.440532 0.000000
-145.244134 -117.410641 0.000000
112.761776 -152.182759 0.000000
-172.563374 80.613391 0.000000
-89.657113 89.084154 0.000000
-89.713092 94.262269 0.000000
17.640709 80.766097 0.000000
13.607013 81.098807 0.000000
15.537379 75.747451 0.000000
141.813057 135.176603 0.000000
92.643906 200.950783 0.000000
89.431897 197.057037 0.000000
143.308275 116.424402 0.000000
142.532382 120.111519 0.000000
143.388190 123.327538 0.000000
139.441925 121.477225 0.000000
139.661001 125.454813 0.000000
-81.871467 192.593367 0.000000
-83.813885 188.786028 0.000000
-122.802148 140.263597 0.000000
16.972688 85.055343 0.000000
-139.097347 -121.961153 0.000000
127.605889 35.465188 0.000000
123.391900 35.506688 0.000000
125.453858 30.953227 0.000000
77.284131 -196.529947 0.000000
82.545104 -196.821403 0.000000
-191.139105 -82.512615 0.000000
-188.501308 -78.239679 0.000000
-185.965479 -82.391026 0.000000
-40.947167 -184.628548 0.000000
-38.763872 -188.973482 0.000000
-112.167533 110.029782 0.000000
-107.971288 108.086594 0.000000
197.246132 38.096589 0.000000
-191.003060 47.647726 0.000000
-194.433584 50.329586 0.000000
-194.088949 42.122406 0.000000
-197.026577 38.929296 0.000000
116.198125 142.506568 0.000000
115.228225 138.848475 0.000000
-115.386499 -143.501800 0.000000
-118.244131 -136.922189 0.000000
-143.501602 115.387288 0.000000
-136.921400 118.245074 0.000000
119.821117 32.983290 0.000000
89.155570 154.668580 0.000000
86.203286 152.220212 0.000000
132.910114 34.564747 0.000000
129.873529 39.754364 0.000000
135.038714 38.993129 0.000000
-100.732294 154.425663 0.000000
155.001068 79.617561 0.000000
-112.989455 147.179347 0.000000
-112.498272 151.824794 0.000000
-195.131651 80.241034 0.000000
-201.020337 79.630225 0.000000
-146.203119 -113.844212 0.000000
-149.237763 -111.604219 0.000000
-105.835069 155.520264 0.000000
-192.542642 -161.233798 0.000000
-192.710833 -155.598871 0.000000
-197.024549 -159.247595 0.000000
-197.453550 -154.355689 0.000000
-108.292467 152.687328 0.000000
-155.802763 -105.893502 0.000000
-152.511486 -108.779302 0.000000
-128.154162 -50.181316 0.000000
-123.370831 -52.474807 0.000000
-124.543901 -48.393940 0.000000
180.787973 107.157268 0.000000
178.064976 110.238349 0.000000
175.314086 105.872459 0.000000
178.459660 102.149468 0.000000
200.392034 -23.115387 0.000000
94.776925 177.995338 0.000000
32.808562 200.243977 0.000000
27.824335 201.684724 0.000000
28.688933 197.423569 0.000000
166.610639 105.884242 0.000000
-150.477876 107.905828 0.000000
-107.904798 -150.478259 0.000000
-175.314468 101.970893 0.000000
-188.841102 -158.495164 0.000000
-101.457871 -175.491159 0.000000
161.233798 -192.542642 0.000000
155.598871 -192.710833 0.000000
159.247595 -197.024549 0.000000
155.505218 -43.719638 0.000000
9.768145 119.203356 0.000000
9.397811 124.472418 0.000000
6.180878 120.782778 0.000000
-130.774259 142.013889 0.000000
-141.767466 -130.892196 0.000000
3.036467 125.483009 0.000000
140.757275 129.974914 0.000000
154.355689 -197.453550 0.000000
116.524778 -9.573860 0.000000
123.160247 -8.360002 0.000000
118.405914 -4.184481 0.000000
130.207576 -141.633392 0.000000
139.356301 117.412425 0.000000
135.477549 118.861334 0.000000
135.643471 123.296818 0.000000
-164.942969 48.546657 0.000000
158.495164 -188.841102 0.000000
86.158158 176.711416 0.000000
86.758443 181.227738 0.000000
82.881242 178.836278 0.000000
-155.038109 171.686940 0.000000
-159.572870 169.734481 0.000000
81.990437 183.356733 0.000000
178.157356 -82.118529 0.000000
182.875944 -81.831385 0.000000
171.686940 155.038109 0.000000
169.734481 159.572870 0.000000
-71.533185 165.006694 0.000000
-75.076151 163.984973 0.000000
-71.318217 161.123847 0.000000
-149.218553 102.871552 0.000000
-153.645471 104.497898 0.000000
-102.869547 -149.218997 0.000000
-104.497084 -153.646206 0.000000
102.521185 -165.057866 0.000000
105.706722 -162.201991 0.000000
100.320511 -161.804904 0.000000
103.138237 -158.718397 0.000000
100.505263 -168.240594 0.000000
105.425936 -167.429457 0.000000
181.813240 -169.786247 0.000000
-169.786247 -181.813240 0.000000
-101.791121 165.045066 0.000000
-100.195086 161.536630 0.000000
-103.087295 158.521416 0.000000
-100.765229 168.534650 0.000000
-105.171368 167.452182 0.000000
-191.476832 -58.024201 0.000000
-168.246621 179.280112 0.000000
-164.528792 -102.211844 0.000000
-168.088360 -100.407770 0.000000
-167.383519 -105.858346 0.000000
67.181135 158.039228 0.000000
70.330632 160.070984 0.000000
104.670709 -155.264128 0.000000
100.351779 -154.925779 0.000000
103.045499 -151.561237 0.000000
-158.963877 -104.286564 0.000000
-42.521717 -192.379202 0.000000
196.908948 70.770763 0.000000
199.160947 67.224076 0.000000
194.403359 68.037388 0.000000
-165.029643 182.226887 0.000000
179.280112 168.246621 0.000000
-22.769337 -200.465014 0.000000
-26.549684 -199.843190 0.000000
-19.991213 -195.935228 0.000000
-100.328218 -162.659023 0.000000
-162.620426 100.473344 0.000000
162.818321 -100.719302 0.000000
100.749388 161.316695 0.000000
182.226887 165.029643 0.000000
123.278444 -3.172190 0.000000
128.239790 -136.453746 0.000000
17.913113 -2.128696 0.000000
20.824432 1.671326 0.000000
135.736377 127.922911 0.000000
112.165300 -139.488912 0.000000
115.111120 -135.938821 0.000000
-113.433138 135.603152 0.000000
-109.473879 136.788881 0.000000
-111.693067 140.113788 0.000000
-95.205141 139.452190 0.000000
-89.677951 138.598651 0.000000
-91.134004 143.620708 0.000000
-87.833113 141.365845 0.000000
-92.563176 135.318918 0.000000
156.178724 -100.409975 0.000000
-181.598366 61.496395 0.000000
-181.802270 56.277911 0.000000
-150.893504 -176.171840 0.000000
176.171826 -150.893532 0.000000
14.601368 -5.992249 0.000000
20.265904 -6.731435 0.000000
183.174012 -90.756709 0.000000
-168.934429 -187.505180 0.000000
175.429653 -183.204396 0.000000
185.517840 -86.974888 0.000000
187.505180 -168.934429 0.000000
101.411841 156.738009 0.000000
-100.915000 -156.131732 0.000000
-156.130020 100.916048 0.000000
-183.204396 -175.429653 0.000000
-181.456009 177.561205 0.000000
177.561205 181.456009 0.000000
-34.744665 -153.890668 0.000000
-34.705393 -148.056417 0.000000
-30.189289 -151.097946 0.000000
-164.018303 -97.669716 0.000000
-130.284558 -53.750201 0.000000
-168.456678 -95.495941 0.000000
152.266227 200.896150 0.000000
-200.896150 152.266227 0.000000
193.152317 164.293799 0.000000
-164.293799 193.152317 0.000000
140.937691 -88.667259 0.000000
174.692652 157.520830 0.000000
186.278799 82.849007 0.000000
190.463929 85.513821 0.000000
190.654566 80.662436 0.000000
172.200838 201.633401 0.000000
167.070256 201.116752 0.000000
150.472489 -93.068607 0.000000
156.118497 -90.710937 0.000000
97.673177 -165.092567 0.000000
95.475776 -161.585977 0.000000
-201.633401 172.200838 0.000000
-201.116752 167.070256 0.000000
-188.965024 -163.382059 0.000000
-185.666524 -164.599604 0.000000
-185.853194 -161.144697 0.000000
-182.099684 -162.489373 0.000000
-157.520830 174.692652 0.000000
163.382059 -188.965024 0.000000
164.599604 -185.666524 0.000000
161.144697 -185.853194 0.000000
162.489373 -182.099684 0.000000
121.561825 103.753779 0.000000
149.498583 184.105319 0.000000
-184.105319 149.498583 0.000000
98.014974 -158.319306 0.000000
95.915449 -168.567932 0.000000
-171.336591 -158.292233 0.000000
-95.930537 168.406549 0.000000
-97.794544 164.943483 0.000000
-129.986548 130.150543 0.000000
-167.276441 -161.411527 0.000000
158.292233 -171.336591 0.000000
161.411527 -167.276441 0.000000
-147.983596 184.866829 0.000000
184.866830 147.983596 0.000000
-184.496518 153.200597 0.000000
-188.568874 154.385808 0.000000
-130.113099 -130.048031 0.000000
153.200597 184.496518 0.000000
154.385808 188.568874 0.000000
-162.812385 73.564466 0.000000
-172.110784 159.444096 0.000000
55.929064 112.357056 0.000000
54.651194 118.056524 0.000000
58.158096 116.170292 0.000000
49.284497 188.120830 0.000000
159.444096 172.110784 0.000000
51.260081 109.856129 0.000000
200.957401 1.840756 0.000000
198.743348 5.515522 0.000000
-194.180998 -151.340292 0.000000
-198.177909 -150.667937 0.000000
-188.758826 -153.373488 0.000000
151.340292 -194.180998 0.000000
150.667937 -198.177909 0.000000
128.766327 129.375174 0.000000
153.373488 -188.758826 0.000000
-196.256050 137.957142 0.000000
200.614540 9.633145 0.000000
-192.087478 137.819137 0.000000
125.965579 136.404445 0.000000
137.957142 196.256050 0.000000
136.016646 -126.846055 0.000000
137.819146 192.087474 0.000000
144.709439 -188.060379 0.000000
-188.060378 -144.709439 0.000000
-37.412133 87.415385 0.000000
-25.646570 101.607108 0.000000
-45.651317 -74.198099 0.000000
-47.521208 -70.014368 0.000000
-50.153882 -75.321149 0.000000
158.833961 94.451380 0.000000
161.962851 92.263053 0.000000
6.544857 -107.996811 0.000000
9.105503 -104.415146 0.000000
3.894572 -103.969515 0.000000
51.013034 192.464890 0.000000
102.575049 -123.492330 0.000000
98.664633 -125.431578 0.000000
-181.718410 138.535089 0.000000
138.536735 181.715474 0.000000
-201.140481 -156.813801 0.000000
-200.733337 -162.177342 0.000000
-188.905766 -45.886309 0.000000
-185.069024 -47.947683 0.000000
-185.270065 -43.309476 0.000000
156.813801 -201.140481 0.000000
162.177342 -200.733337 0.000000
-181.037555 -45.935937 0.000000
-183.642185 -167.625108 0.000000
-142.387857 86.235222 0.000000
167.625108 -183.642185 0.000000
-201.978507 182.908836 0.000000
156.850465 -58.182667 0.000000
158.345304 -53.679049 0.000000
160.665427 -57.834398 0.000000
132.668018 106.208919 0.000000
135.942955 109.547907 0.000000
182.908836 201.978507 0.000000
-177.053727 153.423432 0.000000
153.423432 177.053727 0.000000
-11.054134 -173.047876 0.000000
-8.090755 -175.851953 0.000000
125.763079 -132.891379 0.000000
123.992225 -135.659682 0.000000
-45.655755 -146.097783 0.000000
-43.509313 -150.986160 0.000000
-39.577341 -146.077623 0.000000
201.160337 -152.442561 0.000000
201.258669 -157.143177 0.000000
198.058423 -155.631656 0.000000
-152.442561 -201.160337 0.000000
-157.143177 -201.258669 0.000000
-155.631656 -198.058423 0.000000
146.202577 -196.927386 0.000000
147.397955 -201.210262 0.000000
132.040203 126.400418 0.000000
121.545879 135.072244 0.000000
-196.927386 -146.202577 0.000000
-201.210262 -147.397955 0.000000
-86.221980 -142.393877 0.000000
-179.030725 174.962176 0.000000
129.577108 -127.871126 0.000000
174.962176 179.030725 0.000000
-163.631941 -52.568701 0.000000
42.349924 182.089486 0.000000
42.052808 185.700522 0.000000
38.099512 183.282303 0.000000
-178.983433 64.716859 0.000000
-175.298899 64.793550 0.000000
-177.654562 68.153318 0.000000
-184.818095 -157.639330 0.000000
157.639330 -184.818095 0.000000
181.291926 -161.932181 0.000000
-161.932181 -181.291926 0.000000
184.330083 -99.814024 0.000000
125.313622 -110.307121 0.000000
17.026260 -11.027350 0.000000
-80.417076 -166.879033 0.000000
-75.823326 -164.186909 0.000000
125.757194 -128.890456 0.000000
-75.922456 -168.639564 0.000000
128.296641 125.284169 0.000000
165.570476 -69.398761 0.000000
-107.207295 89.555399 0.000000
-111.123750 89.410462 0.000000
-110.992103 84.854651 0.000000
-115.348125 87.788135 0.000000
169.836315 52.436792 0.000000
-154.429778 -190.500425 0.000000
166.721491 54.334503 0.000000
169.862580 44.873860 0.000000
190.500425 -154.429778 0.000000
-133.775068 121.438025 0.000000
-132.255179 117.044304 0.000000
92.302396 -165.094238 0.000000
-159.979098 -153.483210 0.000000
153.483210 -159.979099 0.000000
-121.437147 -133.777021 0.000000
-117.045906 -132.248966 0.000000
-141.247155 174.712641 0.000000
174.712699 141.247152 0.000000
36.934471 -188.825877 0.000000
-124.939408 118.137481 0.000000
-188.402936 -168.389599 0.000000
168.389599 -188.402936 0.000000
-118.174628 -124.878980 0.000000
73.652373 170.958047 0.000000
77.491930 174.564975 0.000000
72.796341 176.341900 0.000000
77.864542 170.205771 0.000000
-162.689258 173.869684 0.000000
-187.952375 -40.659879 0.000000
-184.721686 -36.913853 0.000000
-188.859003 -35.457411 0.000000
173.869684 162.689258 0.000000
-184.009897 -32.391304 0.000000
-192.869655 -38.760238 0.000000
-192.813586 -43.655122 0.000000
121.759348 111.917898 0.000000
179.201512 -165.311577 0.000000
-165.311577 -179.201512 0.000000
-196.670804 -41.462213 0.000000
-66.958862 -151.853438 0.000000
-70.450350 -147.996378 0.000000
-72.142172 -152.455592 0.000000
-64.750567 -147.656043 0.000000
-151.844925 66.894615 0.000000
-148.005112 70.406196 0.000000
-152.445019 72.245905 0.000000
-147.737104 64.666796 0.000000
-118.444320 134.219216 0.000000
-119.645903 138.012379 0.000000
82.059362 168.864977 0.000000
-142.181223 -197.231278 0.000000
-143.874461 -201.408412 0.000000
-139.657491 -199.645979 0.000000
-146.052229 -197.221001 0.000000
197.231278 -142.181223 0.000000
201.408412 -143.874461 0.000000
199.645979 -139.657492 0.000000
197.221002 -146.052229 0.000000
-109.295447 183.495120 0.000000
7.266808 -99.914075 0.000000
11.535400 -110.220447 0.000000
-151.667263 -2.219548 0.000000
-147.673535 -5.946209 0.000000
13.776432 -104.343734 0.000000
-167.026383 -82.256694 0.000000
-169.517668 -85.850973 0.000000
-165.031588 -87.064550 0.000000
-82.243389 167.376897 0.000000
-86.173616 169.510157 0.000000
-87.055845 165.431739 0.000000
121.750145 27.501945 0.000000
126.422850 25.454403 0.000000
-111.142326 186.691720 0.000000
191.835138 -81.915782 0.000000
44.702003 -191.423970 0.000000
48.947592 -189.212740 0.000000
129.706428 27.740414 0.000000
-147.312074 201.355570 0.000000
-145.615827 196.944205 0.000000
-150.196479 197.979369 0.000000
201.355571 147.312074 0.000000
89.985771 127.671252 0.000000
84.954436 126.978386 0.000000
196.944205 145.615827 0.000000
197.979369 150.196479 0.000000
81.650432 130.112790 0.000000
127.295507 -84.782267 0.000000
128.620029 -90.119972 0.000000
130.605633 -81.685768 0.000000
111.381706 130.166977 0.000000
132.483741 -57.858881 0.000000
138.657130 -57.330761 0.000000
135.970958 -52.686675 0.000000
-181.346363 -171.423577 0.000000
136.695409 -62.190497 0.000000
171.423577 -181.346363 0.000000
-201.802563 -32.191822 0.000000
201.722258 52.931920 0.000000
133.326651 -193.076106 0.000000
130.724254 -199.267632 0.000000
135.525388 -199.164382 0.000000
-193.076097 -133.326651 0.000000
-199.267631 -130.724254 0.000000
-199.164381 -135.525388 0.000000
-135.574251 -199.795181 0.000000
-130.668218 -199.678204 0.000000
199.795182 -135.574251 0.000000
199.678205 -130.668219 0.000000
120.621146 -109.365964 0.000000
115.770251 -110.862151 0.000000
115.456822 -106.592874 0.000000
-155.048193 192.644176 0.000000
-150.413088 193.682557 0.000000
-155.074514 196.694862 0.000000
-153.086598 189.628935 0.000000
63.983427 172.647061 0.000000
-148.511136 189.246929 0.000000
192.644176 155.048193 0.000000
193.682557 150.413088 0.000000
196.694862 155.074514 0.000000
189.628935 153.086598 0.000000
189.246929 148.511136 0.000000
201.426927 -166.745717 0.000000
-166.745717 -201.426927 0.000000
186.574524 -58.327415 0.000000
-181.915961 -50.121745 0.000000
-122.576995 -187.463937 0.000000
-123.953511 -193.371280 0.000000
187.608874 -122.409711 0.000000
193.293733 -123.940362 0.000000
-165.008279 185.967626 0.000000
-162.884858 189.490420 0.000000
146.911667 76.216222 0.000000
185.967626 165.008279 0.000000
189.490420 162.884858 0.000000
200.954642 -162.276277 0.000000
145.079560 71.964296 0.000000
197.378611 -159.883567 0.000000
-162.276277 -200.954642 0.000000
136.953060 96.062446 0.000000
134.873157 91.264568 0.000000
-159.883567 -197.378611 0.000000
132.871133 95.466119 0.000000
125.744134 -199.378516 0.000000
-199.378515 -125.744134 0.000000
178.051298 185.156916 0.000000
-185.156916 178.051298 0.000000
-125.150728 199.303500 0.000000
199.117829 125.374473 0.000000
-166.707776 201.552871 0.000000
201.552871 166.707776 0.000000
-137.463209 -117.351623 0.000000
-132.702948 -115.789280 0.000000
-176.716996 161.476521 0.000000
161.476521 176.716996 0.000000
-67.327754 -162.925850 0.000000
-22.719433 200.326520 0.000000
-64.038752 -159.488229 0.000000
-54.569761 -201.159838 0.000000
-53.168477 -161.881864 0.000000
-58.653195 -160.615869 0.000000
-163.172411 66.162874 0.000000
-199.932526 -73.138012 0.000000
88.561372 -138.947644 0.000000
200.760623 -148.730283 0.000000
196.884307 -150.775252 0.000000
-148.730283 -200.760623 0.000000
-150.775252 -196.884307 0.000000
-39.208166 142.992351 0.000000
-40.153250 147.892488 0.000000
64.006266 141.608196 0.000000
60.848587 144.748456 0.000000
118.947680 -104.180716 0.000000
-193.355282 124.066993 0.000000
-14.914235 160.397102 0.000000
-10.319984 162.238738 0.000000
124.095344 193.333325 0.000000
-17.408408 163.234229 0.000000
201.450910 -38.681100 0.000000
200.482480 -34.799084 0.000000
72.102139 -189.349185 0.000000
69.820084 -192.527219 0.000000
-125.939127 -199.135344 0.000000
199.135377 -125.939139 0.000000
138.182821 -93.607411 0.000000
-160.243367 69.156118 0.000000
-159.080970 74.469356 0.000000
94.783120 -137.966338 0.000000
79.340935 -164.809419 0.000000
123.792804 101.117030 0.000000
125.305660 104.036478 0.000000
127.583025 100.756760 0.000000
-152.222924 201.229043 0.000000
158.672638 55.741832 0.000000
163.402519 56.919321 0.000000
201.229044 152.222924 0.000000
-67.258095 -189.328875 0.000000
-64.004323 -193.484794 0.000000
-201.450395 54.948995 0.000000
-197.447827 120.931239 0.000000
-196.871113 115.539643 0.000000
120.971609 197.460798 0.000000
115.662285 196.949386 0.000000
-52.919553 194.392779 0.000000
-47.963701 192.975209 0.000000
-123.296741 -15.852881 0.000000
-123.256956 -11.496356 0.000000
-127.638030 -13.218945 0.000000
74.400189 -179.035707 0.000000
76.477825 -182.521056 0.000000
-184.479687 -62.757431 0.000000
187.398770 -66.466864 0.000000
184.315789 -64.607096 0.000000
183.085773 -68.724272 0.000000
68.855129 185.778229 0.000000
65.145290 186.607646 0.000000
66.334420 182.324452 0.000000
-68.454576 184.595353 0.000000
-186.445854 -149.807379 0.000000
-183.244719 -153.053413 0.000000
-162.490647 201.052859 0.000000
-157.461752 201.067049 0.000000
186.163031 51.587317 0.000000
183.248988 54.438011 0.000000
106.202071 -148.091968 0.000000
101.105855 -147.271020 0.000000
-160.767665 197.078568 0.000000
72.268297 -184.426969 0.000000
69.602957 -180.077963 0.000000
201.052859 162.490647 0.000000
201.067049 157.461752 0.000000
197.078568 160.767665 0.000000
149.807379 -186.445854 0.000000
153.053413 -183.244719 0.000000
188.079933 72.719099 0.000000
190.009247 69.285660 0.000000
-71.658539 189.152561 0.000000
199.085687 -30.688381 0.000000
201.247568 -27.522149 0.000000
85.777375 172.202965 0.000000
-198.413391 125.845952 0.000000
-25.264952 -95.172896 0.000000
-30.678369 -93.657991 0.000000
-28.322036 -98.536090 0.000000
125.861091 198.413212 0.000000
-32.792662 -98.513648 0.000000
-192.603704 155.278725 0.000000
-189.789201 159.511685 0.000000
155.278725 192.603704 0.000000
159.511685 189.789201 0.000000
-201.235593 -166.669577 0.000000
136.222347 -98.216688 0.000000
132.915056 -93.898823 0.000000
166.669577 -201.235593 0.000000
124.329545 -92.885538 0.000000
124.293804 -87.448577 0.000000
-199.201363 130.745727 0.000000
130.748357 199.201323 0.000000
-133.381296 -86.374729 0.000000
-136.023293 -89.375791 0.000000
189.408100 157.915131 0.000000
-157.915131 189.408100 0.000000
53.450803 -181.444617 0.000000
-68.043424 -155.997792 0.000000
-71.691861 -156.834660 0.000000
-69.429978 -160.116124 0.000000
-156.002843 -194.068671 0.000000
-161.347488 -193.212164 0.000000
194.068671 -156.002843 0.000000
193.212164 -161.347488 0.000000
-157.880252 182.134003 0.000000
-155.713352 185.989335 0.000000
-160.945838 185.198520 0.000000
-161.607297 181.133929 0.000000
182.134003 157.880252 0.000000
185.989335 155.713352 0.000000
185.198520 160.945838 0.000000
-74.390748 -160.181743 0.000000
176.362495 84.273917 0.000000
181.133929 161.607297 0.000000
-164.218491 177.878409 0.000000
-159.920162 178.060246 0.000000
177.878409 164.218491 0.000000
178.060246 159.920162 0.000000
-200.574936 -39.395230 0.000000
-200.677370 -43.517681 0.000000
131.250530 98.865513 0.000000
-160.211131 -176.337473 0.000000
-128.547166 -127.088684 0.000000
-126.326540 -123.120650 0.000000
176.337473 -160.211131 0.000000
59.660599 -146.320361 0.000000
131.052271 -63.775268 0.000000
-126.890107 128.554997 0.000000
-122.998519 126.288819 0.000000
83.678795 192.617466 0.000000
80.132626 191.155266 0.000000
82.739001 188.272769 0.000000
78.430503 187.601459 0.000000
119.576132 -100.199664 0.000000
200.011873 79.213886 0.000000
-190.341409 82.031348 0.000000
-186.172811 78.965983 0.000000
-185.917056 84.239100 0.000000
87.456156 -188.180667 0.000000
83.480776 -191.802042 0.000000
87.892927 -194.232774 0.000000
57.735720 160.407565 0.000000
-188.349023 -87.287615 0.000000
-192.851486 -87.222301 0.000000
201.162011 39.366443 0.000000
201.673472 43.549118 0.000000
-151.574904 186.407793 0.000000
-173.537404 -74.497741 0.000000
-168.827100 -73.269979 0.000000
-138.162101 -126.728332 0.000000
186.407794 151.574904 0.000000
-126.811502 138.347297 0.000000
-146.846863 174.455511 0.000000
174.455522 146.846864 0.000000
-192.493808 -143.149219 0.000000
-168.181160 -69.232393 0.000000
143.149219 -192.493808 0.000000
-185.706519 -72.841663 0.000000
-84.174306 -186.017809 0.000000
-81.838926 -189.931182 0.000000
-46.360723 177.473219 0.000000
-50.129683 178.958603 0.000000
-43.679687 173.794481 0.000000
-68.858150 168.393891 0.000000
-11.388457 16.449448 0.000000
-15.686051 17.088294 0.000000
-14.719908 12.150536 0.000000
-66.886608 179.704645 0.000000
106.979286 -123.811491 0.000000
-11.109664 3.819731 0.000000
-5.715986 5.311770 0.000000
-12.208292 -0.935139 0.000000
-1.046181 6.458203 0.000000
-4.134156 10.750477 0.000000
-54.224082 -137.308954 0.000000
-68.111030 -169.264795 0.000000
115.310677 126.794438 0.000000
-181.385963 -82.693447 0.000000
-183.601533 -87.366560 0.000000
2.075108 10.552994 0.000000
91.041845 -197.250551 0.000000
93.783017 -200.885650 0.000000
-88.980968 148.170302 0.000000
-159.226926 193.254324 0.000000
193.254324 159.226926 0.000000
-84.115055 138.829915 0.000000
-114.092687 -184.961593 0.000000
-105.963249 131.303347 0.000000
-10.860293 180.518143 0.000000
-12.440051 175.691598 0.000000
182.182266 91.501118 0.000000
-175.271178 -54.993566 0.000000
186.579206 92.775711 0.000000
189.579830 48.565530 0.000000
190.607920 52.497328 0.000000
100.934524 131.722700 0.000000
-78.911408 -201.533989 0.000000
56.546591 147.259263 0.000000
87.171047 193.907621 0.000000
117.305217 62.045788 0.000000
113.359120 60.283176 0.000000
-125.997090 -8.601398 0.000000
80.470797 45.033309 0.000000
75.619841 43.022150 0.000000
79.661497 40.628548 0.000000
89.074383 -183.770385 0.000000
84.965452 -183.991336 0.000000
92.307323 -185.365290 0.000000
-195.708711 -91.402588 0.000000
-197.952066 -88.222737 0.000000
178.915571 55.211107 0.000000
174.822507 58.002673 0.000000
178.199184 60.842553 0.000000
-201.171073 -80.746521 0.000000
-30.087290 -201.034796 0.000000
95.369237 138.520961 0.000000
90.404089 150.481550 0.000000
-190.273864 102.601428 0.000000
-186.020609 101.745593 0.000000
0.303144 25.543042 0.000000
4.540470 24.407408 0.000000
-102.603528 -190.269870 0.000000
-101.663618 -186.496318 0.000000
-161.342643 -94.141064 0.000000
-176.031174 82.345036 0.000000
-82.132252 -175.724570 0.000000
-80.154145 -172.234483 0.000000
108.180006 95.728448 0.000000
175.178290 65.314494 0.000000
171.171258 65.998257 0.000000
172.998749 69.099705 0.000000
188.210548 -92.222267 0.000000
183.824741 -95.213260 0.000000
92.862412 187.801295 0.000000
90.380361 183.223164 0.000000
87.026753 185.681981 0.000000
171.632675 -202.253014 0.000000
-202.253014 -171.632675 0.000000
-155.604845 178.652798 0.000000
178.652798 155.604845 0.000000
176.868001 202.512403 0.000000
-202.512403 176.868001 0.000000
169.147101 -76.493927 0.000000
169.140555 -81.442275 0.000000
132.215695 53.618807 0.000000
138.234481 52.913283 0.000000
139.768923 48.077019 0.000000
141.475453 50.858096 0.000000
-184.373531 13.641766 0.000000
-191.057481 -147.843190 0.000000
147.843190 -191.057481 0.000000
-183.372336 18.268333 0.000000
-89.530843 201.300426 0.000000
-201.330367 -151.935064 0.000000
-182.631331 -111.149464 0.000000
151.935064 -201.330367 0.000000
112.488791 96.858362 0.000000
111.766253 91.163883 0.000000
91.340551 -137.131435 0.000000
111.150430 -182.635790 0.000000
70.352260 -135.934164 0.000000
-83.384765 128.771500 0.000000
-87.211869 133.004572 0.000000
-132.574673 75.789153 0.000000
-123.653470 74.169670 0.000000
81.704896 -128.133653 0.000000
-75.823401 -132.439376 0.000000
-73.510643 -123.496820 0.000000
-196.260222 -95.752028 0.000000
-192.488203 -98.163703 0.000000
177.087139 70.451653 0.000000
-0.740923 30.056402 0.000000
-4.131313 26.500183 0.000000
-78.463748 -197.253765 0.000000
-78.023634 -191.855285 0.000000
-83.219846 -194.473104 0.000000
56.473298 197.363466 0.000000
169.944760 103.499872 0.000000
66.444461 190.204419 0.000000
-181.896059 87.429456 0.000000
-180.828028 82.279870 0.000000
-87.390560 -181.902398 0.000000
-81.832365 -181.064296 0.000000
-89.777981 -111.402286 0.000000
110.067327 114.854557 0.000000
-72.728384 -188.543502 0.000000
-78.620108 -186.283783 0.000000
-73.669655 -184.007712 0.000000
75.713328 48.252078 0.000000
170.965211 -49.920745 0.000000
-163.889038 -68.092978 0.000000
97.400862 -147.189981 0.000000
-190.113080 97.630394 0.000000
-97.701335 -190.224588 0.000000
30.242120 -200.771515 0.000000
-77.594923 -177.028755 0.000000
-76.968264 -181.656787 0.000000
-72.984821 -179.875197 0.000000
-72.646025 -175.222453 0.000000
-5.808724 31.991978 0.000000
80.211996 125.396817 0.000000
74.918572 123.391102 0.000000
108.319274 -152.990405 0.000000
158.933129 74.021658 0.000000
163.558172 76.627280 0.000000
167.733170 73.904774 0.000000
163.506251 71.105452 0.000000
40.402336 178.436243 0.000000
107.060197 90.526787 0.000000
103.951486 85.338637 0.000000
142.316872 -38.258957 0.000000
-63.750326 175.979607 0.000000
7.934324 12.309638 0.000000
159.928471 -68.459740 0.000000
160.973986 -74.089607 0.000000
113.236686 -148.069493 0.000000
-155.996236 67.976402 0.000000
-28.419731 200.541904 0.000000
91.351932 -93.588111 0.000000
86.867563 -93.555094 0.000000
-118.197401 -112.025617 0.000000
-146.015578 -68.476010 0.000000
185.178404 -52.664340 0.000000
187.136468 -49.423405 0.000000
191.130111 64.909087 0.000000
-81.320355 -141.560736 0.000000
-79.848461 -136.250933 0.000000
-77.162590 -139.523947 0.000000
53.560852 -172.121368 0.000000
195.842789 -33.972105 0.000000
136.836308 -122.403801 0.000000
-140.456063 -30.484168 0.000000
-35.531474 -141.462363 0.000000
6.439413 8.460131 0.000000
9.468238 -78.993438 0.000000
9.587092 -83.626734 0.000000
14.304983 -80.032000 0.000000
92.185497 87.182952 0.000000
89.276226 83.270066 0.000000
-141.503892 81.373533 0.000000
-135.861130 80.155795 0.000000
-139.547724 77.166175 0.000000
140.229184 -117.086582 0.000000
146.101343 -115.277415 0.000000
107.462485 -157.797737 0.000000
110.220634 -164.500230 0.000000
90.659281 178.791272 0.000000
80.267476 195.265827 0.000000
-90.578151 169.055065 0.000000
94.780856 102.300601 0.000000
-91.202834 197.529648 0.000000
-87.268481 198.011136 0.000000
-87.133083 193.503807 0.000000
-92.131858 194.123325 0.000000
-94.508344 201.179982 0.000000
-94.800391 191.520638 0.000000
-111.114220 -146.150858 0.000000
-146.150669 111.115286 0.000000
-58.241439 -184.493449 0.000000
-63.004718 -183.256601 0.000000
33.212846 -185.640087 0.000000
144.789666 97.365629 0.000000
145.748558 100.407318 0.000000
69.426433 -200.862939 0.000000
74.137632 -202.061867 0.000000
73.907342 -198.272199 0.000000
157.602034 91.184009 0.000000
114.760567 123.492554 0.000000
-144.944848 -109.558138 0.000000
-149.002403 -107.647473 0.000000
33.210139 183.135932 0.000000
8.506691 4.852986 0.000000
-94.070840 -104.517901 0.000000
-105.163474 85.307225 0.000000
-107.432724 81.024547 0.000000
-139.793808 -25.467416 0.000000
-56.829216 106.400326 0.000000
-61.191053 109.952947 0.000000
-55.719186 111.324196 0.000000
161.924084 105.693173 0.000000
156.286647 108.439596 0.000000
-109.953189 41.237475 0.000000
-110.288195 46.965887 0.000000
-114.383511 43.508851 0.000000
-105.191910 44.700571 0.000000
-176.877850 78.213835 0.000000
185.715980 -73.579675 0.000000
174.590044 44.670897 0.000000
56.744018 -176.840284 0.000000
61.612717 -179.046711 0.000000
58.062884 -181.729671 0.000000
-116.106884 138.808790 0.000000
-105.835989 -183.844429 0.000000
44.268476 -195.970287 0.000000
123.862225 107.757440 0.000000
-65.399952 -133.880457 0.000000
-67.705978 -138.851952 0.000000
-70.082451 -134.287127 0.000000
68.251150 193.483481 0.000000
70.795641 189.742922 0.000000
-163.713526 53.722948 0.000000
-48.646974 -163.807000 0.000000
-48.059974 -168.884539 0.000000
-169.138045 -77.493308 0.000000
-165.029003 -73.225437 0.000000
-99.317555 97.764282 0.000000
-93.157461 98.788724 0.000000
56.108497 192.618643 0.000000
52.346958 196.432581 0.000000
-108.564433 148.789994 0.000000
-89.005978 -106.864898 0.000000
-85.620698 -109.421297 0.000000
-81.001212 -111.991580 0.000000
-97.945745 71.304105 0.000000
-33.287798 188.011685 0.000000
183.518655 -60.919657 0.000000
-156.012711 -87.993186 0.000000
-38.674528 -136.625202 0.000000
-41.443887 -132.854059 0.000000
193.524495 -90.434076 0.000000
190.401696 -86.482712 0.000000
120.417794 99.312937 0.000000
131.607710 -99.234697 0.000000
168.685761 69.495843 0.000000
-133.981821 65.438417 0.000000
-138.922549 67.716689 0.000000
-134.350673 70.093100 0.000000
-173.759696 115.961666 0.000000
-188.457775 -50.016946 0.000000
140.604942 64.279253 0.000000
136.703094 68.545909 0.000000
-111.679433 -182.461189 0.000000
131.064891 76.723064 0.000000
136.734861 77.719779 0.000000
134.089637 81.000071 0.000000
138.634672 82.824114 0.000000
132.710748 85.974509 0.000000
-38.260154 -128.271907 0.000000
-196.136812 20.630858 0.000000
-201.016258 17.684982 0.000000
-85.349314 -104.644656 0.000000
-46.301367 170.779352 0.000000
-25.512017 195.948620 0.000000
14.517826 -84.518322 0.000000
87.097714 10.150286 0.000000
81.981538 10.559016 0.000000
83.674717 6.124042 0.000000
199.206103 92.423601 0.000000
201.536194 95.510396 0.000000
194.726241 92.665722 0.000000
191.543476 94.844638 0.000000
142.456050 77.821133 0.000000
57.147207 -186.706813 0.000000
-84.245249 -118.786242 0.000000
-80.405826 -117.591356 0.000000
-185.503610 -91.932929 0.000000
-92.437237 165.041762 0.000000
68.348919 171.984415 0.000000
1.808741 200.342285 0.000000
0.938997 195.135048 0.000000
87.429864 190.210188 0.000000
91.101177 192.979996 0.000000
13.186970 29.996557 0.000000
14.225544 35.491454 0.000000
9.630657 32.823464 0.000000
-78.812567 175.083536 0.000000
61.660255 -184.169048 0.000000
65.406685 -181.706275 0.000000
-196.611145 -45.433350 0.000000
-71.759768 -97.895767 0.000000
-28.370979 190.985377 0.000000
-22.932427 190.931268 0.000000
-24.700632 185.787192 0.000000
-191.125323 -92.520198 0.000000
-174.617857 -78.555335 0.000000
-179.216543 -78.908374 0.000000
115.097051 146.900612 0.000000
-164.126731 -39.909749 0.000000
-95.035737 -201.832934 0.000000
-95.163075 -197.369279 0.000000
-201.822323 95.003632 0.000000
-197.290902 94.977230 0.000000
-33.999610 -188.070446 0.000000
10.661213 38.988565 0.000000
84.127826 14.076029 0.000000
-30.575546 -184.893532 0.000000
150.326718 69.029984 0.000000
-114.393186 -54.225037 0.000000
-111.679664 -49.988469 0.000000
88.390346 123.644551 0.000000
105.973122 -71.660474 0.000000
103.764666 -67.985900 0.000000
102.355163 -73.176614 0.000000
-23.296189 53.216332 0.000000
-19.995238 56.873211 0.000000
-25.389347 57.912474 0.000000
-8.290582 -65.832468 0.000000
-3.935921 -64.968343 0.000000
82.683154 -96.119067 0.000000
-109.823288 -54.287201 0.000000
-107.661823 -50.746238 0.000000
165.762266 38.276316 0.000000
-3.031613 -60.892352 0.000000
-180.315594 -36.309953 0.000000
-182.226865 -40.636747 0.000000
188.653022 113.906505 0.000000
194.206584 114.537733 0.000000
150.353760 101.617166 0.000000
152.758010 104.543599 0.000000
147.759977 105.259094 0.000000
59.335261 155.287937 0.000000
-46.226073 -156.406429 0.000000
-89.408026 161.449360 0.000000
-94.951753 161.249755 0.000000
152.257559 -59.126220 0.000000
147.806121 -60.271657 0.000000
141.678973 68.853821 0.000000
140.080492 73.513133 0.000000
-53.760539 -186.047314 0.000000
66.716048 176.813231 0.000000
-93.090904 105.849905 0.000000
-98.540775 106.032510 0.000000
-20.138565 61.188519 0.000000
-104.282076 94.551546 0.000000
-169.309754 -89.992464 0.000000
-165.424760 -92.116496 0.000000
-0.281064 84.696287 0.000000
-3.913325 82.131421 0.000000
-62.251485 172.656231 0.000000
-82.247409 133.228140 0.000000
-78.389738 130.448768 0.000000
60.504186 -113.812396 0.000000
62.447253 -109.903886 0.000000
-78.383692 -6.387489 0.000000
-78.897663 -2.216840 0.000000
-82.154171 -4.772252 0.000000
-83.702142 -1.431787 0.000000
59.593684 51.858712 0.000000
65.005854 52.283708 0.000000
61.900475 55.455309 0.000000
65.836332 56.797221 0.000000
16.913498 30.731382 0.000000
13.447934 -66.748842 0.000000
9.487845 -69.900948 0.000000
13.435841 -71.500911 0.000000
9.178480 -74.108343 0.000000
-133.207057 -77.270971 0.000000
182.254191 57.829601 0.000000
-103.298629 106.374547 0.000000
190.578912 90.306568 0.000000
20.491529 35.068471 0.000000
135.720040 114.293792 0.000000
131.598039 115.610230 0.000000
116.807356 -139.931604 0.000000
115.929495 -144.325197 0.000000
-81.026113 -107.323233 0.000000
9.466224 26.272972 0.000000
-13.143560 -109.445737 0.000000
-10.345411 -113.495105 0.000000
-9.115109 -109.085529 0.000000
67.209022 -110.156231 0.000000
151.647759 108.695822 0.000000
4.406896 30.139280 0.000000
34.883185 -22.100982 0.000000
37.473539 -27.082342 0.000000
40.481630 -22.330241 0.000000
31.331906 -26.528965 0.000000
27.805504 94.533141 0.000000
32.573869 90.635323 0.000000
33.348715 95.204097 0.000000
-10.704929 -104.858312 0.000000
-15.116785 -105.145569 0.000000
-201.439728 38.105737 0.000000
-151.117307 44.787757 0.000000
-0.245668 -40.833139 0.000000
-2.707757 -45.348408 0.000000
3.319761 -44.473594 0.000000
-55.404852 -193.622659 0.000000
82.004604 174.125058 0.000000
-0.517593 -49.931190 0.000000
-25.966330 75.571134 0.000000
88.952639 174.518481 0.000000
-84.176416 162.338316 0.000000
114.560558 -194.194768 0.000000
-194.194284 -114.560380 0.000000
-180.817618 -54.043997 0.000000
170.476154 -72.011028 0.000000
165.182159 -74.164507 0.000000
175.899474 -72.315212 0.000000
180.684078 -73.026294 0.000000
178.116761 -68.260538 0.000000
134.456074 73.654519 0.000000
63.949394 -201.296557 0.000000
27.196635 87.875765 0.000000
-83.718897 180.900631 0.000000
-160.910716 -101.401146 0.000000
110.124256 -149.127381 0.000000
-120.740140 79.564798 0.000000
-20.545524 89.532125 0.000000
-18.500359 84.929750 0.000000
-14.756858 88.021844 0.000000
173.929451 -76.258769 0.000000
28.058591 100.204872 0.000000
-81.005377 115.052410 0.000000
-84.748475 119.622944 0.000000
-85.934855 114.840552 0.000000
-98.050745 -48.182601 0.000000
-101.781548 -43.032962 0.000000
-103.289817 -49.380177 0.000000
37.259518 88.717658 0.000000
-95.895650 -43.507840 0.000000
-37.894581 84.037779 0.000000
-42.663808 82.499445 0.000000
93.610177 196.148986 0.000000
200.483342 -93.876154 0.000000
197.888225 -89.627699 0.000000
196.136405 -93.611800 0.000000
-177.217058 47.024710 0.000000
-173.346930 43.462042 0.000000
137.867850 87.346040 0.000000
187.605083 -83.101780 0.000000
187.290756 -78.344599 0.000000
-14.126868 82.245537 0.000000
18.192405 -185.985354 0.000000
19.638212 -190.541216 0.000000
194.255332 53.465777 0.000000
-53.889146 5.654373 0.000000
-58.540771 2.415278 0.000000
-52.516976 0.300826 0.000000
-68.614948 -183.260206 0.000000
59.593016 74.879908 0.000000
55.946353 78.474363 0.000000
-114.544222 143.120414 0.000000
-151.666251 -86.617480 0.000000
57.453477 69.289150 0.000000
63.927486 70.418356 0.000000
-82.016271 -150.892692 0.000000
-175.017956 72.709410 0.000000
113.376279 181.771709 0.000000
183.221402 -77.783068 0.000000
178.548464 -77.607911 0.000000
-156.860368 -78.366770 0.000000
-153.323090 -82.347538 0.000000
137.640968 -39.214392 0.000000
138.342341 -33.567195 0.000000
-88.162119 107.911675 0.000000
-141.396023 -114.212028 0.000000
59.980055 65.465393 0.000000
3.405518 -18.191401 0.000000
1.936013 -14.336290 0.000000
-0.462127 -17.738228 0.000000
-3.489466 -14.717822 0.000000
6.653267 -21.152901 0.000000
7.818737 -15.192721 0.000000
-113.996788 194.039723 0.000000
-49.618538 -159.231601 0.000000
-150.885210 82.009366 0.000000
-193.506222 -29.740023 0.000000
-193.913655 -24.135159 0.000000
70.007873 -162.815752 0.000000
67.127853 -166.017696 0.000000
-90.878585 191.003321 0.000000
139.750209 113.304181 0.000000
-190.705730 -74.892439 0.000000
-201.345776 -3.370810 0.000000
-201.395955 -6.914561 0.000000
-197.215067 -5.440355 0.000000
-75.062910 -136.324433 0.000000
111.781750 110.374214 0.000000
107.630762 110.848506 0.000000
-136.326701 75.096092 0.000000
-104.638602 -66.912504 0.000000
-106.473489 -71.266274 0.000000
10.907500 -19.377001 0.000000
-63.998919 -155.238709 0.000000
4.604925 -9.991667 0.000000
114.286733 -0.118945 0.000000
119.702014 0.971802 0.000000
109.983340 3.394051 0.000000
109.096761 -2.702509 0.000000
-90.077672 -91.227007 0.000000
-90.735230 -86.283075 0.000000
-85.565173 -88.184426 0.000000
165.917703 93.932738 0.000000
-114.549875 1.047766 0.000000
-115.430671 -4.236741 0.000000
-110.924037 -2.042668 0.000000
-190.906533 -70.854686 0.000000
-8.902029 -23.121678 0.000000
-14.005408 -24.659453 0.000000
-109.273971 -68.610997 0.000000
9.674049 82.410576 0.000000
9.306948 76.787180 0.000000
-58.071706 167.238124 0.000000
74.103768 -159.912092 0.000000
200.805836 28.101890 0.000000
-192.620487 55.867579 0.000000
-193.770022 96.715611 0.000000
147.790448 33.097848 0.000000
149.399310 36.939881 0.000000
144.194850 36.260660 0.000000
146.736945 40.877107 0.000000
-96.867250 -193.857815 0.000000
-113.068599 189.610656 0.000000
44.724864 20.389870 0.000000
51.214603 18.595796 0.000000
49.423115 24.570800 0.000000
96.282963 -154.820310 0.000000
55.404474 22.479126 0.000000
39.384139 22.643134 0.000000
40.227301 16.333199 0.000000
39.858677 -7.704344 0.000000
34.635565 -12.102239 0.000000
40.504173 -12.753404 0.000000
-124.635046 -110.083748 0.000000
35.137070 -5.685602 0.000000
43.938616 -4.110361 0.000000
39.540020 -2.735784 0.000000
61.499543 -198.133189 0.000000
-12.811026 -34.172504 0.000000
-9.384295 -39.586064 0.000000
-8.285177 -34.547808 0.000000
-15.372317 -38.741869 0.000000
-182.016887 78.271781 0.000000
-179.586728 74.883274 0.000000
-183.999667 73.796309 0.000000
-4.387441 -37.673902 0.000000
-4.188769 -32.047201 0.000000
0.797576 -35.473929 0.000000
-9.385813 26.766504 0.000000
-8.003755 21.514202 0.000000
-3.354020 21.400681 0.000000
-11.443232 31.048087 0.000000
-14.048090 26.526455 0.000000
-16.292069 30.584752 0.000000
69.406633 -77.923256 0.000000
-200.728414 59.077038 0.000000
-126.444844 -45.136302 0.000000
-98.375708 -137.798847 0.000000
-59.739250 -156.576464 0.000000
-124.318970 2.246909 0.000000
-124.434691 -3.576418 0.000000
-129.791260 -5.467605 0.000000
-28.462218 4.240252 0.000000
-28.059783 -5.196344 0.000000
-31.169809 8.130574 0.000000
-29.939491 13.332124 0.000000
16.160037 -27.437590 0.000000
15.848915 -21.274617 0.000000
10.821931 -24.977889 0.000000
-94.322114 -138.420280 0.000000
-137.802611 98.379997 0.000000
-138.425710 94.328176 0.000000
90.827510 -169.585913 0.000000
0.883022 -28.386755 0.000000
5.724937 -32.343262 0.000000
6.092708 -26.849484 0.000000
126.642125 -114.973056 0.000000
129.150503 -111.533177 0.000000
95.054450 127.748652 0.000000
83.561081 -146.970326 0.000000
-12.185468 -133.054503 0.000000
186.241932 77.517321 0.000000
190.699045 77.020957 0.000000
-7.086340 -132.598131 0.000000
-11.517105 -128.174474 0.000000
119.871631 -136.993627 0.000000
117.596387 -133.173199 0.000000
-5.561750 -127.330909 0.000000
-61.308772 195.895341 0.000000
-56.945275 196.885870 0.000000
-129.290834 -41.956349 0.000000
-131.400986 -45.688358 0.000000
41.255377 81.589758 0.000000
39.579489 76.314256 0.000000
45.447341 78.579402 0.000000
-57.950218 193.034184 0.000000
42.883288 72.643450 0.000000
86.205845 -130.175718 0.000000
37.568819 84.061055 0.000000
129.576903 22.248917 0.000000
134.611655 25.609779 0.000000
-19.992391 -52.956437 0.000000
-23.666383 -55.360604 0.000000
-19.638796 -57.362149 0.000000
-191.942077 29.596278 0.000000
-188.884641 32.280451 0.000000
-187.384062 27.580959 0.000000
-200.707811 -68.452002 0.000000
61.865525 -194.377375 0.000000
57.611760 -196.743813 0.000000
-55.452572 -89.087608 0.000000
-51.584559 -92.846130 0.000000
4.925145 81.648040 0.000000
50.695725 78.526772 0.000000
52.681499 83.883306 0.000000
57.805105 -191.971856 0.000000
-71.783352 -170.212104 0.000000
-76.229350 -173.004164 0.000000
48.712195 73.170459 0.000000
-136.765693 -16.856187 0.000000
-135.600136 -21.658242 0.000000
-73.358781 155.982332 0.000000
-72.459780 151.714548 0.000000
-133.711361 -27.003473 0.000000
-130.079559 -22.256771 0.000000
-35.875570 -159.459933 0.000000
-127.439587 -27.522860 0.000000
-136.044809 -12.187072 0.000000
109.081141 -112.185713 0.000000
-131.035711 -10.693253 0.000000
48.579092 195.483651 0.000000
-111.766333 -6.678435 0.000000
-115.861786 -9.320821 0.000000
-119.825891 -7.155807 0.000000
128.462410 -9.224087 0.000000
126.406478 -13.242904 0.000000
127.548285 -4.714586 0.000000
121.009133 -13.730582 0.000000
-66.353068 -3.410582 0.000000
-60.608879 -3.282330 0.000000
-63.770968 0.963956 0.000000
117.633058 28.730958 0.000000
117.528513 23.602242 0.000000
112.744422 27.137042 0.000000
21.352642 88.668403 0.000000
11.329960 -10.457191 0.000000
8.162663 -6.221650 0.000000
14.257442 -14.963320 0.000000
-111.631478 -11.887319 0.000000
-108.568278 -8.566086 0.000000
126.158978 1.095744 0.000000
122.295301 5.796378 0.000000
-118.600833 4.418971 0.000000
-114.067173 6.541486 0.000000
-108.980304 2.997713 0.000000
-132.495763 11.403872 0.000000
-136.949276 14.145766 0.000000
-139.438954 4.838417 0.000000
-144.404431 6.215488 0.000000
-4.232710 -26.169386 0.000000
-4.145734 -20.675208 0.000000
-8.960357 104.943597 0.000000
-12.327457 99.045921 0.000000
-6.097076 99.273872 0.000000
-15.807726 104.328795 0.000000
-39.876985 165.681307 0.000000
-43.183889 169.081422 0.000000
-6.302267 15.987069 0.000000
-13.724666 22.017325 0.000000
-7.752683 110.724187 0.000000
-12.731976 109.685763 0.000000
-197.039831 55.905304 0.000000
-2.331071 111.877233 0.000000
-6.668832 116.486810 0.000000
-150.026333 -66.289732 0.000000
-151.316435 -61.511187 0.000000
-1.664033 116.682268 0.000000
-146.173771 -63.041856 0.000000
24.808350 -18.057930 0.000000
22.295429 -12.241470 0.000000
19.083326 -16.788839 0.000000
28.543213 -13.293526 0.000000
-115.765274 -147.233211 0.000000
-49.509449 -17.560458 0.000000
-52.695432 -23.727326 0.000000
-47.593170 -22.488250 0.000000
-48.222940 -27.463475 0.000000
-123.193588 12.926337 0.000000
-126.991305 10.822178 0.000000
-123.562070 7.589545 0.000000
-127.644404 15.225504 0.000000
-119.656102 -1.270479 0.000000
-21.827901 -61.047326 0.000000
54.678599 53.949744 0.000000
54.885335 49.346564 0.000000
29.699454 2.184384 0.000000
28.704623 7.923983 0.000000
23.885008 4.928990 0.000000
-147.233018 115.765816 0.000000
24.306963 10.883479 0.000000
52.102437 89.106891 0.000000
51.012678 95.239373 0.000000
149.426346 15.716407 0.000000
-9.623894 70.730503 0.000000
-5.813755 66.584943 0.000000
-15.883520 7.002410 0.000000
143.844739 111.637328 0.000000
165.298534 68.078630 0.000000
98.358404 -44.836380 0.000000
93.598478 -47.692889 0.000000
99.110285 -50.196489 0.000000
92.853793 -42.203001 0.000000
136.792762 30.749300 0.000000
54.468945 -194.429722 0.000000
53.234917 -189.747944 0.000000
139.403514 21.856097 0.000000
138.058168 35.245195 0.000000
70.386662 57.722255 0.000000
67.363018 61.299401 0.000000
-148.764487 -79.447496 0.000000
64.810863 65.032670 0.000000
61.572338 60.404225 0.000000
-35.486384 32.543847 0.000000
-41.278937 35.434319 0.000000
-41.151829 28.957250 0.000000
-46.055637 32.243890 0.000000
52.121312 -8.994794 0.000000
50.566774 -14.223305 0.000000
56.123029 -14.029633 0.000000
53.526987 -18.916502 0.000000
109.748357 37.946256 0.000000
113.608411 41.348900 0.000000
109.715820 42.202835 0.000000
115.271079 36.575190 0.000000
105.307593 40.771873 0.000000
101.679275 45.896462 0.000000
77.734926 183.249284 0.000000
74.594517 180.686610 0.000000
78.499143 178.737262 0.000000
104.600681 35.284798 0.000000
57.561402 57.316559 0.000000
73.988821 185.320625 0.000000
-107.346363 -4.783000 0.000000
182.675311 110.746600 0.000000
51.738874 -90.721195 0.000000
-82.771817 -36.474764 0.000000
-77.977531 -38.377111 0.000000
-78.934649 -34.511600 0.000000
53.821729 -85.380376 0.000000
49.850603 -87.154045 0.000000
-179.232948 34.235545 0.000000
58.856101 31.194403 0.000000
53.909627 28.129899 0.000000
60.544269 26.080144 0.000000
-80.508511 -41.279377 0.000000
11.199314 -87.624311 0.000000
7.507648 -87.909936 0.000000
-2.164005 -135.601540 0.000000
-2.374634 -130.367896 0.000000
2.822732 98.978400 0.000000
7.142992 100.416386 0.000000
3.385892 104.433742 0.000000
9.621466 104.088127 0.000000
60.619473 3.275983 0.000000
64.219622 8.558350 0.000000
58.298171 8.191765 0.000000
144.280771 107.822491 0.000000
66.319470 2.932451 0.000000
-31.521132 43.151122 0.000000
-30.209678 36.822110 0.000000
-26.014942 41.745932 0.000000
-24.474502 36.729618 0.000000
-32.843094 48.633053 0.000000
-37.308361 44.629359 0.000000
7.943191 109.439386 0.000000
2.917582 110.569060 0.000000
1.630538 114.651082 0.000000
25.804342 -7.713895 0.000000
30.482705 -8.643620 0.000000
29.584891 -3.787319 0.000000
100.651577 -64.812431 0.000000
95.685902 -66.187102 0.000000
99.312722 -69.128706 0.000000
-130.096158 -94.702738 0.000000
-130.707969 -89.943235 0.000000
-85.508774 9.379715 0.000000
-85.700130 3.407748 0.000000
-80.042367 5.528464 0.000000
-126.293599 -92.737754 0.000000
37.795777 61.780300 0.000000
33.420318 62.994487 0.000000
35.481805 57.447842 0.000000
-172.117524 -62.794598 0.000000
-81.591454 14.334787 0.000000
-87.758863 14.650930 0.000000
49.424671 -173.371514 0.000000
-83.678174 19.536660 0.000000
3.863624 75.324820 0.000000
-0.440523 78.597307 0.000000
131.157045 -0.387154 0.000000
-139.927101 -88.019848 0.000000
136.371979 -1.382236 0.000000
135.477420 4.775360 0.000000
185.824758 109.650757 0.000000
31.113886 58.515886 0.000000
-152.080086 49.334192 0.000000
-75.149309 1.701594 0.000000
-73.779833 7.229348 0.000000
102.307862 -27.637414 0.000000
100.116619 -23.351471 0.000000
98.597274 -27.024326 0.000000
-14.105274 -123.873383 0.000000
-8.113729 -122.881986 0.000000
95.315076 -25.071338 0.000000
-89.706352 -46.002102 0.000000
-88.741595 -42.356884 0.000000
-92.012859 -43.738405 0.000000
28.745927 20.632343 0.000000
24.768951 20.952449 0.000000
25.799696 16.321562 0.000000
26.011610 25.572993 0.000000
190.418235 110.734361 0.000000
2.493580 -5.279674 0.000000
6.929572 -0.287364 0.000000
-102.253715 -36.996595 0.000000
-106.741893 -39.766256 0.000000
-108.592192 -44.920159 0.000000
-91.433600 -1.903807 0.000000
-92.650140 -6.426082 0.000000
-87.101377 -5.805248 0.000000
50.695645 3.790840 0.000000
47.609021 -0.125385 0.000000
48.150009 -5.428871 0.000000
-32.062485 19.136820 0.000000
-28.891516 24.312189 0.000000
-23.038694 22.960690 0.000000
-37.929781 19.628635 0.000000
-35.140664 15.451211 0.000000
-40.535055 13.538153 0.000000
30.207108 29.148885 0.000000
30.182511 34.916600 0.000000
25.716466 31.534237 0.000000
34.697770 31.801987 0.000000
25.818656 36.967219 0.000000
29.551788 41.141988 0.000000
63.797648 -1.880487 0.000000
67.740693 -184.580067 0.000000
64.698262 -186.462433 0.000000
55.433721 3.524449 0.000000
28.683661 -38.396591 0.000000
32.820042 -35.380732 0.000000
27.223005 -32.157385 0.000000
85.488961 17.172614 0.000000
88.131034 14.834153 0.000000
88.443696 19.134219 0.000000
-42.293746 23.176276 0.000000
-43.707116 18.200544 0.000000
-46.828448 26.390507 0.000000
99.933546 118.765860 0.000000
104.291767 119.859624 0.000000
101.207045 123.101696 0.000000
200.728278 59.715449 0.000000
201.236486 64.014105 0.000000
21.386328 -29.210733 0.000000
16.614736 -33.590986 0.000000
10.983221 -30.524895 0.000000
25.741556 -25.818627 0.000000
6.219043 -112.996220 0.000000
70.564255 163.845058 0.000000
-0.221476 -115.078369 0.000000
5.542877 -118.460932 0.000000
91.442624 16.957783 0.000000
105.286615 107.203958 0.000000
61.734041 -24.088171 0.000000
58.540994 -19.291038 0.000000
55.882062 -24.257346 0.000000
48.479979 30.441780 0.000000
168.031737 -86.088016 0.000000
-18.459832 -33.491601 0.000000
-15.789465 -29.218346 0.000000
151.506671 -109.506519 0.000000
-22.228587 -28.853371 0.000000
-7.082476 -200.941079 0.000000
-2.694465 -200.954838 0.000000
-24.735169 -34.701006 0.000000
39.199321 34.605236 0.000000
39.064595 29.117514 0.000000
43.773565 32.479106 0.000000
20.346757 -85.352658 0.000000
24.165854 -82.351218 0.000000
19.512688 -80.893693 0.000000
21.536697 -88.457454 0.000000
24.573144 -87.006312 0.000000
69.818887 31.540701 0.000000
64.583000 29.760750 0.000000
69.439129 27.863676 0.000000
-113.261983 20.954904 0.000000
-110.174755 17.813622 0.000000
-109.077159 22.470523 0.000000
-106.165576 18.892338 0.000000
30.720422 24.340572 0.000000
-103.963257 22.443842 0.000000
1.742691 89.569515 0.000000
34.709420 26.188841 0.000000
-90.033935 2.063050 0.000000
-87.619311 -0.711780 0.000000
23.704475 119.985669 0.000000
18.033929 117.917100 0.000000
23.213350 125.420247 0.000000
56.693654 17.600089 0.000000
-13.448760 126.629344 0.000000
-15.865563 120.811375 0.000000
-9.432883 122.280236 0.000000
200.636684 -51.242435 0.000000
-36.119828 -75.093458 0.000000
-39.285153 -72.125910 0.000000
-42.097278 -76.934012 0.000000
-3.053576 121.804232 0.000000
-40.916088 -11.714889 0.000000
-44.878391 -6.901006 0.000000
-46.649686 -12.038640 0.000000
-46.791320 38.223746 0.000000
-42.379779 41.373448 0.000000
109.479728 151.549982 0.000000
-42.519704 46.880709 0.000000
-41.822364 -81.741072 0.000000
-43.660996 -85.767640 0.000000
-39.885904 -84.913847 0.000000
52.478322 -96.698979 0.000000
57.862299 -96.692092 0.000000
-45.363026 -82.367704 0.000000
-44.107395 -31.989715 0.000000
-49.374259 -32.897879 0.000000
-200.891491 12.750115 0.000000
-69.703060 192.953504 0.000000
-18.039542 -100.752072 0.000000
-12.766830 -100.078471 0.000000
-38.154823 -87.905729 0.000000
-35.367237 -84.635223 0.000000
-78.123082 166.562306 0.000000
-34.957712 -90.009449 0.000000
-156.586923 71.856629 0.000000
-73.256461 -3.918761 0.000000
-68.937854 -8.166301 0.000000
-62.696885 -8.565367 0.000000
-38.096817 -80.020269 0.000000
128.801253 12.031987 0.000000
125.929613 16.708868 0.000000
124.295229 10.885615 0.000000
118.760351 9.917771 0.000000
116.370270 5.099931 0.000000
-88.831371 50.973472 0.000000
-88.643832 45.590748 0.000000
75.690813 -56.146039 0.000000
79.265179 -60.916207 0.000000
81.288211 -55.106352 0.000000
-22.640730 137.963479 0.000000
-26.110967 136.500420 0.000000
-23.288359 132.034567 0.000000
-32.715968 72.554917 0.000000
-33.569719 68.283371 0.000000
-28.559118 70.950049 0.000000
28.982409 -102.703237 0.000000
27.714771 -107.969344 0.000000
32.039024 -107.259465 0.000000
-113.454800 -81.844231 0.000000
123.539177 22.286510 0.000000
24.583166 -105.492760 0.000000
-42.689877 67.688395 0.000000
-41.316137 71.438911 0.000000
-45.368375 70.743945 0.000000
-44.130473 75.155496 0.000000
-99.565256 5.748843 0.000000
-104.745239 6.169012 0.000000
-103.602568 1.793793 0.000000
114.522509 -132.129047 0.000000
48.322823 36.644253 0.000000
43.547797 26.795425 0.000000
53.112154 39.044531 0.000000
49.686387 42.386284 0.000000
55.097227 44.148724 0.000000
-28.947678 30.602658 0.000000
-36.872023 38.944298 0.000000
41.396070 -95.586653 0.000000
46.608356 -94.173711 0.000000
42.397791 -90.844506 0.000000
46.714391 -89.049752 0.000000
95.840948 192.657591 0.000000
-90.204576 6.406113 0.000000
-28.747156 -10.537658 0.000000
-35.138681 -11.816764 0.000000
192.646409 -95.685262 0.000000
-171.495608 -106.935293 0.000000
-38.568603 -16.681809 0.000000
187.629951 -43.876548 0.000000
-29.392972 65.795680 0.000000
184.652883 -40.282854 0.000000
-117.297480 -84.467391 0.000000
-94.575573 15.539110 0.000000
-89.858668 20.869716 0.000000
6.014080 -123.953432 0.000000
11.815806 -123.430085 0.000000
-80.349067 34.513140 0.000000
-78.999379 38.355166 0.000000
-83.775128 41.789969 0.000000
-91.684901 10.609572 0.000000
-56.547948 -8.097450 0.000000
-57.240638 -12.796345 0.000000
-51.982723 -11.440506 0.000000
167.063442 -18.355994 0.000000
172.065416 -17.484520 0.000000
170.030341 -13.882052 0.000000
4.638404 66.381776 0.000000
2.390641 70.369277 0.000000
-0.486764 66.254789 0.000000
-72.017550 30.565569 0.000000
-72.888475 26.072384 0.000000
-67.647836 28.069852 0.000000
-72.270453 -139.261527 0.000000
6.968454 70.739490 0.000000
165.492699 -14.196021 0.000000
82.985537 54.854468 0.000000
77.598838 53.363844 0.000000
81.544470 49.783224 0.000000
62.865960 -57.161035 0.000000
59.737177 -59.550245 0.000000
63.346387 -61.936193 0.000000
-7.162894 54.891008 0.000000
-6.502650 51.327364 0.000000
-2.581066 52.617275 0.000000
-3.871407 48.644689 0.000000
-24.974258 67.755101 0.000000
-17.375216 92.036040 0.000000
-16.655154 96.539245 0.000000
-20.526427 94.736783 0.000000
0.931600 -65.022730 0.000000
4.173392 -70.951619 0.000000
7.508914 -66.113206 0.000000
-34.571183 76.801485 0.000000
-36.575067 71.799423 0.000000
75.761053 -2.009212 0.000000
74.014597 3.307938 0.000000
69.896081 -1.163980 0.000000
80.398747 1.865918 0.000000
90.834635 -29.439750 0.000000
86.139555 -25.272498 0.000000
85.636329 -30.963051 0.000000
-196.777033 -37.824638 0.000000
-37.767114 67.981052 0.000000
-34.882461 63.235207 0.000000
36.707441 -102.344078 0.000000
40.617161 -104.452564 0.000000
40.313175 -100.118281 0.000000
43.895095 -101.918505 0.000000
106.405852 -171.061738 0.000000
33.484323 -99.842582 0.000000
33.610727 -103.830731 0.000000
88.757432 -33.796381 0.000000
80.479046 -32.719819 0.000000
75.564858 -34.637951 0.000000
80.036230 -37.629833 0.000000
-5.649276 -112.003743 0.000000
96.746190 31.972964 0.000000
101.311798 30.146317 0.000000
98.984586 35.495501 0.000000
-6.421894 -117.151158 0.000000
-2.949332 -120.862454 0.000000
-15.922743 -114.621091 0.000000
-12.028017 -118.694512 0.000000
-106.388423 171.094397 0.000000
-147.919990 -100.155783 0.000000
-64.070218 200.835060 0.000000
83.947525 -40.985590 0.000000
88.618540 -39.007527 0.000000
84.501385 -35.883381 0.000000
-61.700376 -15.278589 0.000000
78.970824 35.973230 0.000000
84.153667 37.912399 0.000000
-52.815721 -71.853455 0.000000
83.378335 42.048009 0.000000
-50.659454 -67.369979 0.000000
-51.911073 -63.067505 0.000000
-54.509811 -67.450141 0.000000
-49.783084 -83.235578 0.000000
-47.587119 -78.824841 0.000000
-52.449279 -79.923301 0.000000
-44.393650 191.754169 0.000000
-7.737924 -83.582768 0.000000
-8.837577 -88.562327 0.000000
-4.011874 -86.167049 0.000000
-63.503943 30.191868 0.000000
-63.400966 34.392861 0.000000
-67.100335 32.447890 0.000000
-25.525260 122.461093 0.000000
-21.619162 118.896775 0.000000
-31.739131 120.476506 0.000000
-59.349252 32.217305 0.000000
-4.930756 -91.315178 0.000000
83.292268 -45.982370 0.000000
87.878383 -45.288293 0.000000
-12.195678 -85.252809 0.000000
79.358343 -42.122139 0.000000
75.589851 -43.127774 0.000000
77.670055 -45.788177 0.000000
-40.007147 63.904795 0.000000
-44.340370 64.028080 0.000000
97.019170 -13.530853 0.000000
93.541436 -9.082245 0.000000
91.350821 -14.234022 0.000000
99.229258 -8.116190 0.000000
86.075961 -15.192351 0.000000
89.220619 -19.615294 0.000000
82.668960 -19.685791 0.000000
160.904350 101.275393 0.000000
-91.102291 -63.191359 0.000000
-86.607769 -66.357135 0.000000
-86.159277 -60.326288 0.000000
-48.343146 63.699657 0.000000
-46.177639 60.464030 0.000000
-51.198700 61.512817 0.000000
82.118909 27.724090 0.000000
83.042510 32.398629 0.000000
-14.529431 71.072324 0.000000
-15.741123 76.702554 0.000000
-65.982267 -13.166628 0.000000
110.478637 -27.500631 0.000000
113.453868 -31.026423 0.000000
-77.487259 -30.821384 0.000000
-82.111272 -32.131274 0.000000
-81.801510 -28.052924 0.000000
-116.043396 34.593644 0.000000
-78.275205 -26.795167 0.000000
-46.722070 -1.014298 0.000000
-51.037162 -5.434786 0.000000
86.484547 -100.017713 0.000000
5.014954 -83.493087 0.000000
4.248835 -77.431549 0.000000
25.936241 79.029162 0.000000
30.510245 79.596042 0.000000
146.196661 79.949859 0.000000
32.407739 -17.372875 0.000000
29.058987 -21.371265 0.000000
38.058080 -17.591134 0.000000
20.534288 104.339955 0.000000
26.412133 104.692067 0.000000
16.394691 108.616060 0.000000
14.953311 102.897724 0.000000
-30.304751 74.940259 0.000000
-29.630577 78.473000 0.000000
-38.721764 79.816189 0.000000
-139.306141 72.270868 0.000000
67.805792 95.852974 0.000000
68.632202 -45.644787 0.000000
70.675648 -48.907143 0.000000
72.724499 -44.855114 0.000000
73.106161 -39.977425 0.000000
70.108054 -36.335401 0.000000
68.232797 -41.604375 0.000000
-49.411397 -56.290807 0.000000
-47.650669 -59.965846 0.000000
-45.148796 -56.213085 0.000000
-35.485646 91.475488 0.000000
-39.578352 95.110773 0.000000
71.430314 43.743930 0.000000
69.410528 49.199502 0.000000
183.114724 -45.767911 0.000000
65.597210 -37.411375 0.000000
61.794668 -36.806771 0.000000
63.039416 -40.869231 0.000000
66.016768 -28.402701 0.000000
67.692476 -22.218533 0.000000
63.472562 -18.433562 0.000000
58.206902 -40.003251 0.000000
-41.443063 -56.969650 0.000000
-43.960603 -60.742127 0.000000
-42.035780 -52.497146 0.000000
70.921118 -55.757645 0.000000
72.812889 -52.010890 0.000000
68.562984 -52.265357 0.000000
-34.991580 96.558182 0.000000
98.589219 12.172339 0.000000
102.578312 12.404841 0.000000
99.029255 16.722783 0.000000
103.738176 17.163829 0.000000
101.025443 19.516671 0.000000
9.858675 65.101769 0.000000
-42.213186 -89.413150 0.000000
-46.329640 -92.903068 0.000000
-41.666623 -95.211388 0.000000
-47.227317 -87.703079 0.000000
85.042954 25.548917 0.000000
81.329749 23.110779 0.000000
89.160069 23.967396 0.000000
87.244237 29.137970 0.000000
39.059454 10.339295 0.000000
38.205636 5.470611 0.000000
43.632122 7.478068 0.000000
-153.991380 -34.393759 0.000000
-155.927166 -29.529746 0.000000
42.175849 1.271310 0.000000
49.452397 -82.987543 0.000000
46.702804 -85.487898 0.000000
87.597252 -116.138138 0.000000
-41.910188 -141.147246 0.000000
45.179123 -82.179091 0.000000
-57.932114 -23.290507 0.000000
-61.539890 -20.683999 0.000000
-62.269393 -25.918869 0.000000
-1.329595 -89.528587 0.000000
0.244781 -85.637300 0.000000
76.108770 129.468951 0.000000
180.399837 -41.508641 0.000000
-66.464256 -22.587457 0.000000
-39.806320 75.507643 0.000000
67.346899 -58.977213 0.000000
86.563857 -4.116175 0.000000
89.049596 -7.207388 0.000000
91.669246 -3.554731 0.000000
-66.915196 59.100244 0.000000
-66.360935 62.786860 0.000000
-70.589663 61.425038 0.000000
65.511162 -82.458354 0.000000
-28.446172 128.077649 0.000000
-68.381933 65.815112 0.000000
15.742278 59.148770 0.000000
14.890035 63.297897 0.000000
11.500605 60.266569 0.000000
18.483949 61.625037 0.000000
-74.406908 -39.027348 0.000000
-75.778910 -43.733352 0.000000
-71.366215 -41.217025 0.000000
-71.642189 -36.640315 0.000000
-68.277236 -38.614620 0.000000
46.100653 67.550219 0.000000
40.827778 68.233602 0.000000
41.964812 63.598725 0.000000
-58.051565 -54.890058 0.000000
-53.734736 -55.666789 0.000000
-55.333909 -52.141932 0.000000
-111.655348 72.329751 0.000000
-55.975695 -59.548782 0.000000
-106.859690 68.824306 0.000000
-51.782671 -48.654797 0.000000
-56.877873 -48.265977 0.000000
-54.128378 -45.334492 0.000000
-17.656383 -109.468815 0.000000
-60.858162 -47.119614 0.000000
-64.568592 -45.280750 0.000000
-63.511603 -49.734117 0.000000
-67.568957 -48.027467 0.000000
-26.382842 -59.096499 0.000000
-30.782795 -57.658504 0.000000
-30.669127 -61.792022 0.000000
-57.726340 -43.348508 0.000000
-102.249603 -14.706930 0.000000
-98.186062 -13.102676 0.000000
-101.369494 -10.649096 0.000000
150.752155 -78.024080 0.000000
66.360313 -55.005465 0.000000
-100.370409 -6.511822 0.000000
-104.308134 -7.814824 0.000000
-23.547741 92.846797 0.000000
-30.245421 90.223658 0.000000
-77.451284 52.749123 0.000000
-72.489159 53.843781 0.000000
-75.257184 56.419605 0.000000
-74.052769 50.022513 0.000000
-25.480923 89.547801 0.000000
-41.449505 -43.584007 0.000000
-37.701119 -38.786608 0.000000
-42.581082 -37.797333 0.000000
10.516524 -36.353935 0.000000
4.887205 -38.560122 0.000000
55.408245 62.954124 0.000000
51.903101 68.337317 0.000000
30.445378 54.156435 0.000000
93.166807 28.041292 0.000000
93.976948 23.464514 0.000000
39.637107 53.732766 0.000000
40.842944 58.469748 0.000000
-79.613291 56.996109 0.000000
-83.266804 52.039137 0.000000
-161.451591 19.514135 0.000000
-165.803948 16.431162 0.000000
-166.721808 20.802168 0.000000
34.656954 51.729293 0.000000
-78.659796 48.550705 0.000000
-77.730866 43.604763 0.000000
-74.878250 46.664862 0.000000
54.147462 -32.545023 0.000000
58.875283 -31.056220 0.000000
54.997013 -28.800736 0.000000
94.607811 19.351108 0.000000
91.386128 21.303347 0.000000
97.839304 21.660347 0.000000
84.859712 21.141513 0.000000
196.286830 -43.916303 0.000000
40.798493 44.356357 0.000000
35.146331 44.401688 0.000000
38.069042 41.773493 0.000000
-28.985560 -21.321746 0.000000
-34.008247 -19.388889 0.000000
-30.228906 -16.175538 0.000000
-11.288692 -79.462108 0.000000
-14.875607 -82.488739 0.000000
37.911670 48.657047 0.000000
-86.857336 -19.561999 0.000000
-92.011891 -19.120938 0.000000
-89.258312 -22.804795 0.000000
-94.123155 32.373906 0.000000
-89.907764 31.001714 0.000000
-169.325133 43.718979 0.000000
-169.367635 47.090549 0.000000
94.116614 -75.518586 0.000000
-94.593275 37.651623 0.000000
-64.426832 -35.063394 0.000000
-64.680030 -40.801649 0.000000
-60.752652 -39.293521 0.000000
-58.008934 -73.627170 0.000000
-55.112366 -76.756644 0.000000
17.358202 70.512662 0.000000
11.696139 70.868908 0.000000
-56.734769 -70.396987 0.000000
-57.672682 -81.198983 0.000000
14.158175 -39.801100 0.000000
-124.054614 -21.702327 0.000000
-119.035548 -18.304144 0.000000
-119.527027 -12.652751 0.000000
-54.386543 -84.202614 0.000000
169.737989 -68.073456 0.000000
76.416911 -39.303935 0.000000
-117.642136 -95.168970 0.000000
-122.643044 -95.083201 0.000000
-119.362097 -99.616082 0.000000
-122.671020 -31.617297 0.000000
42.748656 49.347027 0.000000
19.462688 -121.659804 0.000000
24.854173 -121.824819 0.000000
-13.715745 -52.509060 0.000000
-14.661473 -48.217298 0.000000
-18.129281 -50.297690 0.000000
-10.868453 -48.942066 0.000000
42.831409 -61.109214 0.000000
42.537731 -64.949935 0.000000
45.057757 -67.661447 0.000000
56.448847 -101.284270 0.000000
59.782821 -105.964332 0.000000
38.414315 -63.885175 0.000000
39.463104 -57.203313 0.000000
33.888804 -60.575599 0.000000
-71.290826 47.498428 0.000000
-20.228593 100.036535 0.000000
-21.900244 105.663421 0.000000
-72.763366 39.048161 0.000000
-72.000609 44.277405 0.000000
-61.244025 17.467374 0.000000
-64.840581 20.640813 0.000000
-66.389085 15.722424 0.000000
-69.010752 19.408732 0.000000
-20.383716 40.706769 0.000000
-19.121404 34.800758 0.000000
-14.767558 38.807341 0.000000
-52.080346 -59.148360 0.000000
-51.700258 -52.657399 0.000000
-75.153285 -72.178025 0.000000
-79.273797 -71.451094 0.000000
-77.061809 -76.427362 0.000000
-71.537535 -75.185844 0.000000
50.974770 -27.480704 0.000000
48.967622 -32.419007 0.000000
-72.721380 -32.189995 0.000000
-74.213576 -27.770702 0.000000
139.721940 -47.947974 0.000000
-58.359338 8.049836 0.000000
-54.541072 10.223099 0.000000
-69.907545 -29.181597 0.000000
18.546738 -96.029582 0.000000
15.987494 -99.818287 0.000000
21.100575 -99.401437 0.000000
17.955673 -103.611600 0.000000
-86.223840 -46.385580 0.000000
-88.639721 -50.341645 0.000000
-189.467029 -30.830345 0.000000
-148.021456 52.361393 0.000000
-98.488908 35.372868 0.000000
-97.737479 30.390654 0.000000
-29.638171 60.279876 0.000000
-35.198312 57.266574 0.000000
-29.391958 54.310747 0.000000
40.417731 -68.371194 0.000000
38.991849 -72.073583 0.000000
42.838236 -71.688842 0.000000
-72.358692 75.276817 0.000000
35.757836 -69.588242 0.000000
55.204229 -36.928837 0.000000
58.525719 -35.093722 0.000000
51.487595 -36.035931 0.000000
94.826519 14.790344 0.000000
-102.470463 -32.119616 0.000000
-96.711942 -34.228860 0.000000
-107.778300 -34.683364 0.000000
-92.537347 -38.784084 0.000000
-90.371178 -33.040346 0.000000
-87.451225 -37.521913 0.000000
-19.318753 66.945181 0.000000
161.491283 -86.264053 0.000000
-64.240851 25.504659 0.000000
-68.781504 23.455546 0.000000
-60.326024 22.425367 0.000000
-93.942979 -11.415285 0.000000
-95.434458 -16.339077 0.000000
70.344415 -72.833401 0.000000
-49.939738 70.406799 0.000000
-48.580671 74.652564 0.000000
-47.095342 67.243077 0.000000
46.353443 45.586389 0.000000
50.390352 46.756732 0.000000
47.272286 49.649043 0.000000
75.164777 -48.936114 0.000000
76.987878 -52.294296 0.000000
86.905804 33.867872 0.000000
43.270050 -18.206949 0.000000
46.083968 -23.376464 0.000000
22.565269 -72.580035 0.000000
17.378651 -73.201260 0.000000
18.651606 -76.603098 0.000000
-53.343476 69.395916 0.000000
-50.801829 66.207002 0.000000
-17.043367 -86.969840 0.000000
-13.390899 -90.451073 0.000000
88.035626 -0.364272 0.000000
-106.310801 26.076887 0.000000
-110.846680 26.873016 0.000000
-108.519573 30.540967 0.000000
-107.887482 65.132358 0.000000
81.616822 17.873524 0.000000
77.006596 20.738551 0.000000
-37.334531 -112.230109 0.000000
-92.901335 -95.019679 0.000000
-68.538845 -33.735008 0.000000
-75.464392 -35.236228 0.000000
38.042860 -92.694295 0.000000
34.919396 -90.127782 0.000000
34.060683 -95.198045 0.000000
31.059398 -92.594070 0.000000
-0.375786 -101.638426 0.000000
3.087749 -99.317395 0.000000
-3.932045 -99.337488 0.000000
-4.917659 -103.127476 0.000000
-7.796577 -99.696024 0.000000
104.400288 21.759285 0.000000
108.147879 18.880867 0.000000
108.334296 23.939619 0.000000
112.254480 21.526215 0.000000
101.044384 24.348969 0.000000
20.263504 -92.306794 0.000000
16.075500 -92.580607 0.000000
13.730780 -95.281593 0.000000
-101.445337 68.125768 0.000000
-191.729348 39.046190 0.000000
81.814832 -101.464915 0.000000
-99.796953 63.494441 0.000000
143.554437 82.560531 0.000000
-68.052429 54.860133 0.000000
-69.547299 50.828182 0.000000
-71.511107 57.771205 0.000000
77.889139 -100.021722 0.000000
15.030607 51.191248 0.000000
10.681891 52.727844 0.000000
11.719432 48.351295 0.000000
-81.200089 184.409534 0.000000
7.079850 48.684950 0.000000
21.824335 -103.371678 0.000000
24.484804 -100.972046 0.000000
27.707575 -112.681087 0.000000
23.731540 -110.767784 0.000000
31.073764 -111.625079 0.000000
97.579327 -73.442331 0.000000
95.432854 10.244856 0.000000
91.581703 12.505128 0.000000
94.530573 -70.139016 0.000000
19.084693 43.769848 0.000000
23.831150 46.395157 0.000000
19.569655 49.050123 0.000000
23.154121 41.178603 0.000000
27.315862 -94.529539 0.000000
28.171355 -89.895129 0.000000
24.543402 -91.362750 0.000000
-183.723228 -78.378905 0.000000
17.774334 -88.888947 0.000000
30.331130 -97.225661 0.000000
37.158520 -97.617422 0.000000
27.084105 -98.486494 0.000000
23.316556 -96.331782 0.000000
-68.068118 -43.310204 0.000000
-61.986750 -43.247408 0.000000
-71.282134 -45.977699 0.000000
56.951192 -51.739590 0.000000
57.478179 -47.856172 0.000000
53.534735 -49.118562 0.000000
55.809454 -44.214327 0.000000
-114.928513 -99.552746 0.000000
66.193964 -49.054232 0.000000
64.478121 -45.214690 0.000000
108.771637 61.009211 0.000000
-71.087331 -165.268468 0.000000
63.834159 -52.537078 0.000000
-60.563607 27.112626 0.000000
-55.768295 24.250570 0.000000
-55.356090 28.829815 0.000000
-54.447504 156.333960 0.000000
15.797510 46.085133 0.000000
95.550255 77.200316 0.000000
-58.602167 -67.524498 0.000000
-57.000848 -63.934331 0.000000
-97.194478 -8.531104 0.000000
82.027114 -167.536370 0.000000
48.970929 -40.560670 0.000000
50.682142 -44.511817 0.000000
53.431197 -40.515234 0.000000
18.793392 -38.961911 0.000000
21.620654 -34.397859 0.000000
24.000678 -38.240796 0.000000
-63.406301 -67.890336 0.000000
-60.904506 -70.956590 0.000000
-114.719786 131.427467 0.000000
-61.412132 -64.439776 0.000000
-62.246792 -74.420513 0.000000
-60.239450 -77.378834 0.000000
-17.316502 -60.008856 0.000000
-14.404906 -62.714056 0.000000
-13.152555 -58.084892 0.000000
-63.630963 -61.203499 0.000000
-59.594213 -61.575284 0.000000
-60.902824 -58.185809 0.000000
-62.868891 -54.699026 0.000000
-59.583667 -51.141787 0.000000
97.701569 26.463592 0.000000
-71.782024 138.446767 0.000000
103.987900 26.547599 0.000000
47.194876 -36.534110 0.000000
43.809474 -40.774487 0.000000
70.675468 35.177514 0.000000
106.429810 -27.920012 0.000000
-115.703766 -25.985384 0.000000
-110.805720 -26.903270 0.000000
-111.580940 -23.705666 0.000000
-112.772786 -30.909656 0.000000
170.139395 -98.090625 0.000000
-109.923415 -20.032029 0.000000
-114.857853 -21.112218 0.000000
-113.370356 -16.767439 0.000000
45.030691 40.988142 0.000000
99.973361 -31.266785 0.000000
-28.480583 -54.466617 0.000000
-137.755076 45.185293 0.000000
-70.257336 11.766832 0.000000
-72.123296 16.504924 0.000000
-81.536454 -46.460184 0.000000
-75.707568 -48.793751 0.000000
-156.391825 -69.676011 0.000000
27.593277 -69.794096 0.000000
23.469700 -68.345537 0.000000
-71.325006 -50.844597 0.000000
50.442459 55.593848 0.000000
52.720365 58.857467 0.000000
-68.112440 164.568975 0.000000
96.541016 39.187274 0.000000
94.199741 36.260065 0.000000
100.640917 39.985115 0.000000
43.543719 -32.756745 0.000000
-170.106010 -46.802654 0.000000
-71.709501 -113.948148 0.000000
-67.790343 -106.127823 0.000000
41.790624 -37.016887 0.000000
92.290665 -181.606012 0.000000
-81.666051 -23.057328 0.000000
-76.460117 -23.128998 0.000000
-79.062112 -18.956948 0.000000
-74.236884 -19.861364 0.000000
27.313642 -74.582754 0.000000
-93.372185 -24.164880 0.000000
-95.180718 -83.684391 0.000000
-101.218356 -80.572081 0.000000
24.101293 -77.277511 0.000000
98.097571 170.163895 0.000000
-94.148106 -29.473170 0.000000
-89.848572 -27.531020 0.000000
-193.214873 25.610561 0.000000
116.768148 87.899851 0.000000
40.543918 -166.684422 0.000000
43.400913 -170.694880 0.000000
-97.806647 -25.803001 0.000000
-75.808666 -16.308524 0.000000
-79.927652 -14.065880 0.000000
-29.905590 -102.278373 0.000000
-10.935102 52.080859 0.000000
-8.792284 48.550416 0.000000
-50.403608 189.761068 0.000000
-67.096985 111.256637 0.000000
-68.019406 117.285195 0.000000
-125.115700 -81.376395 0.000000
-121.054626 -80.595863 0.000000
-14.213421 48.845474 0.000000
-10.823669 45.330825 0.000000
51.266598 -151.378762 0.000000
183.440601 -32.787742 0.000000
186.909000 -35.117795 0.000000
54.066749 -124.368964 0.000000
52.923716 -119.274334 0.000000
49.866520 -122.666665 0.000000
132.111070 -89.932244 0.000000
105.539073 57.889956 0.000000
104.762819 62.089449 0.000000
100.630382 56.062665 0.000000
56.706213 -121.042700 0.000000
48.325917 -118.191043 0.000000
117.132759 -33.843467 0.000000
-151.807019 30.737663 0.000000
-145.412574 29.840735 0.000000
-61.114731 -124.677142 0.000000
-61.190501 -120.339425 0.000000
-160.963190 -90.271129 0.000000
-50.159717 156.464531 0.000000
-52.739597 152.008445 0.000000
-56.115373 -121.563058 0.000000
-124.784837 61.079189 0.000000
-120.758513 61.333663 0.000000
-122.402055 56.910901 0.000000
-164.198329 -78.082222 0.000000
-183.292331 -6.576415 0.000000
-180.195282 -8.492485 0.000000
128.224529 56.331854 0.000000
126.869298 52.576893 0.000000
-66.707483 102.349460 0.000000
13.827403 -184.654581 0.000000
58.088488 121.159744 0.000000
159.447347 -41.377649 0.000000
64.260395 -86.914583 0.000000
66.211064 -90.475894 0.000000
-169.124790 29.371707 0.000000
-172.681366 26.405848 0.000000
-167.811990 24.902711 0.000000
-197.008389 -19.798420 0.000000
-171.313064 22.002474 0.000000
193.841042 5.378441 0.000000
191.738584 9.038279 0.000000
85.574927 -88.699269 0.000000
82.912795 -86.014874 0.000000
87.170241 -84.433728 0.000000
-85.059090 86.166591 0.000000
-89.109459 84.090419 0.000000
192.023790 56.180103 0.000000
-66.815509 -111.124783 0.000000
27.667594 182.586950 0.000000
30.949604 179.600103 0.000000
123.751597 -71.557034 0.000000
123.387856 -75.727586 0.000000
119.738485 -73.492526 0.000000
17.730348 168.798483 0.000000
19.691680 163.997560 0.000000
40.712174 116.045770 0.000000
36.410957 112.976589 0.000000
40.457650 110.805720 0.000000
37.465673 118.095553 0.000000
-2.562883 180.384704 0.000000
0.546499 182.687976 0.000000
-4.279577 184.934437 0.000000
-0.142175 186.827387 0.000000
-190.355341 -26.821212 0.000000
-26.456983 -103.864901 0.000000
-22.591135 -107.485313 0.000000
-21.954559 -103.380700 0.000000
-78.531506 75.725525 0.000000
-137.488636 39.078849 0.000000
107.368202 13.864110 0.000000
111.676707 16.024002 0.000000
56.758068 -116.027293 0.000000
-134.451330 -56.534880 0.000000
-101.017566 -64.214125 0.000000
-96.319719 -65.152650 0.000000
-124.267853 -40.145266 0.000000
-125.052956 -35.806651 0.000000
-127.761050 -37.743217 0.000000
-76.907019 -114.304494 0.000000
31.391343 -132.493190 0.000000
30.217304 -127.794761 0.000000
121.868172 -83.677304 0.000000
60.584752 -124.025071 0.000000
54.489235 -129.234200 0.000000
50.697462 -126.579729 0.000000
27.954193 136.440574 0.000000
23.194085 137.678081 0.000000
24.759329 133.960065 0.000000
26.636773 141.050783 0.000000
79.180251 105.486725 0.000000
83.224405 102.614123 0.000000
-19.314782 -176.874479 0.000000
-21.390289 -172.960360 0.000000
-24.343736 -175.870384 0.000000
-25.177063 -171.144267 0.000000
80.288204 -183.745998 0.000000
-143.775738 -49.398319 0.000000
-148.359569 -46.601771 0.000000
-174.847655 -24.300008 0.000000
-175.018762 -18.901023 0.000000
-170.367705 -25.163453 0.000000
-178.313794 -26.451527 0.000000
31.994335 175.404675 0.000000
26.926983 177.955002 0.000000
27.633776 172.598572 0.000000
108.616150 -39.989221 0.000000
109.710034 -43.207364 0.000000
112.061067 -40.650075 0.000000
104.500620 -43.275334 0.000000
-123.036787 -56.570101 0.000000
133.298308 -36.632675 0.000000
-119.169296 -54.616873 0.000000
110.979444 56.977381 0.000000
191.061153 -12.693264 0.000000
191.763118 -8.557848 0.000000
20.688975 134.397544 0.000000
57.790492 134.421007 0.000000
55.100219 130.923077 0.000000
60.238395 130.025109 0.000000
56.778899 126.728943 0.000000
61.890937 134.688539 0.000000
65.265564 131.298426 0.000000
118.768078 -58.708071 0.000000
117.687751 -54.837221 0.000000
-142.390659 -96.009743 0.000000
-14.803772 -176.002446 0.000000
-16.671322 -172.031853 0.000000
99.037452 -116.785145 0.000000
200.562594 17.183858 0.000000
-72.758361 116.383883 0.000000
-29.039320 187.342296 0.000000
-73.033924 120.281546 0.000000
8.190411 183.077635 0.000000
12.307262 180.812783 0.000000
61.198471 -100.197113 0.000000
65.699350 -104.721584 0.000000
30.262709 -145.655656 0.000000
34.345509 -144.756572 0.000000
30.687034 -141.353629 0.000000
32.404987 -149.298306 0.000000
-133.240049 41.812132 0.000000
-134.171413 37.670704 0.000000
-130.169364 39.444033 0.000000
-130.262999 36.048888 0.000000
-54.125922 131.851293 0.000000
-50.929050 133.663328 0.000000
-50.841971 129.785136 0.000000
-194.091915 -0.728157 0.000000
-192.268796 -5.603728 0.000000
-92.579767 -73.248194 0.000000
-91.750528 -68.488738 0.000000
-96.185442 -74.361775 0.000000
125.800787 -42.966591 0.000000
-69.744680 96.868687 0.000000
-72.547138 93.089984 0.000000
-68.601530 92.073438 0.000000
-200.059337 -15.793666 0.000000
-195.363182 -15.060129 0.000000
-199.115636 -11.003695 0.000000
-76.997369 -91.115245 0.000000
-73.572284 -93.056231 0.000000
-69.059918 -87.155534 0.000000
-71.712329 -83.727091 0.000000
-66.645921 -83.174608 0.000000
70.677255 -106.906882 0.000000
74.216208 -103.850860 0.000000
70.398238 -102.277861 0.000000
189.251471 5.388001 0.000000
191.364458 0.283743 0.000000
187.996615 10.601034 0.000000
-50.013321 -132.823255 0.000000
1.733440 -152.638939 0.000000
200.343727 55.962800 0.000000
4.629863 -147.980093 0.000000
-0.288614 -156.167955 0.000000
-0.207559 -191.363212 0.000000
0.589613 -187.323256 0.000000
-91.585206 76.454607 0.000000
-93.491841 72.472329 0.000000
5.211714 -179.119822 0.000000
9.044817 -177.032712 0.000000
5.172905 -173.818560 0.000000
2.275673 -194.476024 0.000000
6.415675 -192.836803 0.000000
140.873748 39.175022 0.000000
-104.924155 -55.155186 0.000000
-126.480771 52.827225 0.000000
6.136917 -197.506385 0.000000
28.685502 131.421494 0.000000
-181.687913 -28.349497 0.000000
-186.267406 -26.746962 0.000000
-88.290982 -72.720932 0.000000
37.788561 -128.909108 0.000000
35.189209 -131.637015 0.000000
38.410557 -132.777704 0.000000
91.155089 -80.534716 0.000000
-48.915493 137.722402 0.000000
-24.065472 171.223108 0.000000
-21.672741 176.529265 0.000000
38.960599 -137.538179 0.000000
42.502426 -133.897518 0.000000
43.557655 -139.108164 0.000000
-88.533401 -82.290357 0.000000
-92.131411 -77.484629 0.000000
89.443176 -76.084961 0.000000
90.925947 -72.189531 0.000000
-74.711038 125.412320 0.000000
-69.795347 123.021735 0.000000
-98.184848 -141.714897 0.000000
-73.757518 130.342643 0.000000
121.095779 -50.784181 0.000000
-141.717155 98.189008 0.000000
44.204757 118.380159 0.000000
65.218879 106.644944 0.000000
46.714499 121.660056 0.000000
129.569631 64.447573 0.000000
50.654638 120.287033 0.000000
85.594501 -78.513576 0.000000
201.676763 13.353403 0.000000
22.198744 175.430103 0.000000
16.375271 -192.413447 0.000000
20.560855 -194.386556 0.000000
16.137654 -197.283945 0.000000
57.345872 101.039780 0.000000
60.136026 104.941056 0.000000
55.578180 106.360019 0.000000
127.469501 -34.853966 0.000000
60.314587 109.000475 0.000000
13.428453 169.297774 0.000000
15.306674 165.871958 0.000000
-11.418849 -201.471222 0.000000
152.604883 -12.723095 0.000000
154.992017 -8.329181 0.000000
150.955586 -8.998141 0.000000
140.232279 -97.072585 0.000000
-110.157161 -73.303271 0.000000
-105.579423 -75.948596 0.000000
-3.637108 191.050997 0.000000
149.407988 -16.670467 0.000000
38.347480 -149.388658 0.000000
42.395906 -144.602483 0.000000
38.853999 -142.605320 0.000000
151.059050 -22.638324 0.000000
148.278532 -28.530180 0.000000
165.004626 -89.044446 0.000000
43.881943 -148.730697 0.000000
-31.402926 -105.889609 0.000000
-75.091240 -155.732043 0.000000
-124.332065 -70.056166 0.000000
-201.925036 -20.223249 0.000000
-67.011374 125.471421 0.000000
-65.283903 122.057639 0.000000
83.907162 96.436666 0.000000
78.291432 95.624348 0.000000
79.956454 91.677387 0.000000
98.627825 144.684930 0.000000
75.435069 92.283960 0.000000
-122.082695 52.510179 0.000000
-119.424745 49.588584 0.000000
114.079669 52.892522 0.000000
116.123871 57.665510 0.000000
-8.495515 -187.617628 0.000000
-2.890372 -184.511280 0.000000
116.272859 -50.239539 0.000000
-97.058058 101.996593 0.000000
4.267898 185.462971 0.000000
2.569324 190.005434 0.000000
143.489783 -97.988033 0.000000
7.749369 188.168519 0.000000
-148.021147 34.923011 0.000000
15.433886 172.519674 0.000000
17.885308 175.259152 0.000000
14.007651 176.462286 0.000000
111.482859 76.607205 0.000000
162.059579 2.360896 0.000000
159.223822 6.210886 0.000000
157.365343 1.867945 0.000000
24.458900 -193.704480 0.000000
88.551030 91.319407 0.000000
-133.878715 -68.788663 0.000000
-134.613341 -62.765872 0.000000
21.645868 -199.262201 0.000000
141.770226 -27.435960 0.000000
136.520712 -28.563670 0.000000
47.787648 -99.670773 0.000000
137.157019 -24.081651 0.000000
-163.638963 23.927936 0.000000
114.411551 -44.934357 0.000000
36.152421 -79.756894 0.000000
35.766307 -74.781310 0.000000
32.482360 -77.872137 0.000000
176.295123 10.447282 0.000000
180.697327 8.771271 0.000000
179.323021 13.570538 0.000000
177.861874 5.597201 0.000000
-22.216129 143.685918 0.000000
61.936130 -70.520716 0.000000
66.706546 -73.311429 0.000000
31.553589 113.129569 0.000000
34.066682 117.291476 0.000000
-83.780160 -83.282157 0.000000
144.768372 60.272115 0.000000
31.289785 -73.515826 0.000000
64.278906 -66.596930 0.000000
-22.563901 -50.731007 0.000000
-52.060828 78.209785 0.000000
-55.996217 81.700115 0.000000
-56.016345 76.699111 0.000000
-117.220408 74.705405 0.000000
-75.343814 70.818445 0.000000
-155.148469 75.389821 0.000000
-110.379930 35.274625 0.000000
-114.029937 38.996133 0.000000
124.684647 183.920084 0.000000
-75.025013 -117.987491 0.000000
32.921508 -190.678264 0.000000
-183.998310 124.595795 0.000000
-59.585259 80.669801 0.000000
-180.021279 71.425037 0.000000
133.670473 170.089791 0.000000
-170.106306 133.661486 0.000000
-66.996440 -52.839009 0.000000
-70.325562 -55.725451 0.000000
-74.696745 -53.507681 0.000000
64.504735 112.313194 0.000000
-140.397278 29.949366 0.000000
177.912427 -124.328481 0.000000
-183.007353 36.941062 0.000000
-160.281573 -71.044790 0.000000
-121.943690 156.496908 0.000000
-146.335078 -128.866776 0.000000
-129.148035 146.352125 0.000000
62.520493 -135.106544 0.000000
118.701384 -161.904308 0.000000
-161.882942 -118.920064 0.000000
155.171851 121.588119 0.000000
-17.484625 -45.727022 0.000000
120.489259 -154.297334 0.000000
38.475202 -41.061714 0.000000
35.376045 -45.588883 0.000000
40.608635 -45.182829 0.000000
127.591193 -144.642448 0.000000
-131.127248 137.306956 0.000000
185.603437 21.263473 0.000000
-84.612135 110.949465 0.000000
-136.878448 -130.562436 0.000000
132.767355 -138.235629 0.000000
25.307482 194.685244 0.000000
-79.626161 -52.238995 0.000000
-82.551021 -56.181057 0.000000
-77.691573 -56.851335 0.000000
193.238335 -63.929928 0.000000
-180.234941 21.003509 0.000000
15.520808 148.569051 0.000000
-134.208171 -50.691385 0.000000
201.664541 -89.245236 0.000000
122.734954 -113.870233 0.000000
-6.548152 180.749609 0.000000
166.330156 2.560728 0.000000
170.825677 3.872431 0.000000
-200.510011 7.524413 0.000000
-118.070608 45.578783 0.000000
-30.075688 -139.520617 0.000000
60.665050 125.109856 0.000000
-170.322502 -11.917616 0.000000
-171.258518 -8.681334 0.000000
-175.218423 -11.216480 0.000000
-167.381712 -9.571029 0.000000
160.069378 40.380620 0.000000
-160.687775 -75.362387 0.000000
-81.338698 -60.761336 0.000000
-63.629067 65.946072 0.000000
-59.507924 63.967827 0.000000
-59.922116 67.559563 0.000000
-114.167965 -74.762870 0.000000
-116.590948 -78.681522 0.000000
128.060202 -118.961015 0.000000
186.908546 16.059807 0.000000
190.029388 18.978154 0.000000
83.149749 -180.667662 0.000000
26.125037 -198.854834 0.000000
119.283194 128.010525 0.000000
47.338453 -143.179578 0.000000
48.612167 -138.084071 0.000000
-119.162616 -87.499936 0.000000
-68.844046 -177.885210 0.000000
10.690381 -181.335360 0.000000
53.257946 -145.509708 0.000000
-76.148559 90.847354 0.000000
11.089628 195.586100 0.000000
35.064438 -153.549286 0.000000
28.490987 -153.454897 0.000000
-72.389371 88.884869 0.000000
52.738557 134.666000 0.000000
-18.635385 -201.235058 0.000000
129.547640 49.423800 0.000000
-139.247050 -48.082105 0.000000
-62.232800 60.633003 0.000000
-34.760936 -172.073736 0.000000
28.677985 -84.616009 0.000000
31.859518 -87.527677 0.000000
-202.081227 -13.277724 0.000000
70.400500 180.897289 0.000000
35.652460 -84.979863 0.000000
152.952911 52.839586 0.000000
154.167610 57.333184 0.000000
133.219120 66.784756 0.000000
35.226478 178.923815 0.000000
144.833322 -33.576177 0.000000
-19.280738 -155.595492 0.000000
111.747070 -109.620180 0.000000
-152.073913 -39.363031 0.000000
-149.324456 -34.979837 0.000000
2.491332 -0.256699 0.000000
-34.752519 175.548692 0.000000
-9.850409 36.026760 0.000000
-5.221368 37.182005 0.000000
-9.462945 41.140339 0.000000
45.816576 -44.290711 0.000000
-143.695516 -44.206147 0.000000
-138.788177 -44.080915 0.000000
109.402015 106.883999 0.000000
3.778901 -168.541935 0.000000
6.238964 193.387679 0.000000
97.819477 104.978578 0.000000
-80.634304 -80.520250 0.000000
-143.034350 -125.862594 0.000000
7.226125 -201.521393 0.000000
38.841457 -87.772742 0.000000
-77.765823 -121.875507 0.000000
97.727359 -120.894426 0.000000
-4.492164 41.811522 0.000000
90.889702 78.620776 0.000000
14.802182 -156.683772 0.000000
19.869573 -158.082128 0.000000
-96.434228 66.811918 0.000000
60.387265 113.084666 0.000000
57.584808 -173.028038 0.000000
-160.324721 -15.606239 0.000000
-155.255915 -14.572218 0.000000
158.691205 69.060497 0.000000
-162.313975 -10.646273 0.000000
11.801413 190.700428 0.000000
18.096154 -200.694255 0.000000
-19.145908 -9.235467 0.000000
163.351408 118.483790 0.000000
59.980061 -44.613009 0.000000
-171.606807 -54.486354 0.000000
-25.114582 -166.874215 0.000000
-24.824017 164.808967 0.000000
120.078088 -78.495736 0.000000
-24.177983 158.929676 0.000000
-166.215664 -14.378544 0.000000
124.727426 39.198908 0.000000
-83.248378 -75.404818 0.000000
173.040162 -0.652834 0.000000
-184.389153 32.634484 0.000000
-114.882243 48.434760 0.000000
-67.776072 -101.590262 0.000000
-21.576337 181.112667 0.000000
-57.446900 71.377250 0.000000
-60.919831 75.787282 0.000000
190.943758 23.758099 0.000000
-191.383354 -19.091090 0.000000
183.679295 12.165333 0.000000
-181.534028 -92.085966 0.000000
-139.398508 25.176602 0.000000
29.878379 119.492073 0.000000
167.000206 -92.154051 0.000000
-81.123321 -66.013865 0.000000
-84.131281 -70.588311 0.000000
-162.470691 -23.644023 0.000000
-160.470064 -28.453248 0.000000
28.693800 -78.900364 0.000000
32.825681 -82.087096 0.000000
52.287720 -69.204678 0.000000
47.617890 -70.584435 0.000000
-149.211138 -19.605708 0.000000
33.602214 -40.016752 0.000000
37.108848 -36.972833 0.000000
-32.577024 192.283631 0.000000
-64.553061 79.198659 0.000000
-35.722500 117.257162 0.000000
-8.669451 168.366395 0.000000
-45.636433 117.923787 0.000000
-50.734874 119.229810 0.000000
-49.760597 114.101498 0.000000
182.174236 3.655353 0.000000
185.137927 6.699257 0.000000
-25.736990 -148.702619 0.000000
-184.538669 59.438047 0.000000
65.879256 -128.019288 0.000000
-169.591975 -5.176780 0.000000
-173.860388 -5.880929 0.000000
-172.336203 -2.273839 0.000000
-92.428863 68.735615 0.000000
15.698928 24.663515 0.000000
20.955086 23.050866 0.000000
60.467461 -64.958670 0.000000
-31.776514 -181.660802 0.000000
-49.105469 90.406673 0.000000
-48.424793 96.571847 0.000000
22.612924 -173.450673 0.000000
55.856742 -62.051052 0.000000
56.574521 -67.376852 0.000000
-44.183669 93.371102 0.000000
52.834280 -65.291584 0.000000
112.651699 -18.214612 0.000000
109.152483 -15.346730 0.000000
107.541015 -19.578518 0.000000
112.828328 -13.462301 0.000000
53.662600 123.205358 0.000000
-63.509727 55.894357 0.000000
-64.766972 90.899407 0.000000
-63.091349 85.186237 0.000000
-79.720004 70.963569 0.000000
175.186739 2.423738 0.000000
173.425821 6.926701 0.000000
15.128320 161.902582 0.000000
19.044233 158.940629 0.000000
14.247541 156.965348 0.000000
31.915745 -181.519181 0.000000
-60.450341 53.374951 0.000000
-59.630955 56.782533 0.000000
-117.678117 -30.087871 0.000000
-121.450518 -26.687696 0.000000
-55.679043 54.004947 0.000000
168.524562 6.895211 0.000000
60.113814 -54.618953 0.000000
56.502373 -56.445393 0.000000
-43.940957 136.910458 0.000000
-133.321614 139.794511 0.000000
151.283006 -30.297035 0.000000
52.635017 -53.579894 0.000000
-46.739255 133.196730 0.000000
-41.673040 132.575933 0.000000
-63.218848 -99.866460 0.000000
-66.238299 -64.510706 0.000000
-68.903263 -60.997997 0.000000
90.379318 -67.665425 0.000000
-64.750803 107.440784 0.000000
-65.604657 -57.275132 0.000000
-67.969343 -67.794186 0.000000
19.493550 172.080706 0.000000
46.038336 109.871119 0.000000
43.386277 106.568121 0.000000
167.221491 -9.816277 0.000000
-66.428077 -71.880034 0.000000
51.856917 -58.180667 0.000000
-164.743848 3.351569 0.000000
-164.783797 6.924040 0.000000
95.958570 55.072227 0.000000
96.004598 48.977809 0.000000
-117.518373 29.261355 0.000000
-113.196700 30.474028 0.000000
-114.232974 25.368794 0.000000
48.544373 -147.682412 0.000000
-111.553116 66.188243 0.000000
-108.943909 62.093086 0.000000
173.483385 30.664731 0.000000
28.072330 -119.496900 0.000000
30.449829 -116.698439 0.000000
45.676590 -75.017397 0.000000
153.246105 39.708708 0.000000
157.444019 36.089734 0.000000
8.543857 -144.584420 0.000000
26.352205 115.090537 0.000000
27.459641 110.533624 0.000000
22.803161 111.932746 0.000000
29.560733 -137.018444 0.000000
25.009760 -140.300542 0.000000
43.409628 -78.610006 0.000000
48.697201 -77.918285 0.000000
10.350455 -185.606960 0.000000
55.072335 -76.813336 0.000000
60.014032 -74.809106 0.000000
56.064796 -72.234412 0.000000
26.470340 -134.794001 0.000000
-30.015599 -117.485636 0.000000
-31.482342 -113.593420 0.000000
-26.366968 -115.126967 0.000000
60.035991 -79.593932 0.000000
52.397041 -79.951832 0.000000
-21.154710 187.737355 0.000000
143.752988 127.237328 0.000000
-71.595739 -69.967950 0.000000
-76.004710 -67.743703 0.000000
35.516843 -140.237863 0.000000
120.370558 -69.740252 0.000000
56.288759 -82.079299 0.000000
-72.107793 -64.738443 0.000000
-73.673058 -78.416840 0.000000
-70.818635 -79.980293 0.000000
48.505295 -49.305315 0.000000
-52.976416 -41.512745 0.000000
-73.240960 -58.933630 0.000000
-56.379971 -38.517113 0.000000
-76.825284 -62.048897 0.000000
10.058003 173.219646 0.000000
10.683520 177.135989 0.000000
-104.900468 -18.395022 0.000000
-108.888607 -15.482430 0.000000
-8.710391 184.081575 0.000000
-100.389397 -75.394353 0.000000
-153.267742 11.018179 0.000000
-21.190699 161.611710 0.000000
-20.274884 166.840156 0.000000
-21.112448 -169.138515 0.000000
34.245188 -136.150861 0.000000
-11.619947 118.479277 0.000000
-10.721282 113.852098 0.000000
-126.433203 143.410890 0.000000
-14.735198 114.899283 0.000000
1.620973 -120.696462 0.000000
-4.926653 -42.262321 0.000000
-7.869057 -45.054531 0.000000
-18.885644 134.955022 0.000000
-19.224821 139.887983 0.000000
82.546971 -82.232691 0.000000
-14.789812 138.655642 0.000000
-15.570952 -78.645349 0.000000
42.196191 -114.161673 0.000000
38.087756 -112.021403 0.000000
-152.029974 -44.187207 0.000000
137.379135 132.155981 0.000000
69.617376 6.174549 0.000000
73.858122 8.651666 0.000000
69.525822 10.966601 0.000000
73.372867 13.492812 0.000000
-96.561827 -78.612058 0.000000
54.904458 97.873427 0.000000
-5.102578 107.499625 0.000000
0.293868 107.423308 0.000000
-2.903006 104.047019 0.000000
57.050636 93.125065 0.000000
-148.602839 -121.139682 0.000000
126.129349 42.918324 0.000000
100.181601 8.223979 0.000000
33.611165 -30.643186 0.000000
-50.832115 22.573318 0.000000
-45.912630 21.393753 0.000000
-49.060634 18.127426 0.000000
-148.064283 -42.210901 0.000000
-18.687358 -125.231660 0.000000
-23.303541 -124.452005 0.000000
-21.233702 -121.517964 0.000000
99.838975 3.808252 0.000000
-120.487944 -77.098820 0.000000
-65.297006 -185.750840 0.000000
-160.166937 -20.223089 0.000000
-164.026181 -19.247169 0.000000
90.128345 47.589897 0.000000
85.456289 46.481790 0.000000
88.347436 42.510805 0.000000
44.864878 -117.639289 0.000000
68.695745 -114.017719 0.000000
70.985926 -110.958596 0.000000
92.817869 44.570161 0.000000
114.594067 48.674801 0.000000
92.884789 40.527354 0.000000
-41.208839 -2.620208 0.000000
-41.589047 1.846140 0.000000
112.249543 45.357738 0.000000
-84.753375 -79.639124 0.000000
-118.753605 9.519615 0.000000
-118.994750 14.966630 0.000000
152.994730 48.207841 0.000000
146.141566 -24.079165 0.000000
50.119737 63.404305 0.000000
-108.316827 -58.990408 0.000000
-111.858430 -57.542756 0.000000
-121.644965 148.692472 0.000000
-66.125947 94.928316 0.000000
-62.031853 95.759379 0.000000
118.954456 -46.915981 0.000000
123.953591 -46.486313 0.000000
-114.533547 11.934424 0.000000
45.833869 -14.654651 0.000000
48.658579 -18.535797 0.000000
41.396063 -29.411949 0.000000
42.182670 -26.089270 0.000000
45.540096 -28.401615 0.000000
44.149723 -105.837915 0.000000
42.083385 -109.551548 0.000000
28.755308 61.283374 0.000000
28.802071 66.012645 0.000000
-135.624403 -45.983964 0.000000
24.147700 -177.938155 0.000000
-177.424699 -6.285687 0.000000
-37.027711 133.191638 0.000000
-38.806434 137.573747 0.000000
-33.324922 130.957716 0.000000
33.304031 67.625622 0.000000
37.350800 66.052383 0.000000
68.789643 53.618429 0.000000
73.038672 53.339335 0.000000
48.292397 59.263026 0.000000
-113.615826 -45.660019 0.000000
-116.545973 -42.487969 0.000000
-26.246995 -51.573397 0.000000
-49.216772 4.274087 0.000000
-50.085236 9.643496 0.000000
-46.017627 8.241663 0.000000
-191.462320 -14.486855 0.000000
129.478679 32.020663 0.000000
114.771473 -26.823440 0.000000
30.263198 -48.284765 0.000000
26.408828 -46.128678 0.000000
111.469642 -23.062541 0.000000
-43.788943 -15.714595 0.000000
-43.405633 -20.043409 0.000000
-70.776149 34.551309 0.000000
-75.531695 34.195345 0.000000
27.215400 122.893843 0.000000
26.747802 127.552448 0.000000
-147.393400 0.568040 0.000000
20.437323 -22.990941 0.000000
7.120441 40.127684 0.000000
3.084698 39.190522 0.000000
5.837098 36.051955 0.000000
3.750477 43.926222 0.000000
-24.689631 -19.053574 0.000000
-25.677585 -15.052006 0.000000
-37.572753 121.359940 0.000000
-42.085234 121.113151 0.000000
11.427840 -117.074078 0.000000
16.158598 -112.953085 0.000000
30.224089 -44.077233 0.000000
17.287759 -117.479240 0.000000
-22.137551 -85.892283 0.000000
-26.477745 -90.179145 0.000000
121.445320 14.496564 0.000000
116.196182 13.524060 0.000000
-26.262355 -84.861941 0.000000
120.027036 18.202687 0.000000
-115.885239 -13.786495 0.000000
-45.164105 50.978322 0.000000
-48.803334 46.848921 0.000000
-49.942778 52.921365 0.000000
-119.119862 -22.735307 0.000000
-40.800158 125.538396 0.000000
11.614952 -100.046296 0.000000
9.848488 -96.565221 0.000000
6.578309 -95.572478 0.000000
-128.989151 -69.250337 0.000000
21.900067 -43.567155 0.000000
17.030480 -43.659857 0.000000
60.786937 43.375237 0.000000
57.566605 40.426841 0.000000
58.013929 36.070730 0.000000
141.633172 4.714673 0.000000
30.636657 -57.026553 0.000000
28.824089 -60.883762 0.000000
-30.827143 -82.013136 0.000000
-31.139201 -76.199139 0.000000
-34.191939 -79.595040 0.000000
-14.886476 151.875266 0.000000
-19.963013 149.189394 0.000000
-27.028216 -79.055938 0.000000
-27.377176 -74.136545 0.000000
-30.911000 -87.535364 0.000000
5.925708 159.067885 0.000000
100.889153 -35.011550 0.000000
124.619387 -17.896572 0.000000
-38.232675 24.486969 0.000000
-36.213605 27.381171 0.000000
82.793011 -75.609691 0.000000
-23.711948 -23.581222 0.000000
-18.767094 -25.443308 0.000000
-18.783824 -20.907285 0.000000
-102.556774 -2.875953 0.000000
-98.841866 1.378592 0.000000
-96.647784 -3.081663 0.000000
2.411895 94.044000 0.000000
-1.395401 92.719417 0.000000
-1.897478 96.806835 0.000000
6.840750 91.100983 0.000000
7.081521 96.008705 0.000000
-71.561841 -24.295593 0.000000
-9.678065 140.775569 0.000000
21.944219 160.423534 0.000000
-51.656727 -87.388280 0.000000
-61.571012 -84.944233 0.000000
-62.363779 -80.819289 0.000000
11.091200 -59.666454 0.000000
6.098863 -61.114157 0.000000
10.913850 -62.940941 0.000000
13.518845 -56.900603 0.000000
8.502102 -56.314525 0.000000
13.205363 -52.634602 0.000000
27.844778 155.366451 0.000000
4.154543 -56.286965 0.000000
-19.128282 -105.078940 0.000000
-47.074800 -37.017580 0.000000
72.310115 131.255068 0.000000
-51.647926 -37.435636 0.000000
-49.050286 -41.321853 0.000000
-78.273447 66.411372 0.000000
-81.910627 62.189618 0.000000
-75.763007 60.978428 0.000000
81.510358 -23.889921 0.000000
82.419505 -28.497168 0.000000
78.553816 -27.378143 0.000000
77.600952 11.271788 0.000000
-98.728440 -54.243918 0.000000
0.109650 131.673048 0.000000
-0.914265 136.696789 0.000000
-4.646436 134.430637 0.000000
3.842656 136.027012 0.000000
-58.024563 13.432056 0.000000
-61.606844 10.413990 0.000000
-62.597434 13.598448 0.000000
-127.490676 -17.785203 0.000000
-132.068682 -16.580847 0.000000
93.306966 -35.453679 0.000000
-24.808678 63.312805 0.000000
-30.511150 -33.407414 0.000000
-28.771237 -39.164309 0.000000
-1.950134 2.120144 0.000000
-9.264475 126.621604 0.000000
-10.745395 130.005889 0.000000
-6.675070 129.852651 0.000000
-69.965993 -20.233633 0.000000
-66.252466 -18.106355 0.000000
-70.811359 -16.034092 0.000000
51.205167 -22.564736 0.000000
76.300503 -6.290279 0.000000
-36.123929 -69.905485 0.000000
-39.231893 -67.579407 0.000000
-34.569806 -65.211103 0.000000
0.031076 73.807629 0.000000
-2.173349 70.557654 0.000000
14.046754 -75.634089 0.000000
-50.481696 30.132732 0.000000
-52.136222 26.292513 0.000000
67.192653 -16.951827 0.000000
88.118122 -10.870895 0.000000
83.963799 -11.649347 0.000000
133.352280 -7.133843 0.000000
141.378041 -0.730514 0.000000
-30.058777 -49.897379 0.000000
-25.953072 -47.587470 0.000000
-29.359469 -44.898021 0.000000
-123.215396 19.434550 0.000000
-121.868727 26.279885 0.000000
4.407209 -142.475283 0.000000
-33.631438 -47.242504 0.000000
-33.335606 -42.027469 0.000000
118.476251 -18.791880 0.000000
118.255750 -24.393967 0.000000
-49.801593 34.324784 0.000000
-53.830416 33.099112 0.000000
58.715273 -27.387422 0.000000
-121.799940 -36.263591 0.000000
-13.215536 93.429752 0.000000
-9.362807 94.889938 0.000000
-0.937787 100.707974 0.000000
87.148201 -54.223010 0.000000
90.043381 -50.198960 0.000000
84.940380 -50.126002 0.000000
-115.188379 17.050018 0.000000
-117.752377 21.949397 0.000000
-41.531963 7.437503 0.000000
-38.082623 4.234955 0.000000
-35.738457 9.445734 0.000000
-33.769594 3.995620 0.000000
-4.834367 78.543187 0.000000
-3.561178 74.904305 0.000000
-7.787794 75.836075 0.000000
96.476896 -4.786271 0.000000
96.583363 0.172510 0.000000
-16.730109 -120.010516 0.000000
162.155973 -11.230918 0.000000
163.501481 -6.255645 0.000000
5.395565 130.912750 0.000000
-6.615228 -78.616940 0.000000
-97.808046 -39.267874 0.000000
12.343965 107.832846 0.000000
46.087114 15.300261 0.000000
20.210869 109.166859 0.000000
17.518544 113.336047 0.000000
-33.574416 23.291512 0.000000
-105.659795 38.092254 0.000000
-57.315090 -27.290414 0.000000
-60.985297 -30.673597 0.000000
-84.878504 24.543065 0.000000
-78.892665 24.243251 0.000000
21.275924 77.771167 0.000000
-57.016594 -30.748633 0.000000
-67.939744 46.872997 0.000000
-67.400601 41.975223 0.000000
-63.009312 45.861431 0.000000
-99.947874 22.476609 0.000000
-96.840419 25.242082 0.000000
-101.239278 27.307530 0.000000
-95.850043 20.996620 0.000000
104.459722 -23.416174 0.000000
-139.094279 9.838941 0.000000
-84.517945 -41.709221 0.000000
1.177792 -60.089191 0.000000
-1.303126 -69.981196 0.000000
-18.270694 129.375512 0.000000
-14.479275 132.496425 0.000000
-5.492625 93.701681 0.000000
110.380525 32.465498 0.000000
115.319251 31.640446 0.000000
-39.229458 -61.265438 0.000000
-34.538379 -59.082974 0.000000
-38.233383 -55.357458 0.000000
-33.745705 -53.213320 0.000000
-33.432335 -37.472988 0.000000
-35.790018 -33.500574 0.000000
4.979378 -128.814721 0.000000
1.828004 -131.881056 0.000000
-8.425317 -137.390390 0.000000
46.691021 11.106974 0.000000
21.748430 115.616450 0.000000
16.697103 -124.283393 0.000000
14.727526 -120.133292 0.000000
2.763644 58.233011 0.000000
5.826200 53.411235 0.000000
8.616297 57.001736 0.000000
33.743940 7.546672 0.000000
1.269585 54.102531 0.000000
-62.264112 41.489209 0.000000
-24.806335 97.429954 0.000000
66.283033 42.242082 0.000000
70.531440 39.439966 0.000000
67.056392 37.845046 0.000000
19.572333 -110.647875 0.000000
20.668686 -114.346241 0.000000
20.761136 -107.172472 0.000000
69.623912 67.141325 0.000000
25.308287 -116.322923 0.000000
84.204979 -0.795496 0.000000
-45.449654 128.442211 0.000000
-10.909872 -177.969417 0.000000
139.893503 -15.530649 0.000000
-22.893024 -80.588799 0.000000
-23.489061 -75.827756 0.000000
-18.657270 -81.756102 0.000000
-36.067843 -94.835089 0.000000
-37.744508 -100.167694 0.000000
18.193784 -69.688165 0.000000
114.039512 -59.074621 0.000000
116.699936 -62.343890 0.000000
-173.122979 1.590767 0.000000
88.769260 37.959699 0.000000
118.121008 200.414326 0.000000
-123.652182 49.309270 0.000000
91.272604 32.417598 0.000000
-85.911611 -33.780244 0.000000
43.855721 -98.071703 0.000000
-176.968931 3.142309 0.000000
87.528028 87.514390 0.000000
84.191044 89.862332 0.000000
-141.167928 -8.026217 0.000000
14.766647 -48.062882 0.000000
12.870263 -44.436468 0.000000
-14.230164 34.247410 0.000000
-65.351499 98.478594 0.000000
53.908958 73.679803 0.000000
72.051795 23.430128 0.000000
72.696658 18.704079 0.000000
47.164902 -109.354996 0.000000
76.710706 15.959832 0.000000
-42.013741 60.090376 0.000000
-38.349315 60.405658 0.000000
-29.985115 97.951274 0.000000
-33.965468 100.212233 0.000000
-119.485752 -39.355928 0.000000
-27.518300 93.664874 0.000000
-39.095140 -30.091312 0.000000
69.212490 15.850644 0.000000
34.111160 -110.323611 0.000000
-1.307148 151.280213 0.000000
36.741309 -107.104786 0.000000
-34.251724 126.105608 0.000000
-38.114780 129.573189 0.000000
20.481492 73.423350 0.000000
22.585372 70.067739 0.000000
-77.786566 18.145995 0.000000
-74.060529 21.036835 0.000000
-25.424189 -137.366485 0.000000
-21.386554 -117.339555 0.000000
54.056886 33.318088 0.000000
-151.829013 -16.756688 0.000000
34.003592 -65.398725 0.000000
31.421270 -69.091881 0.000000
30.403473 -65.169529 0.000000
-189.668546 -23.635977 0.000000
-98.566236 -29.894995 0.000000
-102.155431 -27.493667 0.000000
-73.059098 65.966999 0.000000
91.101849 52.284961 0.000000
-50.905732 -44.496359 0.000000
2.118026 49.331142 0.000000
-108.217124 -63.839820 0.000000
-104.514977 -60.939097 0.000000
62.053237 -95.584576 0.000000
-112.295998 -66.303661 0.000000
12.807167 114.122931 0.000000
16.603878 40.560682 0.000000
-85.040358 81.667625 0.000000
-82.794590 77.551329 0.000000
50.165086 124.487868 0.000000
-115.491331 69.252721 0.000000
-9.814698 -94.937171 0.000000
19.284837 65.852868 0.000000
14.563993 67.115653 0.000000
-23.146340 -180.098042 0.000000
-52.490595 86.853599 0.000000
38.716658 -50.616909 0.000000
-52.329779 82.907576 0.000000
122.325618 201.881389 0.000000
-200.379260 118.062287 0.000000
-201.873413 122.306580 0.000000
-87.587741 -77.474698 0.000000
-104.829351 30.286378 0.000000
-4.487714 -53.355080 0.000000
-0.856781 -55.789304 0.000000
-6.007330 -49.535671 0.000000
24.566729 66.521491 0.000000
-70.872463 113.448038 0.000000
26.919403 57.201739 0.000000
22.712340 56.392368 0.000000
24.645132 52.141377 0.000000
19.182914 53.891342 0.000000
67.099947 -33.541902 0.000000
71.092321 -30.838801 0.000000
62.826760 -33.018624 0.000000
64.013450 47.399078 0.000000
59.110672 47.260020 0.000000
-97.017817 10.618187 0.000000
-102.434822 11.121329 0.000000
65.439909 -93.815419 0.000000
-129.697933 6.000581 0.000000
-134.977586 6.190090 0.000000
29.855086 47.902473 0.000000
-71.087579 -11.716296 0.000000
-42.712151 -25.756149 0.000000
-124.126584 -178.116364 0.000000
-161.907889 132.894948 0.000000
132.924065 161.903316 0.000000
18.520815 138.223323 0.000000
-26.693522 48.131208 0.000000
10.562613 160.875565 0.000000
103.722960 -54.566338 0.000000
90.686478 -24.816509 0.000000
93.492937 -20.993389 0.000000
0.538692 -74.451257 0.000000
-93.183353 -48.041115 0.000000
-26.170250 -120.531688 0.000000
-55.286462 18.985138 0.000000
-150.630167 -11.204163 0.000000
150.456788 44.497871 0.000000
65.880310 76.375448 0.000000
3.489528 4.967902 0.000000
-4.422600 140.097028 0.000000
17.782872 -55.559391 0.000000
18.221937 -50.994230 0.000000
11.279993 -160.683023 0.000000
97.686826 -19.270224 0.000000
94.129617 -17.112497 0.000000
-9.851490 134.767935 0.000000
-32.622720 27.626275 0.000000
-22.055588 4.505666 0.000000
-18.132172 157.528297 0.000000
15.329091 183.705814 0.000000
6.583073 115.589608 0.000000
2.118891 119.165496 0.000000
-65.626322 -30.263633 0.000000
75.956043 -65.452546 0.000000
46.075683 -113.707981 0.000000
138.146216 1.903027 0.000000
-11.863733 156.531798 0.000000
72.869605 -60.790844 0.000000
35.307120 38.302941 0.000000
60.846586 13.974653 0.000000
22.317770 -48.775384 0.000000
-54.025783 -15.043320 0.000000
-56.490113 -18.352841 0.000000
-16.748923 125.461148 0.000000
-20.290838 124.031940 0.000000
-52.686649 101.717930 0.000000
-59.170981 49.582953 0.000000
-58.459389 45.125954 0.000000
-64.389816 50.797311 0.000000
-2.182346 -109.772050 0.000000
-5.609419 -107.440245 0.000000
74.144322 -14.534654 0.000000
77.484659 -17.117598 0.000000
77.637976 -13.331590 0.000000
133.246358 10.365811 0.000000
-178.700231 -16.053566 0.000000
81.254184 -14.409205 0.000000
76.997386 -22.303672 0.000000
72.205125 -18.440674 0.000000
132.694624 30.155493 0.000000
79.890595 -49.705552 0.000000
48.139912 -55.089337 0.000000
-45.838345 101.421896 0.000000
-39.240914 100.873605 0.000000
-47.013613 -51.503155 0.000000
63.935082 -76.436132 0.000000
-13.363706 -43.753085 0.000000
-42.852838 -71.117186 0.000000
160.981390 -2.217445 0.000000
-43.330177 -65.851319 0.000000
69.766620 2.630289 0.000000
20.964519 28.436911 0.000000
74.437132 38.773876 0.000000
-9.593407 -54.582750 0.000000
6.549356 61.566794 0.000000
-1.087197 -105.794358 0.000000
9.123653 -41.803445 0.000000
8.154858 -46.551434 0.000000
59.952939 -85.111452 0.000000
-6.407457 45.073283 0.000000
3.421010 -137.347995 0.000000
128.720647 6.330970 0.000000
-0.261511 -10.185900 0.000000
87.042029 50.713854 0.000000
-63.535803 6.125876 0.000000
8.186222 86.184212 0.000000
27.907318 -149.046118 0.000000
25.868492 -145.355463 0.000000
-83.359796 -18.125470 0.000000
-85.084139 -13.792413 0.000000
-90.721284 -14.825560 0.000000
35.939696 0.957888 0.000000
-16.762361 -129.294172 0.000000
-102.048569 33.598817 0.000000
-106.155568 33.726508 0.000000
-94.764889 -59.049990 0.000000
-92.552481 -53.625619 0.000000
-51.980197 37.106223 0.000000
-56.013671 35.983815 0.000000
-55.133954 39.513240 0.000000
-107.357156 -29.420216 0.000000
-106.613949 -24.495427 0.000000
-47.138749 80.037197 0.000000
-52.885477 73.570735 0.000000
-100.229603 40.015526 0.000000
-18.884802 20.056761 0.000000
11.400816 98.387344 0.000000
2.194576 -109.267887 0.000000
-51.049030 -117.556510 0.000000
39.824793 -82.153659 0.000000
-175.309569 -15.696546 0.000000
-17.811461 -64.550863 0.000000
-109.101651 9.492515 0.000000
46.624675 3.866260 0.000000
-16.990878 -55.203181 0.000000
126.572937 -70.160807 0.000000
-87.934708 55.735076 0.000000
-83.994441 57.541732 0.000000
-2.094546 61.802484 0.000000
-55.916066 121.005140 0.000000
23.996735 -1.653807 0.000000
-101.831330 -57.642591 0.000000
-99.529487 -60.207062 0.000000
1.712259 62.396049 0.000000
18.865308 -65.752407 0.000000
23.127771 -62.252007 0.000000
-174.837394 5.817323 0.000000
-23.556854 -99.722272 0.000000
-83.085143 -9.278376 0.000000
-88.776460 -10.225115 0.000000
21.008699 -143.634532 0.000000
98.948723 -38.832412 0.000000
104.593136 -2.359255 0.000000
106.388214 1.243156 0.000000
102.122396 0.644563 0.000000
-23.964215 -7.809682 0.000000
-41.611125 129.069843 0.000000
47.384934 84.504051 0.000000
-60.148601 -89.986099 0.000000
-47.185063 -64.389388 0.000000
51.601375 105.753014 0.000000
-44.662050 55.967999 0.000000
-39.923111 52.815207 0.000000
-42.473955 -48.128434 0.000000
-46.518931 -46.184263 0.000000
102.071609 -11.220145 0.000000
107.389615 -11.790858 0.000000
104.716172 -7.017601 0.000000
104.975664 -15.446383 0.000000
-83.207679 32.875297 0.000000
-9.778856 -29.406390 0.000000
-66.032145 -77.450404 0.000000
50.541978 51.618742 0.000000
8.383071 44.361960 0.000000
-14.674833 43.586910 0.000000
-18.397690 46.690712 0.000000
-1.190007 -78.088334 0.000000
61.811877 20.188350 0.000000
66.316524 24.017427 0.000000
113.483271 -4.853691 0.000000
110.593432 -8.251991 0.000000
-85.899882 -25.207491 0.000000
-43.846854 10.780719 0.000000
-46.510851 13.339018 0.000000
23.864913 130.154536 0.000000
57.197694 -8.318370 0.000000
12.776792 43.587605 0.000000
-45.723060 85.781738 0.000000
-106.141530 50.590975 0.000000
111.959804 9.704080 0.000000
-169.451181 5.152893 0.000000
25.284476 -22.270401 0.000000
-79.375954 9.944726 0.000000
-75.825017 13.041975 0.000000
-87.428051 -54.801546 0.000000
-84.200978 -51.443442 0.000000
21.614398 -57.933684 0.000000
9.846423 157.117928 0.000000
-52.257918 14.164026 0.000000
0.118682 35.042217 0.000000
-21.895550 -112.229104 0.000000
-27.465782 -109.761950 0.000000
-96.962153 -21.409758 0.000000
-99.451656 -17.868196 0.000000
-9.894096 9.939262 0.000000
-101.038855 17.439166 0.000000
-17.203591 -167.548429 0.000000
27.577775 83.105836 0.000000
22.481167 83.393853 0.000000
24.678485 90.716889 0.000000
-18.765240 110.699269 0.000000
-25.108592 110.425462 0.000000
-137.083834 -29.120964 0.000000
67.903445 45.574284 0.000000
-87.579549 60.961079 0.000000
96.732354 43.274783 0.000000
1.159350 -22.525288 0.000000
105.822094 9.268164 0.000000
26.689803 -65.273111 0.000000
-66.259313 37.335827 0.000000
-64.833824 -88.102688 0.000000
-95.026486 7.100689 0.000000
-94.549050 2.538881 0.000000
-2.655610 127.402790 0.000000
-31.904481 -70.874354 0.000000
-68.871741 2.784157 0.000000
46.068224 -9.876354 0.000000
-0.637114 40.353523 0.000000
-52.991713 -29.383555 0.000000
-54.722322 -34.234156 0.000000
-21.765706 -66.201588 0.000000
61.777306 -7.240062 0.000000
60.195741 -11.598233 0.000000
73.995577 -26.480717 0.000000
32.501031 84.371455 0.000000
35.831909 79.097196 0.000000
-93.693178 28.368431 0.000000
-2.790640 -82.356365 0.000000
-119.083983 18.934836 0.000000
13.905721 -90.117848 0.000000
100.703299 -3.805001 0.000000
-4.212732 -124.087012 0.000000
-0.065958 -125.875957 0.000000
32.616315 75.666247 0.000000
43.784448 -52.832031 0.000000
32.389042 -1.211372 0.000000
108.205425 -24.459022 0.000000
-48.822523 -8.900388 0.000000
-6.109030 125.129013 0.000000
69.471810 72.431891 0.000000
-85.338340 29.344050 0.000000
-82.072523 26.856121 0.000000
-44.914083 3.975154 0.000000
-80.160434 30.160277 0.000000
-139.901700 -40.043532 0.000000
69.794102 -26.295197 0.000000
72.293869 -23.095061 0.000000
36.792084 72.081561 0.000000
-106.668564 14.799208 0.000000
-111.095726 14.036279 0.000000
130.511096 18.523199 0.000000
7.144955 127.781698 0.000000
-32.891816 -109.536144 0.000000
-17.374233 -42.215214 0.000000
-98.819866 13.589582 0.000000
40.303077 39.479597 0.000000
43.428983 -48.376542 0.000000
38.240294 -32.729773 0.000000
25.783290 -41.963877 0.000000
-54.043578 43.859943 0.000000
-53.921964 48.771500 0.000000
-23.715425 127.185734 0.000000
-67.062768 -26.573615 0.000000
-40.039724 -34.240458 0.000000
4.367575 86.541089 0.000000
-12.215887 55.974437 0.000000
-106.552251 -1.073188 0.000000
105.735413 30.516238 0.000000
-58.346390 41.190687 0.000000
-57.846282 -85.883907 0.000000
-18.707181 115.867917 0.000000
-22.365763 114.024244 0.000000
-21.583595 49.173895 0.000000
-22.807101 44.934766 0.000000
-16.281615 62.836234 0.000000
51.036858 -74.473657 0.000000
-90.416181 -58.083497 0.000000
-27.710053 -69.596708 0.000000
-30.291376 -65.978039 0.000000
-101.635773 -22.381533 0.000000
-26.011078 -64.957955 0.000000
-38.407913 -49.116218 0.000000
-37.285624 -43.790659 0.000000
-56.282865 60.005407 0.000000
-55.472771 65.695088 0.000000
-34.429157 52.782357 0.000000
-37.714436 48.793523 0.000000
-0.438250 -96.878789 0.000000
2.854043 -94.270691 0.000000
75.921024 -30.377561 0.000000
-75.930768 29.063252 0.000000
115.523414 18.597876 0.000000
-42.946442 97.575637 0.000000
44.452735 -56.400772 0.000000
-65.517084 10.863734 0.000000
-68.722139 7.469367 0.000000
43.413796 36.851413 0.000000
-11.534066 74.155565 0.000000
-11.596030 78.216934 0.000000
4.543629 -48.287417 0.000000
2.573038 -52.728855 0.000000
7.432242 -51.685758 0.000000
-74.250863 -8.220170 0.000000
-75.090661 -12.710582 0.000000
116.867659 -14.518276 0.000000
40.379975 -76.297384 0.000000
-42.572584 78.552717 0.000000
115.169604 -21.799022 0.000000
44.595330 59.842339 0.000000
46.293658 63.463677 0.000000
-48.880029 57.537231 0.000000
11.005977 -49.020003 0.000000
-60.109665 37.446135 0.000000
-85.989445 -29.963128 0.000000
78.775218 7.025214 0.000000
45.582836 54.416519 0.000000
-2.503247 57.331060 0.000000
-78.657848 -9.918533 0.000000
100.792567 -15.836336 0.000000
2.802934 -89.321784 0.000000
6.276197 -91.554178 0.000000
72.080614 -5.889585 0.000000
34.331277 -54.723529 0.000000
-50.310225 41.492640 0.000000
42.987916 -85.917154 0.000000
-18.760788 153.266877 0.000000
-29.960272 124.181249 0.000000
61.115451 -49.595374 0.000000
108.217256 6.604258 0.000000
104.627391 4.807717 0.000000
74.088538 -10.273566 0.000000
-7.318224 137.316316 0.000000
-27.069718 34.006456 0.000000
14.248046 56.051578 0.000000
-3.453055 130.610692 0.000000
-23.631142 84.605862 0.000000
67.852425 19.908234 0.000000
18.981731 58.133535 0.000000
-86.184122 48.270976 0.000000
-83.039536 46.547071 0.000000
-27.015722 -30.553778 0.000000
102.941797 -18.995680 0.000000
-8.381589 81.432807 0.000000
1.245151 -81.530867 0.000000
28.955694 -17.449072 0.000000
8.339449 -120.933413 0.000000
-39.774010 57.036966 0.000000
10.136570 -91.813309 0.000000
-89.430652 26.408590 0.000000
-16.723474 52.896457 0.000000
85.053082 2.474775 0.000000
16.459572 -107.950627 0.000000
-34.461144 -16.034923 0.000000
-105.890716 -12.569531 0.000000
-33.900337 -102.767169 0.000000
43.144139 12.108285 0.000000
-55.779695 -2.923991 0.000000
34.482481 48.375153 0.000000
-92.838868 24.413037 0.000000
-46.340076 43.015309 0.000000
65.025205 17.258775 0.000000
-5.600112 71.424983 0.000000
108.396161 28.136978 0.000000
95.790761 -30.603700 0.000000
-131.345118 -30.128573 0.000000
21.281213 -118.708939 0.000000
-1.063012 44.968651 0.000000
-49.357531 85.197356 0.000000
-4.643302 -95.837227 0.000000
-0.947488 -92.858709 0.000000
16.422341 -61.062043 0.000000
41.094553 126.732331 0.000000
80.450885 13.866579 0.000000
23.520861 61.692114 0.000000
65.468578 13.513276 0.000000
-59.295292 -34.758274 0.000000
-117.977545 25.598338 0.000000
-80.740202 1.507652 0.000000
97.344877 -34.292979 0.000000
19.109495 -47.475460 0.000000
-24.939944 -39.220902 0.000000
-38.567002 -91.487296 0.000000
-31.693984 93.725718 0.000000
101.633976 -46.693083 0.000000
-16.257695 99.950437 0.000000
-95.425662 -50.889594 0.000000
61.877727 -28.817680 0.000000
60.620546 -15.402551 0.000000
-45.177908 -41.284536 0.000000
-83.681710 -63.146576 0.000000
-52.432619 56.981300 0.000000
-70.822782 -0.731537 0.000000
23.529277 107.852959 0.000000
26.678212 44.328518 0.000000
33.983823 -50.376681 0.000000
POLYGONS 16204 64816
3 320 321 322
3 320 323 321
3 324 325 326
3 324 327 325
3 328 329 330
3 328 215 329
3 331 332 333
3 331 334 332
3 335 336 337
3 335 338 336
3 339 340 341
3 339 342 340
3 343 344 345
3 343 346 344
3 347 348 349
3 347 350 348
3 351 352 353
3 351 252 352
3 354 355 356
3 357 358 359
3 354 173 355
3 360 361 362
3 363 364 345
3 365 366 367
3 363 368 364
3 369 370 371
3 372 373 349
3 374 375 376
3 372 377 373
3 357 378 358
3 379 380 381
3 379 382 380
3 383 384 385
3 383 386 384
3 387 388 389
3 388 102 389
3 390 391 392
3 391 181 392
3 393 394 395
3 396 24 397
3 393 398 394
3 399 260 400
3 401 402 403
3 401 404 402
3 405 406 407
3 405 408 406
3 409 410 30
3 410 411 30
3 412 413 414
3 415 416 417
3 418 419 420
3 416 421 417
3 422 423 424
3 425 426 427
3 428 429 430
3 431 432 433
3 428 434 429
3 435 436 437
3 438 439 440
3 435 441 436
3 442 443 444
3 445 446 447
3 448 389 449
3 445 450 446
3 451 392 452
3 453 454 455
3 456 457 458
3 453 459 454
3 456 460 457
3 461 462 463
3 464 465 466
3 464 467 465
3 468 469 470
3 468 471 469
3 462 472 463
3 473 474 475
3 473 476 474
3 477 478 479
3 480 481 482
3 483 484 485
3 486 487 488
3 489 490 491
3 481 492 482
3 493 494 495
3 496 497 498
3 499 500 501
3 496 502 497
3 503 504 505
3 506 507 508
3 509 510 511
3 506 512 507
3 513 514 515
3 514 516 515
3 513 517 518
3 519 412 520
3 517 521 518
3 522 523 524
3 525 526 527
3 528 422 529
3 526 530 527
3 523 531 524
3 532 533 534
3 451 390 392
3 451 535 390
3 243 244 536
3 448 387 389
3 448 537 387
3 532 538 533
3 539 540 541
3 539 542 540
3 543 544 545
3 546 547 548
3 544 549 545
3 164 165 550
3 551 552 553
3 554 555 556
3 552 557 553
3 558 559 560
3 561 562 563
3 345 564 565
3 85 86 566
3 562 567 563
3 349 568 569
3 570 571 572
3 573 545 574
3 575 576 577
3 575 578 576
3 7 8 579
3 580 581 582
3 581 583 582
3 412 414 520
3 414 584 520
3 585 316 317
3 545 549 574
3 586 587 380
3 588 589 590
3 591 592 384
3 589 593 590
3 594 595 596
3 422 424 529
3 424 597 529
3 598 599 600
3 599 601 600
3 602 603 604
3 595 605 596
3 606 607 608
3 609 610 611
3 612 613 614
3 615 616 617
3 618 619 620
3 621 79 80
3 571 622 572
3 619 623 620
3 624 625 626
3 627 139 140
3 628 493 629
3 630 631 632
3 633 499 634
3 635 636 637
3 631 638 632
3 639 640 641
3 363 345 344
3 642 643 644
3 372 349 348
3 642 645 643
3 363 344 646
3 344 647 646
3 372 348 648
3 348 649 648
3 650 651 652
3 615 653 616
3 654 655 656
3 657 637 658
3 659 660 661
3 662 236 237
3 663 664 665
3 591 363 646
3 591 368 363
3 586 372 648
3 586 377 372
3 666 641 667
3 668 669 670
3 671 157 158
3 672 564 364
3 86 673 566
3 86 87 673
3 674 675 676
3 677 678 679
3 680 568 373
3 675 681 676
3 668 682 669
3 683 684 685
3 683 686 684
3 8 687 579
3 8 9 687
3 688 689 690
3 691 692 693
3 694 695 696
3 688 697 689
3 585 698 316
3 698 315 316
3 699 700 701
3 702 703 704
3 536 705 706
3 707 708 709
3 710 711 712
3 703 713 704
3 714 715 716
3 714 717 715
3 550 718 719
3 683 720 721
3 722 723 724
3 725 726 727
3 679 678 728
3 678 729 728
3 730 731 628
3 732 733 734
3 621 735 79
3 735 78 79
3 693 692 736
3 692 737 736
3 738 739 740
3 741 742 743
3 744 745 746
3 742 747 743
3 748 749 750
3 751 752 633
3 749 753 750
3 754 755 756
3 755 757 756
3 758 759 760
3 738 761 739
3 737 745 744
3 737 692 745
3 762 763 764
3 765 766 767
3 768 637 636
3 765 769 766
3 770 771 772
3 662 773 236
3 773 235 236
3 774 739 775
3 658 776 777
3 778 779 780
3 770 781 771
3 782 641 640
3 739 761 775
3 783 784 785
3 671 786 157
3 786 156 157
3 787 788 789
3 667 790 791
3 792 793 794
3 788 795 789
3 87 796 673
3 87 88 796
3 797 798 799
3 800 801 677
3 798 802 799
3 729 759 758
3 729 678 759
3 803 804 805
3 806 807 808
3 9 809 687
3 9 10 809
3 806 810 807
3 811 812 691
3 813 814 815
3 813 816 814
3 817 818 819
3 698 820 315
3 820 314 315
3 821 822 823
3 824 825 705
3 821 826 822
3 817 827 818
3 637 776 658
3 637 768 776
3 828 829 830
3 831 832 833
3 834 835 718
3 831 836 832
3 837 838 839
3 641 790 667
3 641 782 790
3 829 840 830
3 677 801 678
3 801 759 678
3 841 842 843
3 842 844 843
3 845 846 847
3 735 848 78
3 848 77 78
3 691 812 692
3 812 745 692
3 846 849 847
3 746 850 851
3 746 852 850
3 820 698 851
3 824 853 825
3 853 854 825
3 855 364 368
3 834 856 835
3 856 857 835
3 858 859 860
3 760 861 862
3 760 863 861
3 848 735 862
3 745 852 746
3 745 812 852
3 825 854 768
3 854 776 768
3 858 864 859
3 865 866 867
3 773 868 235
3 868 234 235
3 777 869 870
3 777 871 869
3 865 872 866
3 835 857 782
3 857 790 782
3 873 874 875
3 873 876 874
3 786 877 156
3 877 155 156
3 791 878 879
3 791 880 878
3 881 882 883
3 881 884 882
3 837 583 838
3 88 885 796
3 88 89 885
3 886 887 800
3 887 888 800
3 886 796 885
3 759 863 760
3 759 801 863
3 889 890 891
3 889 892 890
3 10 893 809
3 10 11 893
3 894 895 811
3 895 896 811
3 894 809 893
3 820 851 897
3 851 850 897
3 820 898 314
3 899 900 901
3 902 824 903
3 902 853 824
3 900 904 901
3 905 373 377
3 776 871 777
3 776 854 871
3 906 834 907
3 906 856 834
3 908 909 910
3 908 911 909
3 790 880 791
3 790 857 880
3 800 888 801
3 888 863 801
3 848 862 912
3 862 861 912
3 848 913 77
3 506 914 915
3 811 896 812
3 896 852 812
3 850 916 897
3 850 917 916
3 898 820 897
3 902 918 853
3 918 919 853
3 902 903 920
3 906 921 856
3 921 922 856
3 906 907 923
3 861 924 912
3 861 925 924
3 913 848 912
3 852 917 850
3 852 896 917
3 853 919 854
3 919 871 854
3 926 927 928
3 870 869 929
3 868 930 234
3 586 648 587
3 869 931 929
3 869 932 931
3 930 868 929
3 856 922 857
3 922 880 857
3 506 933 914
3 879 878 934
3 877 935 155
3 915 936 937
3 878 938 934
3 878 939 938
3 935 877 934
3 940 886 885
3 940 887 886
3 89 941 885
3 936 942 937
3 940 943 887
3 943 944 887
3 940 885 941
3 863 925 861
3 863 888 925
3 945 894 893
3 945 895 894
3 11 946 893
3 947 948 949
3 945 950 895
3 950 951 895
3 945 893 946
3 898 897 952
3 897 916 952
3 953 954 955
3 591 646 592
3 956 902 920
3 956 918 902
3 948 957 949
3 958 959 960
3 871 932 869
3 871 919 932
3 961 906 923
3 961 921 906
3 953 962 954
3 963 964 965
3 880 939 878
3 880 922 939
3 887 944 888
3 944 925 888
3 913 912 966
3 912 924 966
3 967 968 969
3 963 884 964
3 895 951 896
3 951 917 896
3 916 970 952
3 916 971 970
3 972 898 952
3 956 973 918
3 958 974 959
3 956 920 975
3 961 976 921
3 977 978 979
3 961 923 980
3 924 981 966
3 924 982 981
3 983 913 966
3 917 971 916
3 917 951 971
3 977 984 978
3 985 932 919
3 930 929 986
3 929 931 986
3 987 988 989
3 987 876 988
3 931 990 986
3 931 991 990
3 992 930 986
3 993 994 995
3 996 939 922
3 935 934 997
3 934 938 997
3 998 999 1000
3 998 872 999
3 938 1001 997
3 938 1002 1001
3 1003 935 997
3 1004 940 941
3 1004 943 940
3 1005 509 1006
3 509 1007 1006
3 1004 1008 943
3 1008 1009 943
3 1004 941 1010
3 925 982 924
3 925 944 982
3 1011 945 946
3 1011 950 945
3 1012 503 1013
3 503 1014 1013
3 1011 1015 950
3 1015 1016 950
3 1011 946 1017
3 972 952 1018
3 952 970 1018
3 1019 491 1020
3 1019 1021 491
3 1022 956 975
3 1022 973 956
3 1023 485 1024
3 1023 1025 485
3 932 991 931
3 932 985 991
3 1026 961 980
3 1026 976 961
3 1027 511 1028
3 1027 1029 511
3 939 1002 938
3 939 996 1002
3 943 1009 944
3 1009 982 944
3 983 966 1030
3 966 981 1030
3 1031 505 1032
3 1031 1033 505
3 950 1016 951
3 1016 971 951
3 970 1034 1018
3 1035 1036 1037
3 1038 1039 613
3 1035 864 1036
3 994 1040 995
3 1022 975 1041
3 1042 1043 828
3 1039 1044 613
3 1026 980 1045
3 981 1046 1030
3 1047 1048 1049
3 1050 1051 607
3 1052 1053 841
3 1054 1055 1056
3 1051 1057 607
3 1058 1059 845
3 1060 1061 829
3 986 990 1062
3 1063 1064 1065
3 1064 1066 1065
3 990 1067 1062
3 990 370 1067
3 1068 1069 709
3 630 517 1063
3 1070 1071 696
3 1072 1073 1074
3 997 1001 1075
3 1073 1076 1074
3 1077 1078 1079
3 1001 1080 1075
3 1001 375 1080
3 1078 1081 1079
3 1082 1004 1010
3 1083 654 1084
3 654 1085 1084
3 1086 663 1087
3 663 1088 1087
3 1089 1090 842
3 630 521 517
3 1091 1092 846
3 1093 1094 1095
3 1096 1011 1017
3 1094 1097 1095
3 1098 1099 792
3 1100 1101 1102
3 1103 1104 803
3 1105 1106 603
3 1100 1107 1101
3 1106 1108 603
3 1031 1032 1109
3 1032 1110 1109
3 1027 1028 1111
3 1112 1022 1041
3 1028 1113 1111
3 1114 690 689
3 1115 1116 1102
3 991 370 990
3 1117 1118 858
3 1119 1026 1045
3 1118 1120 858
3 1121 1122 865
3 1122 1123 865
3 1002 375 1001
3 1124 1125 873
3 1008 361 1009
3 1125 1126 873
3 1127 1128 455
3 1129 1130 881
3 1130 1131 881
3 1132 1027 1111
3 1015 366 1016
3 1132 1133 1027
3 1134 1031 1109
3 1134 1135 1031
3 883 1129 881
3 1115 1136 1116
3 875 1124 873
3 1128 1137 455
3 1138 1139 1140
3 1141 1142 1143
3 1144 1145 1146
3 1144 1147 1145
3 1148 1149 1150
3 1148 1151 1149
3 1019 1020 1152
3 1020 1153 1152
3 1023 1024 1154
3 1024 1155 1154
3 1156 1157 1158
3 1157 1033 1158
3 1159 1160 1161
3 1160 1029 1161
3 860 1117 858
3 1141 1162 1142
3 867 1121 865
3 626 1163 1164
3 1165 1166 1143
3 1167 1168 1169
3 1165 1170 1166
3 652 1171 1172
3 1173 1174 1175
3 1174 1176 1175
3 1177 1178 1179
3 1180 1071 1181
3 1177 1182 1178
3 1183 1184 1185
3 1139 1186 1140
3 1187 1069 1188
3 1189 1190 1191
3 1192 1193 1194
3 1195 1072 1074
3 1195 1196 1072
3 1197 1077 1079
3 1197 1198 1077
3 1199 1099 1200
3 1201 1068 1202
3 1199 1203 1099
3 1204 1070 1205
3 1206 1159 1161
3 1206 1207 1159
3 1208 1156 1158
3 1208 1209 1156
3 1210 1104 1211
3 421 1212 417
3 1210 1213 1104
3 1212 1214 417
3 1215 1216 1217
3 1215 1218 1216
3 1189 1219 1190
3 1220 901 1221
3 829 828 1060
3 828 1222 1060
3 1223 1224 1225
3 1223 148 1224
3 1226 1227 1228
3 1226 227 1227
3 1229 1230 1231
3 1230 1232 1231
3 1233 1234 1235
3 1234 1236 1235
3 1237 1188 1238
3 1237 1192 1188
3 1239 1181 1240
3 1239 1183 1181
3 1134 1109 1241
3 1109 1242 1241
3 1243 1096 1244
3 1132 1111 1245
3 1111 1246 1245
3 1247 1019 1152
3 1247 1248 1019
3 1249 1023 1154
3 1249 1250 1023
3 842 841 1089
3 841 1251 1089
3 846 845 1091
3 845 1252 1091
3 1253 1056 1254
3 1056 1163 1254
3 1255 1049 1256
3 1049 1171 1256
3 1220 1257 901
3 1258 1259 1260
3 1261 1262 1263
3 1264 1265 1221
3 1237 1238 1266
3 1267 1082 1268
3 1238 1068 1266
3 1239 1240 1269
3 1240 1070 1269
3 1270 1271 1272
3 1273 1274 1275
3 1274 1276 1275
3 1277 1278 1279
3 1280 712 1281
3 1282 1283 1284
3 1280 1285 712
3 1286 1287 1288
3 1289 1290 1291
3 1292 1293 1294
3 1290 1295 1291
3 1296 1297 1298
3 1299 1300 1301
3 1302 1303 1304
3 1300 1305 1301
3 1306 1307 1308
3 1309 1310 1311
3 1312 1313 1314
3 1315 1101 1316
3 1317 1318 1319
3 1061 1320 1321
3 1061 1322 1320
3 1090 1323 1324
3 381 1248 1325
3 1090 1326 1323
3 1092 1327 1328
3 1092 1329 1327
3 385 1250 1330
3 1315 1331 1101
3 1332 1333 1334
3 1335 1129 1336
3 1332 1337 1333
3 386 1255 1256
3 386 383 1255
3 382 1253 1254
3 382 379 1253
3 1247 1152 1338
3 1152 1207 1338
3 1249 1154 1339
3 1154 1209 1339
3 1340 1124 1341
3 1342 1193 1343
3 1334 1344 1345
3 1346 1184 1347
3 1348 1349 1350
3 1348 1351 1349
3 1352 1353 1354
3 1352 1355 1353
3 1356 1357 1358
3 1357 1359 1358
3 1360 1361 1362
3 1360 1363 1361
3 1364 1365 1366
3 1364 1367 1365
3 1368 1201 1369
3 1368 1370 1201
3 1371 1204 1372
3 1371 1373 1204
3 1374 1375 1376
3 1375 1377 1376
3 1344 1378 1345
3 1379 1380 1381
3 1208 1158 1382
3 1158 1135 1382
3 1206 1161 1383
3 1161 1133 1383
3 1384 1132 1245
3 1384 1383 1132
3 1385 1134 1241
3 1385 1382 1134
3 1386 1117 1387
3 1388 1021 1248
3 1379 1389 1380
3 1390 1025 1250
3 1391 1233 1235
3 1391 1392 1233
3 1393 1229 1231
3 1393 1394 1229
3 1395 1121 1396
3 1271 1397 1272
3 1398 1399 1400
3 1399 1401 1400
3 1402 1403 1404
3 1402 1405 1403
3 1406 1407 1408
3 1409 1410 1411
3 1412 1413 1414
3 1412 1415 1413
3 1409 1416 1410
3 1417 1141 1418
3 1419 1420 1421
3 1420 1422 1421
3 1423 1424 1425
3 1424 1426 1425
3 1427 1237 1266
3 1427 1428 1237
3 1429 1247 1338
3 1429 1430 1247
3 1431 1239 1269
3 1431 1432 1239
3 1433 1249 1339
3 1433 1434 1249
3 1435 1436 1437
3 1435 70 1436
3 1438 1439 1440
3 1438 307 1439
3 1141 1441 1418
3 1442 175 1443
3 1444 1445 1446
3 1447 254 1448
3 1393 1231 1449
3 1231 1450 1449
3 1391 1235 1451
3 1235 1452 1451
3 1385 1241 1453
3 1241 1454 1453
3 1384 1245 1455
3 1245 1456 1455
3 1444 1457 1445
3 1458 1459 1081
3 1460 1461 1462
3 1078 1463 1464
3 1465 1466 1467
3 1468 1469 1076
3 1466 1470 1467
3 1073 1471 1472
3 1473 1423 1425
3 1473 1474 1423
3 1475 1419 1421
3 1475 1476 1419
3 1352 1354 1422
3 1354 1477 1422
3 1348 1350 1426
3 1350 1478 1426
3 1479 1480 1481
3 1480 1482 1481
3 1483 1484 1199
3 1484 1485 1199
3 1486 1487 1210
3 1488 1489 1363
3 1487 1490 1210
3 1491 1492 1048
3 1461 1493 1462
3 1494 1495 1367
3 1496 1497 1498
3 1499 1500 1055
3 1427 1266 1501
3 1266 1370 1501
3 1200 1483 1199
3 1496 1502 1497
3 1429 1338 1503
3 412 1504 1505
3 1211 1486 1210
3 1504 142 1505
3 1431 1269 1506
3 1269 1373 1506
3 1507 1508 1470
3 1507 1509 1508
3 1433 1339 1510
3 418 1511 1512
3 1513 1514 1482
3 1513 1515 1514
3 1402 1404 1516
3 1404 1428 1516
3 1517 1325 1518
3 1325 1430 1518
3 1412 1414 1519
3 1414 1432 1519
3 1520 1330 1521
3 1330 1434 1521
3 1522 1523 1524
3 1523 1500 1524
3 1525 1526 1527
3 1526 1492 1527
3 1079 822 1197
3 1079 1528 822
3 1197 1529 1198
3 1529 1530 1198
3 1074 832 1195
3 1074 1531 832
3 1195 1532 1196
3 1532 1533 1196
3 1534 1535 1536
3 1534 1471 1535
3 1537 1538 1539
3 1537 1463 1538
3 1511 63 1512
3 1523 1477 1164
3 442 1540 1541
3 1526 1478 1172
3 1286 1402 1516
3 1286 1284 1402
3 1296 1517 1518
3 1296 1294 1517
3 1306 1412 1519
3 1306 1304 1412
3 1317 1520 1521
3 1317 1314 1520
3 1540 300 1541
3 422 1542 1543
3 1542 221 1543
3 1544 1545 1546
3 1547 1525 1527
3 1547 1426 1525
3 1548 1522 1524
3 1548 1422 1522
3 1545 1549 1546
3 1364 1366 1283
3 1366 1284 1283
3 1064 1550 1551
3 1064 1552 1550
3 1054 1294 1293
3 674 1553 1554
3 1360 1362 1303
3 1362 1304 1303
3 1555 1556 1557
3 1321 1320 1558
3 1047 1314 1313
3 1559 1458 1560
3 1458 1464 1560
3 1475 1421 1561
3 1421 1562 1561
3 1473 1425 1563
3 1425 1564 1563
3 1565 1468 1566
3 1468 1472 1566
3 1567 1382 1568
3 1382 1569 1568
3 1570 1383 1571
3 1383 1572 1571
3 1573 1473 1563
3 1573 1574 1473
3 1575 1565 1566
3 1575 1576 1565
3 1577 1475 1561
3 1577 1578 1475
3 700 1559 1560
3 700 1579 1559
3 1555 1580 1556
3 1581 1582 1391
3 1583 1384 1455
3 1583 1572 1384
3 1584 1385 1453
3 1584 1569 1385
3 1585 1586 1587
3 1588 1589 1393
3 674 1590 1553
3 1324 1323 1591
3 1554 1592 1593
3 1328 1327 1594
3 1592 1595 1593
3 1596 1597 1598
3 1599 1600 1601
3 1599 1602 1600
3 1537 1539 1603
3 1539 1604 1603
3 1548 1524 1605
3 1524 1606 1605
3 1607 625 624
3 1534 1536 1608
3 1536 1609 1608
3 1547 1527 1610
3 1527 1611 1610
3 1612 1491 1613
3 1612 1611 1491
3 1614 1488 1615
3 1614 1609 1488
3 1616 1494 1617
3 1618 651 650
3 1616 1604 1494
3 1619 1499 1620
3 1619 1606 1499
3 1621 1622 1623
3 1621 1377 1622
3 1624 1625 1626
3 1624 1627 1625
3 1626 1628 1629
3 1628 1359 1629
3 1630 1547 1610
3 1630 1564 1547
3 1631 1534 1608
3 1631 1472 1534
3 1632 1548 1605
3 1632 1562 1548
3 1633 1537 1603
3 1633 1464 1537
3 1223 1225 1634
3 1225 1531 1634
3 1226 1228 1635
3 1228 1528 1635
3 700 1560 1636
3 1560 1637 1636
3 1577 1561 1638
3 1561 1639 1638
3 1573 1563 1640
3 1563 1641 1640
3 1575 1566 1642
3 1566 1643 1642
3 1286 1516 1287
3 1516 1644 1287
3 1645 1311 398
3 1296 1518 1297
3 1518 1646 1297
3 1647 1648 755
3 1306 1519 1307
3 1519 1649 1307
3 1650 1651 1652
3 1317 1521 1318
3 1521 1653 1318
3 1648 757 755
3 1654 1655 1656
3 1657 136 137
3 1558 1320 1658
3 1320 1659 1658
3 1660 1661 1662
3 1654 1663 1655
3 1591 1323 1664
3 1406 1665 1407
3 1666 642 1667
3 642 1668 1667
3 1371 1372 1669
3 1372 1394 1669
3 1368 1369 1670
3 1369 1392 1670
3 1634 1671 1223
3 1671 147 1223
3 1635 1672 1226
3 1672 226 1226
3 1616 1617 1673
3 1617 1674 1673
3 1619 1620 1675
3 1620 1676 1675
3 1614 1615 1677
3 1615 1678 1677
3 1612 1613 1679
3 1613 1680 1679
3 1681 1682 1683
3 1684 1685 1686
3 1687 1688 1689
3 1684 1690 1685
3 1633 1603 1691
3 1603 1692 1691
3 1632 1605 1693
3 1605 1694 1693
3 1631 1608 1695
3 1608 1696 1695
3 1630 1610 1697
3 1610 1698 1697
3 1699 1700 1701
3 1699 582 1700
3 1702 1570 1571
3 1702 1703 1570
3 1704 1567 1568
3 1704 1705 1567
3 1706 1707 1708
3 1709 1710 1711
3 1712 1713 1714
3 465 1715 1716
3 1717 1718 1719
3 1717 1720 1718
3 1713 1721 1714
3 469 1722 1723
3 1724 1725 1726
3 1724 1727 1725
3 1709 1728 1710
3 1729 1730 1731
3 1732 1733 1734
3 1594 1327 1735
3 1736 1737 1738
3 1739 1602 1105
3 1736 1740 1737
3 1741 1742 1743
3 1741 1744 1742
3 1745 1663 1050
3 1746 1747 1743
3 1746 1748 1747
3 1749 1750 1751
3 1752 1753 1038
3 1749 1754 1750
3 1755 1756 1757
3 1704 1568 1758
3 1756 1759 1757
3 725 1760 726
3 1761 1762 1763
3 1702 1571 1764
3 1765 1766 1767
3 1762 1768 1763
3 1769 1770 1771
3 1772 1614 1677
3 1772 1696 1614
3 1773 1612 1679
3 1773 1698 1612
3 1774 1616 1673
3 1774 1692 1616
3 1775 1619 1675
3 1775 1694 1619
3 1776 1573 1640
3 1770 1777 1771
3 1766 1778 1767
3 659 1779 660
3 1780 1577 1638
3 1781 1782 1783
3 1781 1784 1782
3 1785 1786 1783
3 1785 1787 1786
3 1788 1789 1790
3 1791 1792 1793
3 1794 1501 1368
3 1795 1796 1168
3 1797 1798 1799
3 1703 1503 1800
3 1801 1802 1803
3 1802 1804 1803
3 1805 1806 1807
3 1808 1506 1371
3 1801 1116 1809
3 1116 1136 1809
3 1705 1510 1810
3 1724 1726 1811
3 1726 1705 1811
3 1805 1812 1806
3 1813 1814 1815
3 1717 1719 1816
3 1719 1703 1816
3 1814 1817 1815
3 1791 1818 1792
3 1819 1630 1697
3 1819 1641 1630
3 1820 1631 1695
3 1820 1643 1631
3 1821 1632 1693
3 1821 1639 1632
3 1822 1633 1691
3 1822 1637 1633
3 1823 1824 1825
3 1826 1827 1828
3 1827 1829 1828
3 1826 1190 1830
3 1190 1219 1830
3 1831 1832 1833
3 1832 1834 1833
3 1835 1836 1837
3 1822 1691 1838
3 1691 1839 1838
3 1821 1693 1656
3 1693 1654 1656
3 1820 1695 1840
3 1695 1841 1840
3 1819 1697 1601
3 1697 1599 1601
3 1842 1282 1288
3 1842 1674 1282
3 1843 1292 1298
3 1843 1676 1292
3 1844 1302 1308
3 1844 1678 1302
3 1845 1312 1319
3 1845 1680 1312
3 1836 1846 1837
3 1847 467 1848
3 1795 1849 1796
3 1850 1851 1708
3 1852 1853 1854
3 1855 1856 1857
3 1851 710 1708
3 1858 1859 1860
3 1861 1862 1863
3 1864 471 1865
3 1866 1867 1868
3 1869 1870 1871
3 1872 1465 1467
3 1873 1874 1875
3 1872 1876 1465
3 1877 1878 1879
3 1880 1881 1882
3 1880 1883 1881
3 1884 1702 1764
3 1884 1885 1702
3 1886 1704 1758
3 1886 1887 1704
3 1888 1889 1890
3 1888 1891 1889
3 1886 1758 1892
3 1867 1893 1868
3 1888 1890 1894
3 1890 1895 1894
3 1884 1764 1896
3 1897 1898 1899
3 1880 1882 1900
3 1882 1901 1900
3 1902 1479 1481
3 1753 1839 1774
3 1902 1903 1479
3 1869 1904 1870
3 1905 1906 1907
3 1663 1654 1775
3 1908 1909 1910
3 1911 1912 1913
3 1733 1914 1734
3 1730 1841 1772
3 1733 1915 1914
3 1916 1917 1731
3 1908 1918 1909
3 1602 1599 1773
3 1919 1920 1921
3 1922 1923 1924
3 1920 1925 1921
3 467 1847 465
3 1856 1717 1816
3 1856 1855 1717
3 1926 1911 1927
3 471 1864 469
3 1874 1724 1811
3 1874 1873 1724
3 1928 1661 1929
3 1661 1930 1929
3 1931 1932 1933
3 1934 1935 1936
3 1937 1357 1938
3 1357 1939 1938
3 1462 1940 1941
3 1942 1943 1944
3 1462 1493 1940
3 1945 1946 1947
3 1948 1949 1950
3 1636 1951 1952
3 1948 1953 1949
3 1638 1954 1955
3 1956 1957 1958
3 1640 1959 1960
3 1956 1961 1957
3 1642 1962 1963
3 1964 1965 1966
3 1967 467 464
3 1736 1968 1969
3 1970 983 1030
3 1736 1971 1968
3 1972 471 468
3 1970 1973 983
3 1974 972 1018
3 1842 1288 1975
3 1288 1715 1975
3 1843 1298 1976
3 1298 1720 1976
3 1844 1308 1977
3 1308 1722 1977
3 1845 1319 1978
3 1319 1727 1978
3 1979 1375 1980
3 1375 1981 1980
3 1982 1983 1984
3 1983 1985 1984
3 1982 1986 1987
3 1986 1176 1987
3 1988 1989 1990
3 1989 1991 1990
3 1988 1992 1993
3 1992 1994 1993
3 1995 1880 1900
3 1995 1996 1880
3 1997 1884 1896
3 1997 1998 1884
3 1999 1886 1892
3 1999 2000 1886
3 2001 1888 1894
3 2001 2002 1888
3 1974 2003 972
3 2004 900 2005
3 2006 1962 2007
3 2006 1963 1962
3 2008 1959 2009
3 2008 1960 1959
3 2010 1954 2011
3 2010 1955 1954
3 2012 1951 2013
3 2012 1952 1951
3 900 2014 2005
3 1741 2015 2016
3 2017 1979 1980
3 2017 2018 1979
3 1741 2019 2015
3 2020 2021 2022
3 2023 1683 2024
3 2023 1681 1683
3 2025 1842 1975
3 2025 1039 1842
3 2026 1843 1976
3 2026 1051 1843
3 2027 1844 1977
3 2027 1916 1844
3 2028 1845 1978
3 2028 1106 1845
3 1999 1892 2029
3 2030 2031 2032
3 2001 1894 2033
3 2030 2034 2031
3 1997 1896 2035
3 2036 2037 2038
3 1995 1900 2039
3 2036 2040 2037
3 2041 2042 2043
3 2044 2041 2043
3 2041 2045 2042
3 2046 2030 2032
3 2047 1967 2048
3 2047 2049 1967
3 2050 2051 111
3 2051 110 111
3 2052 1972 2053
3 2052 2054 1972
3 2055 2056 2057
3 2055 2058 2056
3 2025 1975 2059
3 1975 1847 2059
3 2026 1976 1860
3 1976 1855 1860
3 2027 1977 2060
3 1977 1864 2060
3 2028 1978 1879
3 1978 1873 1879
3 2061 2062 2024
3 535 1337 390
3 2038 2063 2064
3 537 2065 387
3 2063 2066 2064
3 2067 2068 2069
3 2068 2070 2069
3 2071 1836 2072
3 2073 2074 2075
3 2074 2076 2075
3 2052 2053 2077
3 2053 2078 2077
3 2079 2080 2081
3 2080 2082 2081
3 2047 2048 2083
3 2048 2084 2083
3 2085 1689 2086
3 2085 1687 1689
3 2071 1846 1836
3 1994 2087 2088
3 2089 1995 2039
3 2089 2084 1995
3 2090 1997 2035
3 2090 2082 1997
3 2091 1999 2029
3 2091 2076 1999
3 2092 2001 2033
3 2092 2078 2001
3 2057 2093 2094
3 1994 1595 2087
3 1969 2095 2096
3 2095 1969 2097
3 2095 2098 2096
3 2099 322 2100
3 322 2099 334
3 1917 601 599
3 1917 2101 601
3 2102 1044 2103
3 614 1044 2102
3 613 1044 614
3 2104 2105 2106
3 2104 2107 2105
3 2108 456 2109
3 414 2110 584
3 456 2111 2109
3 420 2112 2113
3 2108 2114 2115
3 444 2116 2117
3 2114 2118 2115
3 424 2119 597
3 2120 1108 1878
3 604 1108 2120
3 603 1108 604
3 1332 2121 1337
3 390 1337 2122
3 2123 2124 2125
3 2089 2039 2126
3 2124 1305 2125
3 2127 2047 2083
3 2127 2128 2047
3 2129 2079 2081
3 2129 2130 2079
3 2131 2052 2077
3 2131 2132 2052
3 2133 2073 2075
3 2133 2134 2073
3 2135 2136 2137
3 2135 2138 2136
3 2139 2140 2141
3 2139 2142 2140
3 1337 2121 2122
3 2143 2144 2145
3 2146 2147 2148
3 2149 2150 2151
3 2152 1729 598
3 2152 2153 1729
3 2154 1739 602
3 2154 1600 1739
3 2155 1745 606
3 2155 1655 1745
3 2156 1752 612
3 2156 2157 1752
3 1923 2158 1924
3 697 535 451
3 2159 2160 2161
3 2162 2163 2164
3 2161 2165 2166
3 2167 537 448
3 2168 1648 2169
3 1648 2170 2169
3 2171 2172 2173
3 2171 549 2172
3 533 2174 2175
3 533 538 2174
3 2176 2177 2178
3 2177 2179 2178
3 2147 540 2148
3 2148 540 2180
3 2012 2013 2181
3 2182 2183 2184
3 2010 2011 2185
3 2182 2186 2183
3 2008 2009 2187
3 2188 2189 2190
3 2006 2007 2191
3 2188 1145 2189
3 2192 2008 2187
3 2192 2193 2008
3 2194 2006 2191
3 2194 2195 2006
3 2196 2010 2185
3 2196 2197 2010
3 2198 2012 2181
3 2198 2199 2012
3 2133 2075 2200
3 2075 2201 2200
3 2131 2077 2202
3 2077 2203 2202
3 2129 2081 2204
3 2081 2205 2204
3 2127 2083 2206
3 2083 2207 2206
3 2103 2025 2059
3 2103 1044 2025
3 2208 458 2209
3 1859 2026 1860
3 1859 1057 2026
3 2210 2211 2212
3 2101 2027 2060
3 2101 1917 2027
3 458 2213 2209
3 1878 2028 1879
3 1878 1108 2028
3 2214 2215 2216
3 2156 612 2217
3 2218 2219 2220
3 2155 606 2221
3 2219 2222 2220
3 2152 598 2223
3 598 600 2223
3 2154 602 2224
3 602 604 2224
3 2225 2226 2227
3 2226 2228 2227
3 530 2229 2230
3 530 2231 2229
3 2232 1968 2233
3 1968 1971 2233
3 2232 2234 2235
3 2234 2236 2235
3 475 2237 473
3 2237 2238 473
3 1446 2239 2240
3 1446 2044 2239
3 1189 1742 2240
3 1189 2241 1742
3 2242 1042 2243
3 2244 2242 2243
3 2245 1042 2242
3 2246 2247 2248
3 1411 2249 2250
3 1411 2046 2249
3 2251 2252 2253
3 441 2254 436
3 1115 1737 2250
3 1115 1331 1737
3 291 292 441
3 292 2254 441
3 2255 2256 2257
3 2258 1052 2259
3 2255 2260 2256
3 520 584 2261
3 2262 2015 2263
3 2015 2019 2263
3 2264 508 2262
3 2265 2258 2259
3 2264 933 508
3 2266 2267 2268
3 2267 2269 2268
3 2270 1052 2258
3 2271 2272 2273
3 2271 2274 2272
3 2275 2276 2273
3 529 597 849
3 2275 2277 2276
3 2278 2279 2280
3 2278 2281 2279
3 2282 2283 2284
3 2285 2127 2206
3 2285 2286 2127
3 2287 2129 2204
3 2287 2288 2129
3 2289 2131 2202
3 2289 2290 2131
3 2291 2133 2200
3 2291 2292 2133
3 2283 2282 2293
3 106 2293 2282
3 2294 2152 2223
3 2295 2296 2297
3 2298 2154 2224
3 2296 2299 2297
3 2300 2155 2221
3 2295 2301 2302
3 2303 2156 2217
3 2301 2304 2302
3 2305 1289 2306
3 2307 2308 2309
3 2308 2310 2309
3 2311 2312 1127
3 1289 2305 1290
3 2313 2314 2315
3 479 2316 2317
3 2313 2318 2314
3 1598 2305 2306
3 2319 2320 2321
3 2319 2322 2320
3 2323 909 2324
3 488 2325 2326
3 2327 1057 1859
3 608 1057 2327
3 2328 2329 2330
3 2328 2331 2329
3 607 1057 608
3 149 2332 1224
3 2333 2334 2335
3 2333 2336 2334
3 1224 2332 2337
3 2332 149 150
3 2338 2339 2340
3 2338 2341 2339
3 228 2342 1227
3 1227 2342 2343
3 2344 2345 2346
3 2291 2200 1037
3 2200 1035 1037
3 2289 2202 1000
3 2202 998 1000
3 2287 2204 989
3 2204 987 989
3 2285 2206 965
3 2206 963 965
3 2344 2347 2345
3 2346 1757 2348
3 1757 1759 2348
3 2349 2245 2192
3 2342 228 229
3 2350 2351 2352
3 2353 750 2148
3 2354 2270 2196
3 2353 2355 750
3 2356 2357 2198
3 2358 2359 2360
3 2358 2361 2359
3 2323 2362 909
3 2363 2364 2365
3 2363 2366 2364
3 2367 2368 2369
3 2368 2370 2369
3 2371 2372 2367
3 2298 2224 2373
3 2371 2374 2372
3 947 2375 2376
3 2377 2378 2379
3 2377 2380 2378
3 482 2381 480
3 2382 2383 2215
3 482 2384 2381
3 2382 1903 2383
3 2385 2350 2352
3 2386 2387 2211
3 2350 2385 2388
3 1103 2389 2390
3 2389 1103 805
3 404 2391 2392
3 404 401 2391
3 2393 927 926
3 2393 1186 927
3 2376 948 947
3 2376 2394 948
3 1103 803 805
3 1848 2049 2395
3 1098 2396 2397
3 2396 1098 794
3 1858 1857 2398
3 1857 2399 2398
3 1858 2400 1859
3 1098 792 794
3 2401 2402 2403
3 1865 2054 2404
3 2403 2405 2401
3 498 2406 496
3 1877 1875 2407
3 1875 2408 2407
3 1877 2409 1878
3 2406 2410 496
3 2411 2412 937
3 2413 189 2414
3 2415 2416 2417
3 2386 1876 2387
3 2418 2285 965
3 2416 2419 2417
3 2420 2287 989
3 2421 2209 2422
3 2209 2213 2422
3 2423 2424 2421
3 2423 2425 2424
3 2426 2427 2428
3 2429 2289 1000
3 2427 557 2428
3 2430 2291 1037
3 2431 2432 1593
3 2432 2433 1593
3 2431 2434 2435
3 2434 2436 2435
3 2437 2178 2438
3 2437 2439 2178
3 2438 2435 2440
3 2435 2436 2440
3 2216 2441 2442
3 2443 2444 2445
3 2446 2296 2447
3 2443 2448 2444
3 2446 2299 2296
3 2449 2450 2451
3 2452 2453 2300
3 2449 2454 2450
3 2455 2456 2303
3 2411 2457 2412
3 2458 2459 1993
3 512 937 2412
3 2445 2460 2461
3 2462 2463 2464
3 2462 2107 2463
3 2460 2465 2461
3 2466 2467 2468
3 2469 1987 2470
3 2468 2471 2472
3 2468 2467 2471
3 2212 2473 2474
3 2475 2476 2477
3 2475 2478 2476
3 2479 1418 2477
3 2479 2480 1418
3 1835 2481 2482
3 2483 2481 1835
3 2484 2485 2036
3 2485 2040 2036
3 2484 1956 2485
3 2486 2456 338
3 1956 2487 2485
3 2488 2453 450
3 2489 2368 2490
3 2491 2492 2493
3 2494 2495 120
3 2162 2496 2163
3 2029 2497 2498
3 2499 2500 2501
3 2499 2502 2500
3 2353 2503 2504
3 2353 2180 2503
3 2505 2506 2504
3 2505 2507 2506
3 2508 2509 2510
3 2509 2511 2510
3 2498 2091 2029
3 2512 2513 2514
3 2515 1379 2516
3 2515 1389 1379
3 1786 2517 2518
3 1786 1787 2517
3 2518 2517 2519
3 2517 2520 2519
3 1909 2521 2522
3 1909 1918 2521
3 2514 2523 2512
3 2522 2521 2524
3 2521 2525 2524
3 2526 2378 2527
3 2378 2380 2527
3 2514 2513 2528
3 2529 298 2530
3 463 2531 461
3 2373 2532 2533
3 2534 2535 1625
3 2531 2536 461
3 1625 2535 2537
3 2111 2538 2539
3 2111 2540 2538
3 2539 2541 2109
3 2541 2542 2109
3 2145 2144 2543
3 2544 2545 2546
3 2544 2547 2545
3 1790 2548 711
3 711 1788 1790
3 2549 2550 2551
3 1291 2552 2553
3 2554 2555 2556
3 1279 2557 690
3 2558 2559 933
3 2558 1668 2559
3 2469 2470 2560
3 2035 2561 2562
3 2563 2564 2565
3 2563 2566 2564
3 968 2567 2568
3 1124 2569 1341
3 2562 2090 2035
3 1129 2570 1336
3 2571 2572 2568
3 2151 2150 2573
3 2574 1624 1629
3 2571 2575 2572
3 2576 2577 2578
3 2576 1107 2577
3 2579 2580 2543
3 2581 2582 2583
3 2581 2584 2582
3 2585 2586 2573
3 2583 357 2587
3 357 2588 2587
3 1897 2589 1898
3 2033 2590 2591
3 2592 2514 2593
3 2594 2595 2596
3 2597 2415 2598
3 2415 2599 2598
3 2475 1166 2597
3 2600 2395 2601
3 2395 2128 2601
3 2475 1441 1166
3 2398 2130 2602
3 2603 2404 2604
3 2404 2132 2604
3 2172 544 2605
3 2407 2134 2606
3 2172 549 544
3 2591 2092 2033
3 2351 32 2352
3 2607 2500 2608
3 2607 2609 2500
3 2610 216 217
3 2611 2612 2613
3 2612 2614 2613
3 2615 2616 2577
3 2577 1100 2615
3 2577 2616 2617
3 2618 58 59
3 334 2619 332
3 2620 2621 2541
3 2621 2542 2541
3 2622 2623 2624
3 2106 2105 2625
3 2626 1622 2627
3 2626 2628 1622
3 2627 1375 1979
3 2619 334 2099
3 2623 2629 2624
3 627 2630 139
3 2630 138 139
3 2631 2632 2633
3 2631 2634 2632
3 2633 2635 2508
3 2635 2636 2508
3 2637 2638 2639
3 2638 2613 2639
3 2640 2641 60
3 2641 59 60
3 2642 2643 2644
3 2643 2645 2644
3 2639 2613 2614
3 2646 217 218
3 2647 1149 2648
3 1149 2649 2648
3 2648 2649 2650
3 2651 296 297
3 2652 2653 2654
3 2639 2655 2656
3 1261 1263 2657
3 2044 2658 2659
3 2046 2660 2661
3 2655 2662 2656
3 2657 2663 1261
3 1334 2664 1344
3 2665 2666 2375
3 339 2667 342
3 828 1043 1222
3 2667 2668 342
3 841 1053 1251
3 2669 2670 2671
3 845 1059 1252
3 2670 2672 2671
3 2673 2674 2675
3 2673 128 2674
3 2676 2677 2678
3 2677 2679 2678
3 2680 2681 2682
3 2681 271 2682
3 2683 2684 2685
3 2684 2686 2685
3 572 2687 2688
3 572 622 2687
3 2688 2687 2689
3 2687 2483 2689
3 1333 2664 1334
3 2690 2691 2692
3 2693 2694 2695
3 1162 2696 2697
3 2693 1621 2694
3 2138 2698 2699
3 2700 2701 2702
3 2703 2704 2705
3 2701 2706 2702
3 2707 2427 2426
3 2692 2708 2690
3 2690 2708 2709
3 2016 2710 2711
3 2684 187 2712
3 2710 2713 2711
3 2710 507 2713
3 2714 457 2715
3 2714 2213 457
3 2716 1869 1871
3 421 2717 1212
3 2716 2718 2719
3 2720 2717 421
3 1707 1850 1708
3 421 2065 2720
3 1707 2721 2722
3 2721 2723 2722
3 2724 2725 973
3 2726 733 967
3 495 2725 2727
3 2726 2728 2729
3 2728 2730 2729
3 2724 2727 2725
3 2731 2732 976
3 2733 2734 2735
3 2734 2736 2735
3 501 2732 2737
3 2738 108 2739
3 2740 562 2741
3 2740 567 562
3 2742 2743 2741
3 2742 2744 2743
3 2745 2738 2668
3 2738 342 2668
3 2746 2747 2748
3 2749 2750 2751
3 2368 2752 2490
3 2747 2753 2748
3 2754 1939 2755
3 2381 2756 2757
3 2381 2384 2756
3 2758 2600 2601
3 341 340 2759
3 2760 2400 2602
3 2731 2737 2732
3 2761 2603 2604
3 1403 2762 1343
3 2763 2409 2606
3 2764 2762 1405
3 1405 2762 1403
3 1413 2765 1347
3 2766 2765 1415
3 1415 2765 1413
3 2767 2768 2769
3 2768 2770 2769
3 1755 2771 2767
3 1755 2772 2771
3 2079 2773 2080
3 2079 1856 2773
3 2399 1856 2079
3 106 107 2293
3 2774 1550 515
3 2619 266 332
3 2774 516 2775
3 185 186 2776
3 2777 2778 676
3 2778 1590 676
3 2777 2779 2780
3 2779 2706 2780
3 2781 2782 2686
3 2782 2685 2686
3 2774 515 516
3 2774 2783 1550
3 2784 2785 2099
3 2785 2786 2099
3 2787 1545 534
3 1545 2788 534
3 2139 2416 2789
3 2139 2419 2416
3 2789 1165 2790
3 1165 2791 2790
3 2792 2793 2794
3 2792 2547 2793
3 2794 2795 2796
3 2797 2798 2719
3 2795 2799 2796
3 2800 2801 2802
3 2801 2803 2802
3 2173 2644 2800
3 2173 2804 2644
3 2073 2805 2074
3 2073 1874 2805
3 2408 1874 2073
3 322 2806 2100
3 2594 779 2595
3 2807 2808 2809
3 2135 2137 2186
3 2810 2693 2811
3 2812 2693 2810
3 2813 2572 2814
3 2572 2575 2814
3 2815 2816 2817
3 2758 2601 2818
3 2601 2286 2818
3 2760 2602 2819
3 2602 2288 2819
3 2761 2604 2820
3 2821 2822 740
3 2763 2606 2823
3 2606 2292 2823
3 2816 2815 2824
3 2825 2545 2792
3 2545 2547 2792
3 543 2826 2827
3 543 2828 2826
3 2829 2824 2815
3 1853 1852 2830
3 2830 1852 2831
3 1862 1861 2832
3 2832 1861 2833
3 2834 2835 2836
3 2835 2834 2837
3 2838 2839 2840
3 2538 2841 2842
3 2538 2540 2841
3 1061 1060 1322
3 1060 1222 1322
3 2843 2619 2786
3 1090 1089 1326
3 1089 1251 1326
3 2619 2099 2786
3 1092 1091 1329
3 1091 1252 1329
3 2844 2845 2846
3 2844 2847 2845
3 1260 1259 2848
3 2849 2779 2850
3 2779 681 2850
3 2733 2702 2849
3 2733 2851 2702
3 2852 2837 2834
3 2853 2854 2335
3 2855 953 2856
3 953 2857 2856
3 2855 2858 2859
3 2860 2861 2862
3 2858 2863 2859
3 2514 2592 2523
3 1852 2864 2658
3 2579 2652 2580
3 2579 2865 2652
3 2585 2866 2586
3 2585 2867 2866
3 541 2472 2868
3 541 2147 2472
3 582 2869 580
3 2869 192 580
3 2870 2871 2868
3 2870 2872 2871
3 2873 331 333
3 2873 320 331
3 2701 2874 2875
3 2701 2876 2874
3 2266 2780 2875
3 2266 2877 2780
3 2592 2878 2523
3 2879 2880 2881
3 2880 2882 2881
3 2853 1490 2854
3 2883 2335 2854
3 2884 2037 2885
3 2037 2040 2885
3 2886 2887 2884
3 2886 2888 2887
3 2822 2889 740
3 2890 2891 2369
3 2892 2893 2894
3 2892 2274 2893
3 2535 2895 2894
3 2896 2897 2898
3 2896 2441 2897
3 2535 2899 2895
3 2900 2901 2902
3 2903 2904 2905
3 2903 2473 2904
3 2900 2906 2901
3 2902 2907 2900
3 2907 2908 2900
3 2909 2544 2910
3 2909 2547 2544
3 2911 2912 2913
3 2911 2913 2914
3 2915 2916 2917
3 2915 2918 2916
3 2919 2920 2921
3 2917 2922 2915
3 1861 2923 2660
3 2922 2924 2915
3 2919 2925 2920
3 2926 2927 2928
3 2927 459 2928
3 2086 2929 2085
3 2926 2930 2546
3 2094 2931 2057
3 2930 2932 2546
3 45 2933 2934
3 45 46 2933
3 2935 2936 2340
3 322 334 320
3 2937 2938 2939
3 2937 2940 2938
3 2941 1950 2942
3 1950 2943 2942
3 4 2944 2945
3 4 44 2944
3 2946 2771 2947
3 1872 1928 2948
3 1872 2949 1928
3 2946 2950 2771
3 892 2951 2952
3 2951 1981 2952
3 2947 2345 2953
3 2345 2347 2953
3 2954 2955 2956
3 2170 1147 1144
3 2954 1869 2955
3 1460 211 2957
3 2024 2062 2023
3 2956 2406 2958
3 1863 2923 1861
3 1863 2959 2923
3 2960 2961 2962
3 2406 2963 2958
3 1854 2864 1852
3 1854 2964 2864
3 2960 2965 2961
3 2956 2958 2954
3 2966 2967 2968
3 2967 2969 2968
3 2958 2970 2954
3 2971 2972 2973
3 2935 1485 2936
3 2974 2340 2936
3 2975 2310 2976
3 2975 2976 2977
3 2978 1278 1277
3 2942 643 2979
3 2942 2943 643
3 2980 1295 1290
3 2981 2982 2983
3 1381 2394 2984
3 2981 2985 2982
3 2986 2987 561
3 2987 2988 561
3 2989 1259 2990
3 2991 2992 2810
3 416 2993 2065
3 2994 2758 2818
3 2891 2995 2369
3 2996 2760 2819
3 2997 2998 2999
3 3000 2761 2820
3 3001 3002 3003
3 3004 2763 2823
3 2998 2366 2999
3 2992 3005 2810
3 2991 3006 3007
3 3006 3008 3007
3 3009 3010 280
3 3010 279 280
3 3011 3012 200
3 3013 3014 3015
3 3013 290 3014
3 438 3016 3017
3 3012 199 200
3 3018 3019 3017
3 3020 3021 3022
3 827 3023 3024
3 3021 3025 3022
3 810 3026 3027
3 3020 3028 3029
3 3030 3031 3032
3 3031 1627 3032
3 3030 3033 3034
3 3028 2650 3029
3 1467 2949 1872
3 1467 1508 2949
3 2948 1876 1872
3 2948 2387 1876
3 1481 3035 1902
3 1481 1514 3035
3 3036 1903 1902
3 3037 3038 3039
3 3037 3040 3038
3 3041 3042 3043
3 2751 3044 3045
3 2751 3046 3044
3 1869 2716 3047
3 2719 3048 3047
3 2719 2798 3048
3 3042 3049 3043
3 574 2171 3041
3 574 549 2171
3 3050 3021 3051
3 3050 3025 3021
3 3051 1919 2845
3 1919 3052 2845
3 387 2065 3053
3 2065 2993 3053
3 3054 1151 1148
3 3055 3056 3057
3 3055 53 3056
3 3052 1921 949
3 1902 3058 3036
3 949 957 3052
3 2041 2867 2045
3 1800 1206 1570
3 1902 3035 3058
3 1570 1206 1383
3 2030 2865 2034
3 3059 3060 3061
3 3059 2736 3060
3 3062 3063 3064
3 3063 3065 3064
3 3066 3067 2494
3 3066 3068 3067
3 2994 2818 3069
3 3070 3071 2188
3 2996 2819 3072
3 3071 1145 2188
3 3004 2823 3073
3 2796 3074 3070
3 3000 2820 3075
3 2796 2799 3074
3 3076 3077 3078
3 3076 3065 3077
3 3078 2272 2892
3 2272 2274 2892
3 3079 3080 3081
3 3079 3082 3080
3 3083 3084 3085
3 3084 3086 3085
3 3087 2279 3088
3 3087 3089 2279
3 3090 3091 3092
3 3093 3094 3095
3 3094 3096 3095
3 3097 3098 3099
3 3100 3101 3102
3 3100 3103 3101
3 2059 1848 2395
3 2600 2059 2395
3 3102 3104 3100
3 3104 3105 3100
3 2739 3106 3107
3 2739 109 3106
3 3108 3109 3110
3 3108 3096 3109
3 3111 3112 3113
3 611 3114 609
3 3114 3115 609
3 1386 1295 3116
3 3117 2859 3118
3 1395 1278 3119
3 3117 962 2859
3 1340 1203 3120
3 3121 2813 3039
3 1335 1213 3122
3 3123 3124 3125
3 2813 3126 3039
3 3127 2598 3128
3 2598 2599 3128
3 3060 2734 3129
3 3060 2736 2734
3 320 2873 323
3 3129 3130 3131
3 3130 3132 3131
3 3130 2850 3133
3 3130 3134 2850
3 2699 1508 1509
3 2697 1515 3135
3 2697 1514 1515
3 3133 675 3136
3 675 2433 3136
3 3137 3138 594
3 3138 3139 594
3 3140 2359 3141
3 3140 3142 2359
3 3143 3144 3145
3 3143 1262 3144
3 3146 3147 3145
3 3146 3148 3147
3 3149 2519 3150
3 3149 3151 2519
3 3152 2524 3153
3 3152 1502 2524
3 3154 3155 3156
3 3154 3157 3155
3 3158 3159 3156
3 3160 2622 3161
3 3160 3162 2622
3 3163 3164 3161
3 3163 1728 3164
3 3165 3166 3167
3 3165 3168 3166
3 3169 3170 3171
3 3172 3173 3174
3 3173 3175 3174
3 3176 3177 3172
3 3176 3178 3177
3 3179 3180 3181
3 3177 3173 3172
3 3177 2297 3173
3 3182 3183 3184
3 3183 3185 3184
3 3182 3186 3187
3 3188 3189 3190
3 3191 2333 3192
3 2333 2883 3192
3 3193 2338 3194
3 2338 2974 3194
3 3195 3196 3197
3 3195 285 3196
3 2093 3198 3199
3 3200 3201 410
3 3200 3202 3201
3 2059 2600 2103
3 1810 1208 1567
3 3203 2678 3204
3 2678 2679 3204
3 3203 3204 3205
3 3206 3207 3208
3 3209 2671 3210
3 2671 2672 3210
3 3209 3210 3211
3 3206 3212 3207
3 3213 3214 3215
3 3213 3216 3214
3 3217 3218 3219
3 3218 3220 3219
3 3217 3221 3222
3 3221 2636 3222
3 2981 3223 3224
3 2981 3225 3223
3 3226 3227 3224
3 3226 2999 3227
3 3228 3229 3230
3 3231 3006 3232
3 3228 3233 3229
3 3231 3008 3006
3 3234 3231 3232
3 3235 3004 3073
3 3234 3236 3231
3 2885 3237 3238
3 3237 3239 3238
3 2673 2675 3240
3 3241 2328 3242
3 2328 1257 3242
3 3243 3244 3245
3 3244 3246 3245
3 3247 3248 2986
3 3249 3250 3120
3 3251 3252 3253
3 3254 3255 3122
3 3256 3257 2889
3 3252 3258 3253
3 3256 2962 3259
3 2962 3260 3259
3 3261 1687 2721
3 3262 3263 3264
3 3263 3265 3264
3 3266 2750 2070
3 3267 3268 3269
3 1854 3270 2964
3 3268 3271 3269
3 3272 3273 3274
3 1863 3275 2959
3 3269 3271 3276
3 3277 3278 3279
3 1467 1470 1508
3 3278 3280 3279
3 1823 3091 2050
3 3281 3282 3116
3 3272 3283 3273
3 1481 1482 1514
3 3284 3285 3286
3 3287 3288 3289
3 1567 1208 1382
3 3285 3290 3286
3 3291 2728 3287
3 3291 2730 2728
3 3292 2874 3293
3 2874 2876 3293
3 3294 3295 3296
3 3295 542 3296
3 3294 3296 3297
3 3298 3299 3300
3 3301 2485 3302
3 3301 2040 2485
3 3303 3304 573
3 3304 2828 573
3 3303 3305 3304
3 3298 3306 3299
3 3307 3131 3308
3 3307 3309 3131
3 3308 3310 3307
3 3310 3311 3307
3 3312 3313 3314
3 3315 3316 3317
3 713 596 3318
3 596 605 3318
3 3315 3319 3316
3 3320 3321 3322
3 816 3323 3324
3 3320 3325 3321
3 685 684 3326
3 1945 3327 1946
3 2060 1865 2404
3 3328 3329 3330
3 3331 3332 3333
3 1310 3334 402
3 2948 1928 1929
3 3328 3335 3336
3 3332 3337 3333
3 3338 3038 3339
3 2024 1683 2061
3 3338 3340 3038
3 3341 3342 3343
3 3018 3016 3344
3 3036 3058 1936
3 3342 2594 3343
3 3345 2501 3346
3 2501 2609 3346
3 3347 3348 3349
3 3350 3351 3352
3 3353 3354 3355
3 3353 3356 3354
3 3355 3357 3358
3 3357 3359 3358
3 3360 3361 3362
3 3360 3363 3361
3 3364 2787 3365
3 3364 1549 2787
3 3366 2930 2886
3 2930 2888 2886
3 3367 3300 3366
3 3368 3369 3370
3 3369 3371 3370
3 3372 3253 3373
3 3374 3375 3376
3 3375 3377 3376
3 3378 3375 3374
3 3378 3379 3375
3 3374 3376 3380
3 3376 198 3380
3 2094 2093 3199
3 3381 3382 3383
3 3384 1937 1938
3 3384 2574 1937
3 3372 3385 3253
3 3386 3387 3388
3 3389 3390 3391
3 3390 3392 3391
3 588 3260 3393
3 3394 3395 3396
3 3394 3397 3395
3 2018 2626 1979
3 3398 3399 3396
3 3400 3401 3402
3 3403 2929 3404
3 3403 3405 2929
3 3406 3407 3404
3 3406 3408 3407
3 2709 2931 2690
3 3346 3409 3410
3 3346 2609 3409
3 3411 3412 3410
3 3413 2062 3414
3 3413 3415 2062
3 3411 3416 3412
3 713 3417 704
3 713 3418 3417
3 704 3037 3419
3 3037 3126 3419
3 2301 3420 3421
3 3422 3423 2448
3 2301 2297 3420
3 3424 3425 3426
3 3424 3306 3425
3 3427 2237 3428
3 3429 3430 3431
3 3427 2238 2237
3 3428 3432 2495
3 3432 119 2495
3 3433 3114 3434
3 3435 3436 3437
3 3433 3115 3114
3 3438 3230 3439
3 3440 3399 3441
3 3442 473 3443
3 3442 476 473
3 3443 3444 618
3 3444 3445 618
3 3401 3446 3402
3 3447 1618 650
3 3448 3449 3440
3 3450 1607 624
3 3448 3451 3449
3 2997 2999 3226
3 3452 3453 3454
3 3455 3290 2997
3 3456 3457 3458
3 2895 3459 3460
3 2895 2899 3459
3 3461 3462 3463
3 3464 3465 3460
3 2023 2797 1681
3 3452 3466 3453
3 2061 3467 3468
3 3469 3470 3471
3 3469 3472 3470
3 3471 3473 3241
3 3474 3475 3476
3 3473 2331 3241
3 2556 3477 3478
3 3479 3480 3481
3 3123 3482 3483
3 3480 3484 3481
3 3485 3486 3218
3 3486 3220 3218
3 3485 3487 3486
3 3487 623 3486
3 3218 3007 3485
3 2857 3488 3489
3 3218 3490 3007
3 928 2882 3489
3 2979 3491 3492
3 3493 744 585
3 3494 737 3493
3 3493 737 744
3 3495 758 621
3 3496 729 3495
3 3495 729 758
3 2979 645 3491
3 3497 3498 3499
3 3496 728 729
3 3497 3500 3498
3 3494 736 737
3 3501 3502 3503
3 3496 3504 3505
3 3501 3506 3502
3 3507 3264 3508
3 3264 3265 3508
3 3494 3509 3510
3 2808 3511 2809
3 679 728 3512
3 3507 3499 3513
3 693 736 3514
3 3515 3516 3517
3 1899 3518 1897
3 824 705 903
3 934 786 879
3 834 718 907
3 3018 3017 3016
3 3519 3520 3521
3 3522 3521 3520
3 934 877 786
3 3523 3524 3525
3 3499 3526 3513
3 3527 3525 3524
3 929 773 870
3 929 868 773
3 3528 3529 3530
3 3531 3532 3533
3 3534 3521 635
3 3535 3536 3537
3 3528 3538 3529
3 3539 2863 3082
3 3540 3541 3542
3 3543 3525 639
3 3032 3033 3030
3 673 677 679
3 679 566 673
3 2666 2665 3544
3 687 691 693
3 693 579 687
3 3521 636 635
3 3545 2969 2967
3 3546 3547 3548
3 3525 640 639
3 3549 2704 2703
3 3547 3550 3548
3 3551 3493 318
3 317 318 3493
3 3552 3495 81
3 80 81 3495
3 2085 2723 1687
3 705 825 706
3 3553 3554 3555
3 3553 3556 3554
3 3557 3558 3406
3 825 768 706
3 706 768 636
3 718 835 719
3 3559 3560 3561
3 3470 3472 3562
3 835 782 719
3 719 782 640
3 2603 2060 2404
3 3559 3563 3560
3 3351 3564 3565
3 3502 3566 3567
3 3502 3506 3566
3 3199 3568 3569
3 3570 3571 3572
3 3570 3573 3571
3 3574 2983 3575
3 3576 3577 3572
3 3578 2743 3579
3 2681 3580 270
3 3519 3521 3534
3 3523 3525 3543
3 2743 2744 3579
3 3576 3581 3577
3 3496 3495 3552
3 3504 3496 3552
3 3582 3583 3584
3 3582 3585 3583
3 3494 3493 3551
3 3509 3494 3551
3 2869 3586 191
3 84 85 3512
3 3586 190 191
3 3587 3588 3589
3 6 7 3514
3 657 658 662
3 657 662 237
3 54 3590 3056
3 666 667 671
3 666 671 158
3 3520 3 241
3 3384 1938 3591
3 240 3 3520
3 3520 3519 240
3 3524 2 162
3 2919 2921 3592
3 161 2 3524
3 3524 3523 161
3 82 1 3504
3 3504 1 83
3 83 3505 3504
3 3540 2925 3541
3 319 0 3509
3 3509 0 5
3 5 3510 3509
3 3493 585 317
3 3495 621 80
3 635 637 657
3 54 55 3590
3 291 441 3014
3 639 641 666
3 3444 3427 3592
3 3551 319 3509
3 318 319 3551
3 3552 82 3504
3 3444 2238 3427
3 81 82 3552
3 3593 243 536
3 706 3593 536
3 3594 164 550
3 719 3594 550
3 3534 239 3519
3 2986 3595 2987
3 3595 3596 2987
3 238 239 3534
3 3543 160 3523
3 3187 3597 3182
3 159 160 3543
3 3597 3598 3182
3 212 3599 2957
3 212 213 3599
3 3600 669 3601
3 3518 3602 1897
3 3600 2427 670
3 2427 3603 670
3 85 566 3512
3 670 669 3600
3 679 3512 566
3 7 579 3514
3 693 3514 579
3 2060 2603 2101
3 3604 3605 3606
3 3604 3607 3605
3 3562 3608 3609
3 3608 3267 3609
3 2700 3610 3611
3 3612 3613 2752
3 2700 2851 3610
3 5 6 3510
3 83 84 3505
3 2372 2374 3614
3 3523 160 161
3 3519 239 240
3 3615 2891 2220
3 3616 3617 3618
3 1965 1964 3619
3 3620 3299 3621
3 3620 3622 3299
3 3623 3624 3625
3 3626 3627 3628
3 3627 3629 3628
3 3630 3631 3632
3 3633 1151 3634
3 3357 3378 3635
3 3357 3379 3378
3 3636 3637 3638
3 3630 3639 3631
3 3640 3641 3642
3 3169 3643 3644
3 3640 3645 3641
3 3321 3646 3647
3 3321 3325 3646
3 3647 3648 3208
3 3648 3649 3208
3 1942 2610 3650
3 3651 3319 3652
3 3653 3654 3655
3 3656 3657 3658
3 3656 2454 3657
3 3659 3660 3620
3 3661 2921 3662
3 3661 3445 2921
3 3660 3622 3620
3 3663 3664 3665
3 2905 2904 3666
3 3281 3116 3667
3 3664 3668 3665
3 3281 3669 1509
3 3670 3119 3671
3 3617 3672 3618
3 3670 3135 1515
3 2580 2652 2654
3 2586 2866 3673
3 3249 3120 3674
3 3515 3273 3516
3 3249 3024 3023
3 3254 3122 3675
3 3676 2371 3677
3 3254 3027 3026
3 3676 2374 2371
3 3678 3679 3680
3 3045 3044 2020
3 3679 3681 3680
3 3682 3683 3678
3 3682 3684 3683
3 3685 3686 3687
3 3688 3689 3690
3 3691 3692 2630
3 3688 3693 3689
3 3685 3694 3686
3 3687 3695 3685
3 3695 3696 3685
3 779 778 762
3 2704 2470 1174
3 3697 3698 3699
3 2704 2560 2470
3 3698 3700 3699
3 3701 3702 3697
3 3701 3703 3702
3 3704 3705 3706
3 3705 3707 3706
3 3708 3709 3710
3 3179 3711 3712
3 3713 3714 3715
3 3714 3716 3715
3 3717 3718 3719
3 3720 3721 3722
3 3723 3724 3725
3 3720 3726 3721
3 3727 3728 3722
3 3727 3729 3728
3 3730 1586 3731
3 3732 3733 3734
3 3735 3665 3730
3 3735 3736 3665
3 2580 3558 3737
3 565 343 345
3 3273 3283 3516
3 2586 3568 2554
3 3738 3739 3740
3 3370 3741 3742
3 3743 3744 3604
3 3745 3746 3747
3 3748 3749 3743
3 3748 3148 3749
3 3750 3341 3751
3 3750 3752 3341
3 569 347 349
3 3751 3753 3754
3 3753 3688 3754
3 2474 3755 3756
3 3757 3758 3759
3 1365 3760 2764
3 3757 3761 3758
3 910 3762 3763
3 2442 3764 3765
3 3766 3767 1913
3 910 2362 3762
3 3768 3769 958
3 2088 3770 1993
3 1361 3771 2766
3 2458 1993 3770
3 2088 1993 1994
3 1342 1343 3772
3 2253 3773 3774
3 3769 974 958
3 3775 3776 3777
3 3775 3778 3776
3 3759 3779 3780
3 3759 3781 3779
3 3782 3783 3780
3 3782 3784 3783
3 3785 3786 3787
3 3786 3466 3787
3 3788 3789 3790
3 3788 3726 3789
3 3791 3792 3453
3 3792 3793 3453
3 3794 3664 3503
3 3664 3795 3503
3 3794 3796 1587
3 3797 3798 3799
3 3798 3220 3799
3 3796 3800 1587
3 2903 2474 2473
3 3426 3801 3802
3 3426 3803 3801
3 3804 3805 3806
3 2762 3772 1343
3 3804 3807 3805
3 2903 2905 3755
3 3806 3808 3804
3 2905 3467 3755
3 3808 3809 3804
3 2896 2442 2441
3 3810 3657 2449
3 1346 1347 3811
3 3810 3812 3657
3 2896 2898 3764
3 2898 3532 3764
3 3774 2334 2253
3 787 3813 3814
3 787 3815 3813
3 3816 3817 3818
3 2765 3811 1347
3 3816 3819 3817
3 3334 403 402
3 3820 3821 3818
3 3334 3822 403
3 3820 3823 3821
3 3824 3825 3826
3 3827 3824 3826
3 3828 3829 3830
3 3829 3831 3830
3 3825 3832 3826
3 3833 3834 3835
3 3836 3833 3835
3 3837 3838 3828
3 3834 3839 3835
3 3837 3451 3838
3 3840 3841 3842
3 3840 3843 3841
3 3844 3845 3846
3 3844 3847 3845
3 3848 3849 3850
3 3848 3851 3849
3 3852 3853 3854
3 3853 3855 3854
3 3852 3829 3362
3 3829 3856 3362
3 3370 3371 3741
3 3857 3541 3858
3 3859 3860 3861
3 3860 3862 3861
3 3541 2925 3858
3 3863 3864 3865
3 3866 3867 3868
3 3869 3870 3871
3 3869 3872 3870
3 886 800 677
3 677 673 886
3 3866 3873 3867
3 3874 3875 3710
3 2860 3876 3877
3 886 673 796
3 894 811 691
3 691 687 894
3 3868 3648 3878
3 3648 3879 3878
3 3880 321 323
3 3808 3881 3882
3 3808 3883 3881
3 3884 3885 3886
3 3885 3887 3886
3 3775 2302 3884
3 894 687 809
3 3775 3888 2302
3 3889 3890 3891
3 3889 3892 3890
3 3699 3893 3894
3 3895 3896 3897
3 3699 3700 3893
3 3898 3899 1914
3 3900 3646 3901
3 1915 440 3898
3 3646 3325 3901
3 3047 2716 2719
3 3902 3903 3904
3 744 746 851
3 3902 3570 3903
3 3905 3906 3907
3 1850 1707 2722
3 3905 3908 3906
3 3909 3910 3911
3 3909 3912 3910
3 851 585 744
3 547 3913 3099
3 3914 3915 3911
3 3914 3916 3915
3 698 585 851
3 758 760 862
3 862 621 758
3 735 621 862
3 3045 2749 2751
3 3732 3917 3733
3 3918 3919 3920
3 3921 3763 3922
3 3763 3923 3922
3 565 362 343
3 3924 3925 3926
3 569 367 347
3 3924 3927 3925
3 3864 3693 3865
3 3928 3929 3930
3 3931 3932 3933
3 3505 84 3512
3 3512 728 3505
3 3931 3934 3932
3 3391 3935 3936
3 3391 3392 3935
3 728 3496 3505
3 3918 3937 3919
3 3395 3397 3938
3 3939 3940 3941
3 3695 3942 3943
3 3510 6 3514
3 3514 736 3510
3 3939 3944 3940
3 3938 3696 3695
3 3945 3946 2388
3 3947 3948 3949
3 736 3494 3510
3 3950 3951 3952
3 3947 3662 3948
3 1097 3953 3092
3 3949 3954 3955
3 3954 3956 3955
3 3675 2334 3774
3 3957 3394 3958
3 3951 3950 3959
3 1657 3960 136
3 3960 135 136
3 3957 3397 3394
3 3958 3449 3961
3 3449 3451 3961
3 3962 403 3963
3 3964 3701 3965
3 3963 3899 3896
3 3952 3951 249
3 3964 3703 3701
3 3966 3967 3965
3 3968 3969 3970
3 3966 3971 3967
3 3972 3973 3974
3 3973 3975 3974
3 3677 3615 3976
3 3677 2995 3615
3 3976 3977 3978
3 3977 3979 3978
3 3980 3981 3982
3 3983 3740 3571
3 3740 3739 3571
3 3983 3984 3985
3 3984 3986 3985
3 3987 3988 3989
3 3988 3990 3989
3 3991 3992 3993
3 3981 3980 3994
3 3982 3981 170
3 3991 3606 3992
3 827 3024 3995
3 3996 1407 3993
3 810 3027 3773
3 3996 3690 1407
3 3929 3997 3930
3 3998 3999 4000
3 4001 4002 4003
3 4002 3747 4003
3 3903 3577 4004
3 3903 3570 3577
3 4005 3903 4004
3 4005 4006 3903
3 4007 4008 4009
3 3999 4010 4000
3 4011 494 493
3 628 4011 493
3 4007 4012 4008
3 4013 4014 4015
3 4016 500 499
3 3731 4017 4009
3 4018 4019 4020
3 4021 3889 4022
3 4021 3892 3889
3 4023 3529 4024
3 3529 3538 4024
3 4025 4026 3886
3 4026 3778 3886
3 2247 3995 2248
3 4027 4028 4029
3 4027 3912 4028
3 4029 4030 4031
3 2252 3773 2253
3 4030 4032 4031
3 4033 4034 4035
3 4033 4036 4034
3 4035 4037 3786
3 4037 3466 3786
3 4038 4039 4040
3 4038 4041 4039
3 4042 4043 4044
3 4042 4045 4043
3 4046 4047 4025
3 4047 4048 4025
3 4046 3614 4049
3 3614 2374 4049
3 4050 4051 4052
3 4050 3831 4051
3 4053 4054 1398
3 4053 4055 4054
3 4056 3900 4057
3 4056 3879 3900
3 633 4016 499
3 4058 4059 4057
3 4058 4060 4059
3 4015 4061 4013
3 3508 3265 4062
3 4013 4063 4014
3 3845 3847 3859
3 657 3534 635
3 4064 4065 4066
3 4064 4067 4065
3 4068 3658 4069
3 657 238 3534
3 4068 4070 3658
3 4069 4071 4072
3 237 238 657
3 666 3543 639
3 4071 4073 4072
3 4074 4075 4076
3 4074 3484 4075
3 4077 2219 3626
3 666 159 3543
3 4019 4078 4020
3 158 159 666
3 4079 3977 4077
3 4079 3979 3977
3 4080 4081 4082
3 665 664 1160
3 4083 1160 664
3 4080 4084 4081
3 4082 3190 4085
3 3190 3189 4085
3 4083 1029 1160
3 4086 3480 4087
3 3480 4088 4087
3 4089 4075 4086
3 656 655 1157
3 4089 4090 4075
3 4091 4092 4093
3 4091 4094 4092
3 4095 4096 4097
3 4095 4084 4096
3 4098 3796 4099
3 3796 4100 4099
3 4101 3859 3847
3 3847 3909 4101
3 4099 3567 4102
3 4099 4100 3567
3 4103 3779 3972
3 3779 3781 3972
3 4104 789 4103
3 4104 3815 789
3 4105 4106 4107
3 4105 3819 4106
3 4108 4109 4110
3 4109 4111 4110
3 4112 1157 655
3 3682 4113 4114
3 4112 1033 1157
3 3682 4115 4113
3 4114 4116 3727
3 2867 1457 4117
3 2867 2041 1457
3 4117 2457 2866
3 2865 1416 4118
3 2865 2030 1416
3 4118 2653 2652
3 4116 3729 3727
3 4119 4120 4121
3 4120 4122 4121
3 4123 4124 4125
3 4123 4126 4124
3 4127 3785 4128
3 4127 4129 3785
3 4130 4027 4131
3 4132 3847 3844
3 4027 4133 4131
3 4134 3910 4130
3 4134 4135 3910
3 1403 1343 1404
3 1408 3576 1406
3 3576 3739 1406
3 4136 2449 2451
3 4137 4138 722
3 4139 4140 4141
3 4139 4142 4140
3 4141 4143 4064
3 4143 4067 4064
3 4144 4145 4146
3 4144 3707 4145
3 4146 4147 4148
3 4147 4149 4148
3 1193 1404 1343
3 4148 4144 4146
3 4148 4150 4144
3 4151 4152 4153
3 1659 1904 2970
3 4154 1983 3880
3 4151 4060 4152
3 4155 4156 4123
3 4156 4126 4123
3 1404 1193 1192
3 4157 4158 4159
3 4160 4161 4162
3 4163 4164 4165
3 4163 4166 4164
3 1413 1347 1414
3 4167 4168 4169
3 4167 4170 4168
3 4171 3846 4093
3 3846 4172 4093
3 4119 4052 4171
3 4119 4173 4052
3 4174 4175 4176
3 1184 1414 1347
3 4175 4177 4176
3 4178 4175 4174
3 1414 1184 1183
3 4157 4179 4158
3 4180 3890 4181
3 3890 3892 4181
3 4182 4038 4183
3 4182 4041 4038
3 4184 4185 4186
3 3847 4132 4187
3 4184 3873 4185
3 4186 4185 4188
3 4185 4189 4188
3 4187 4190 3847
3 4191 3817 4192
3 4193 4194 4195
3 3817 3819 4192
3 4193 3463 4194
3 4196 3936 4191
3 3663 4197 3795
3 4196 4198 3936
3 4199 4200 3663
3 1806 4201 1807
3 1806 4170 4201
3 2094 2690 2931
3 3569 2690 2094
3 4202 4203 388
3 4204 4205 4206
3 4207 4208 4209
3 4203 101 388
3 2094 3199 3569
3 2712 2413 4210
3 4211 4212 391
3 4212 180 391
3 3097 4210 2413
3 2712 188 2413
3 4213 4214 396
3 4214 23 396
3 2248 3995 4215
3 4215 2339 2248
3 4204 3458 4205
3 4216 4217 399
3 4217 259 399
3 4218 4219 4220
3 4218 99 4219
3 4221 3825 4222
3 4220 4223 4224
3 1933 4225 2260
3 4226 4227 4228
3 4226 21 4227
3 4228 4229 4230
3 4229 4231 4230
3 2663 4232 4233
3 2663 2657 4232
3 4234 4235 4236
3 4235 145 4236
3 4237 4238 4239
3 4238 66 4239
3 4240 4241 4242
3 4241 303 4242
3 4243 4244 4245
3 4244 224 4245
3 4246 396 4247
3 396 397 4247
3 4248 399 4249
3 399 400 4249
3 1572 1764 1571
3 4250 4251 4252
3 3825 4253 4222
3 4254 4221 4222
3 1569 1758 1568
3 3813 4255 4256
3 3674 2339 4215
3 4257 3834 4258
3 4259 179 4212
3 2937 4260 1264
3 2940 2937 1264
3 4219 100 4203
3 4200 4197 3663
3 4261 4262 2286
3 4227 22 4214
3 2818 2286 4262
3 4261 4263 4262
3 3834 4264 4258
3 4265 258 4217
3 4266 4257 4258
3 4267 4268 2288
3 1642 4269 1575
3 4269 4270 1575
3 1636 4271 700
3 4271 701 700
3 4272 4273 4274
3 4273 4275 4274
3 4276 4277 1901
3 4277 4278 1901
3 4279 4280 4276
3 4279 4281 4280
3 4282 415 4283
3 415 4284 4283
3 4285 4286 1895
3 4286 4287 1895
3 4288 4289 4285
3 4288 4290 4289
3 271 4291 2682
3 271 272 4291
3 3724 4292 1941
3 4292 208 1941
3 3048 4293 4294
3 565 4295 362
3 4295 4296 362
3 3767 4297 1927
3 4297 50 1927
3 4298 4299 4300
3 4298 3895 4299
3 1711 4301 4302
3 1711 2021 4301
3 569 4303 367
3 4304 838 581
3 838 583 581
3 4305 4306 4307
3 4305 3178 4306
3 1667 4308 4309
3 1667 1668 4308
3 4303 4310 367
3 3481 4074 4045
3 3484 4074 3481
3 3653 4311 3654
3 4312 4313 2319
3 1780 4314 1577
3 4314 4315 1577
3 1776 4316 1573
3 4316 4317 1573
3 4270 4318 1575
3 4318 4319 1575
3 4320 4280 324
3 4280 4321 324
3 4322 4289 2121
3 4289 4323 2121
3 4324 4325 4326
3 4325 4327 4326
3 2663 4328 1261
3 2663 37 4328
3 2819 2288 4268
3 4267 4329 4268
3 4330 4331 4332
3 4333 4332 4331
3 4330 4334 4331
3 4246 4335 4336
3 4337 2064 4338
3 4337 4339 2064
3 181 4340 392
3 181 182 4340
3 102 4341 389
3 102 103 4341
3 4336 4335 4342
3 4343 4344 1328
3 4345 4346 4343
3 4346 4344 4343
3 4347 4348 1376
3 4349 4350 4011
3 4347 4351 4348
3 4011 4352 4349
3 731 4352 4011
3 4225 4353 2260
3 4354 4355 4356
3 4357 4271 4358
3 4271 1952 4358
3 4359 4360 4361
3 4360 4362 4361
3 4313 4363 2319
3 4359 4364 4365
3 4364 1955 4365
3 4366 4367 4016
3 4368 4369 4370
3 4369 4371 4370
3 4016 4372 4366
3 4368 4373 4374
3 4373 1960 4374
3 480 2912 481
3 480 4375 2912
3 4376 4269 4377
3 4269 1963 4377
3 4378 4375 480
3 4379 3112 3111
3 1896 4380 2035
3 1896 4275 4380
3 1892 4381 2029
3 3403 4382 3405
3 1892 4284 4381
3 1894 4383 2033
3 1894 4287 4383
3 3876 3112 4379
3 4384 521 632
3 4384 4382 521
3 4382 3403 521
3 1800 1207 1206
3 1338 1207 1800
3 4385 3046 4386
3 1338 1800 1503
3 752 4372 4016
3 1504 141 142
3 1810 1209 1208
3 3413 4387 3415
3 1511 62 63
3 1339 1209 1810
3 1540 299 300
3 1339 1810 1510
3 1542 220 221
3 2319 4363 2322
3 4388 2904 4389
3 4388 4390 2904
3 4391 4392 4393
3 4355 4394 4356
3 4392 1935 4393
3 2495 4395 3428
3 4396 1112 3959
3 2931 4397 2057
3 4398 2897 4391
3 4397 4386 2057
3 2424 4399 4400
3 2424 2425 4399
3 1427 1501 1716
3 4400 4401 4402
3 4401 4403 4402
3 4399 4404 4400
3 1644 1427 1716
3 4399 4405 4404
3 1841 2153 1840
3 1841 1730 2153
3 1839 2157 1838
3 1427 1644 1428
3 1839 1753 2157
3 4406 743 4407
3 1112 1041 3959
3 2494 4408 2495
3 4409 555 554
3 4410 4411 558
3 4411 559 558
3 4412 1119 3994
3 1119 1045 3994
3 4413 2776 4414
3 2776 4413 185
3 443 4415 4416
3 830 2113 4417
3 4418 4415 443
3 419 4419 4420
3 4421 4419 419
3 843 2117 4422
3 4338 4423 4424
3 4425 2312 4338
3 2312 4423 4338
3 847 597 4426
3 498 4427 2963
3 4428 1058 4429
3 3813 3815 4255
3 4430 1600 4431
3 4432 4058 4256
3 4433 2153 4434
3 4432 4060 4058
3 1431 1506 1723
3 1649 1431 1723
3 4435 1655 4436
3 1431 1649 1432
3 4109 4437 4438
3 4439 2157 4440
3 4326 4441 4442
3 4326 4443 4441
3 4441 4444 4442
3 4441 4445 4444
3 497 4446 498
3 4408 4395 2495
3 4446 4427 498
3 2596 4447 3343
3 413 4448 4449
3 2596 4450 4447
3 4451 4448 413
3 4452 4293 4453
3 423 4454 4455
3 4456 4454 423
3 584 4457 4458
3 859 2498 860
3 2498 2497 860
3 859 4459 2091
3 4459 2201 2091
3 866 2591 867
3 2591 2590 867
3 866 4460 2092
3 4460 2203 2092
3 874 2562 875
3 2562 2561 875
3 874 4461 2090
3 1365 2764 1366
3 4461 2205 2090
3 882 4462 883
3 584 4458 2261
3 882 4463 2089
3 4463 2207 2089
3 2872 4464 4465
3 4465 4464 4466
3 4467 326 558
3 326 4410 558
3 2764 1405 1366
3 4410 326 325
3 3549 2703 4468
3 4468 4469 4470
3 4468 2703 4469
3 4471 2168 3483
3 2181 4472 2198
3 2181 2486 4472
3 2185 4473 2196
3 2185 2488 4473
3 2187 4474 2192
3 2187 2491 4474
3 1961 4475 2379
3 4475 4476 2379
3 2291 4477 2292
3 4477 4478 2292
3 2289 4479 2290
3 4479 4480 2290
3 2287 4267 2288
3 757 2168 4471
3 2285 4261 2286
3 4471 4481 757
3 4482 4483 2175
3 2175 4483 4484
3 2692 2691 4485
3 2691 4486 4485
3 3005 4487 4347
3 4487 4351 4347
3 3119 1278 2611
3 559 2570 4488
3 555 4489 2561
3 555 2569 4489
3 1214 4490 2497
3 1214 4491 4490
3 1378 4492 2590
3 1378 4493 4492
3 2775 4494 2653
3 2775 516 4494
3 2611 1278 2978
3 2458 4495 4496
3 4495 2458 3770
3 4495 3913 4496
3 1824 4497 4498
3 4497 113 4498
3 4109 4499 4437
3 4500 440 439
3 4500 4501 440
3 4502 434 2294
3 1790 4503 2377
3 4503 2380 2377
3 2373 4504 2298
3 4504 4505 2298
3 4506 837 4507
3 1700 583 4506
3 583 837 4506
3 4508 4509 4510
3 4511 4512 4513
3 4514 4510 4509
3 4515 4479 2429
3 4515 4516 4479
3 4517 4267 2420
3 4518 35 4233
3 4517 4329 4267
3 4519 4261 2418
3 4519 4263 4261
3 1361 2766 1362
3 3034 4518 4233
3 4520 4521 2194
3 34 35 4518
3 2014 1832 2358
3 2766 1415 1362
3 2358 1832 2361
3 2492 4522 2493
3 764 4450 2596
3 4010 4523 4000
3 4010 4524 4523
3 2453 4525 450
3 2453 4526 4525
3 2456 4527 338
3 4528 4529 4470
3 1309 4530 1260
3 1309 4531 4530
3 4437 3284 4438
3 4532 4533 4534
3 4437 4535 3284
3 4536 4537 4538
3 4505 4539 2492
3 4540 4529 4528
3 2602 1858 2398
3 2602 2400 1858
3 2606 1877 2407
3 658 777 870
3 870 662 658
3 2606 2409 1877
3 2675 1215 1544
3 1544 1215 2788
3 2600 2102 2103
3 4541 3409 4542
3 2400 2327 1859
3 4543 4544 4545
3 2603 4546 2101
3 4546 601 2101
3 2409 2120 1878
3 4547 4413 4548
3 4549 4502 4550
3 4549 429 4502
3 4551 4552 4550
3 4551 4553 4552
3 1942 4554 1943
3 4554 4555 1943
3 2050 111 112
3 4532 4556 4533
3 4543 4557 4544
3 4536 4558 4537
3 4559 4560 4561
3 1945 4562 4563
3 4562 2618 4563
3 1965 4564 4565
3 4564 4566 4565
3 773 662 870
3 3459 4567 4568
3 3459 2899 4567
3 4569 2095 4570
3 667 791 879
3 4569 2098 2095
3 4547 184 4413
3 4547 183 184
3 2675 4571 1215
3 4571 1218 1215
3 2680 4572 4573
3 4572 4154 4573
3 2682 4574 2680
3 2682 4575 4574
3 4576 4577 4515
3 4577 2382 4515
3 2830 4517 4578
3 2830 4579 4517
3 2832 4519 4580
3 2832 4581 4519
3 4560 4582 4561
3 4583 2638 4584
3 4585 4586 4559
3 879 671 667
3 4585 4587 4586
3 1707 4588 2721
3 786 671 879
3 1706 4588 1707
3 252 351 251
3 3896 4589 3963
3 4589 3962 3963
3 4590 4591 2455
3 4592 487 4593
3 173 354 172
3 4594 4595 2452
3 4595 4526 2452
3 336 4527 4596
3 4597 4598 4599
3 4600 4599 4598
3 4527 4601 4596
3 446 4525 4602
3 4525 4603 4602
3 4593 2786 4592
3 4604 4605 4606
3 4607 4608 4609
3 4609 4610 4607
3 3998 4520 2194
3 4611 117 118
3 1277 1279 4612
3 4613 4614 4615
3 4613 195 4614
3 4616 4520 3998
3 964 1131 4617
3 435 2227 3015
3 988 1126 4618
3 1336 4619 1104
3 4597 4620 4598
3 4619 803 1104
3 1341 4621 1099
3 4622 4623 4624
3 4621 792 1099
3 2632 4487 4625
3 2632 4351 4487
3 3377 196 197
3 4626 4627 4628
3 4629 614 2102
3 4630 2327 2760
3 4630 608 2327
3 4627 4631 4628
3 4632 600 4546
3 4633 4624 4623
3 4634 4635 4636
3 4637 604 2120
3 4638 4552 4639
3 4552 4640 4639
3 2344 4641 2347
3 4622 4642 4623
3 2344 4445 4641
3 4643 4644 4645
3 4646 4647 2764
3 4644 4648 4645
3 3760 4646 2764
3 1598 2306 4649
3 4647 2762 2764
3 2306 4650 4649
3 4651 4652 2766
3 4653 4654 4655
3 3771 4651 2766
3 4653 4209 4654
3 3275 4617 4656
3 4652 2765 2766
3 4617 4657 4656
3 3270 4618 4658
3 4618 4659 4658
3 4660 4661 4662
3 4661 4663 4662
3 4660 4664 4665
3 4666 362 361
3 343 362 4666
3 4667 367 366
3 4664 1043 4665
3 347 367 4667
3 4668 337 4669
3 337 4670 4669
3 4668 4671 4672
3 4671 1059 4672
3 4673 2227 435
3 370 4350 4674
3 4675 4676 4677
3 4676 1053 4677
3 2966 4678 2967
3 4678 4679 2967
3 4663 4680 4681
3 4680 4682 4681
3 4670 4596 4588
3 4596 3261 4588
3 1357 1937 1359
3 4683 4602 2070
3 4602 3266 2070
3 3249 4215 3024
3 3249 3674 4215
3 3254 3774 3027
3 3254 3675 3774
3 4232 4684 3030
3 4232 2657 4684
3 3960 4685 4686
3 4685 4687 4686
3 370 4674 1067
3 1359 1937 1629
3 4688 1067 4674
3 375 4367 4689
3 375 4689 1080
3 4690 3144 4691
3 4690 4692 3144
3 39 4690 4691
3 39 40 4690
3 3120 4693 1340
3 3120 3250 4693
3 3122 4694 1335
3 3122 3255 4694
3 3116 4695 1386
3 3116 3282 4695
3 2574 1629 1937
3 3119 4696 1395
3 4697 1080 4689
3 4635 4698 4636
3 4699 2532 4637
3 4700 4701 3680
3 4702 4553 4632
3 2061 4703 4704
3 2061 1683 4703
3 4705 4706 4707
3 4706 1689 4707
3 4708 4709 4710
3 4711 4710 4709
3 4708 4712 4709
3 4701 4115 3680
3 3281 4713 3282
3 3281 1509 4713
3 4714 4715 2469
3 364 564 345
3 373 568 349
3 1159 665 1160
3 665 1159 4716
3 1153 4716 1159
3 1156 656 1157
3 656 1156 4717
3 1155 4717 1156
3 4700 4718 4719
3 765 767 1164
3 4720 2306 1289
3 767 626 1164
3 1096 4721 1011
3 4721 1015 1011
3 982 4722 981
3 4723 2306 4720
3 1082 4724 1004
3 4724 1008 1004
3 3670 1515 4725
3 3249 4726 3250
3 3249 3023 4726
3 3254 4727 3255
3 971 4728 970
3 322 321 2806
3 985 371 991
3 985 4729 371
3 996 376 1002
3 996 4730 376
3 1009 360 982
3 4731 4732 2277
3 1016 365 971
3 4733 4732 4731
3 1477 765 1164
3 770 772 1172
3 772 652 1172
3 1478 770 1172
3 706 3522 3593
3 3521 3522 636
3 1268 425 1267
3 706 636 3522
3 719 3527 3594
3 3525 3527 640
3 719 640 3527
3 1523 1164 1500
3 1163 1500 1164
3 1500 1163 1055
3 1526 1172 1492
3 1171 1492 1172
3 1492 1171 1048
3 4676 4675 4734
3 4735 3168 4604
3 4734 4736 4676
3 1244 431 1243
3 4350 370 369
3 3980 3982 4737
3 3982 171 4737
3 1119 4206 2731
3 4206 2737 2731
3 3950 3952 4738
3 3952 250 4738
3 1112 4195 2724
3 4195 2727 2724
3 997 4739 1003
3 997 1075 4739
3 1026 2731 976
3 4676 4736 1251
3 986 4740 992
3 986 1062 4740
3 1022 2724 973
3 2355 4741 748
3 4652 4651 4742
3 3254 3026 4727
3 4743 4744 1645
3 4743 4745 4744
3 980 4746 4747
3 3669 4748 1509
3 4748 2699 1509
3 3281 4749 3669
3 4746 168 4747
3 3281 3667 4749
3 4750 4662 4751
3 748 4741 2138
3 3168 4605 4604
3 975 4752 4753
3 4752 247 4753
3 4754 4755 4756
3 4755 4757 4756
3 4647 4646 4758
3 4759 4760 4761
3 4760 4762 4761
3 527 2230 4763
3 4367 375 374
3 4257 4764 3839
3 4257 695 4764
3 4221 4765 3832
3 2681 270 271
3 4221 708 4765
3 4662 4766 4751
3 1729 1731 598
3 2869 191 192
3 599 598 1731
3 1082 1267 4724
3 1739 1105 602
3 603 602 1105
3 1096 1243 4721
3 1752 1038 612
3 613 612 1038
3 1745 1050 606
3 4767 4664 4750
3 607 606 1050
3 4767 1222 4664
3 625 4768 1254
3 4769 4671 4770
3 4769 1252 4671
3 3069 4771 2994
3 4768 382 1254
3 4768 4772 382
3 651 4773 1256
3 4773 386 1256
3 4773 4774 386
3 592 647 483
3 646 647 592
3 587 649 489
3 648 649 587
3 826 4775 1529
3 1529 4775 3437
3 3437 1530 1529
3 836 4776 1532
3 4771 3476 2994
3 2818 4262 3069
3 530 2230 527
3 1532 4776 3431
3 3431 1533 1532
3 4777 3461 4193
3 4778 4777 4193
3 4193 3461 3463
3 4752 246 247
3 4752 975 920
3 3072 4779 2996
3 4746 167 168
3 4746 980 923
3 4779 3478 2996
3 4780 3456 4204
3 4781 4780 4204
3 4204 3456 3458
3 4469 4782 4470
3 1187 1194 4783
3 3561 4784 4785
3 2819 4268 3072
3 4784 4786 4785
3 4787 546 548
3 546 4787 1989
3 1180 1185 4788
3 4784 3561 4789
3 4790 123 4791
3 4598 4792 4600
3 4793 4600 4792
3 4794 4792 4598
3 4623 4795 4633
3 4796 4633 4795
3 3075 4797 3000
3 4798 4795 4623
3 4799 1447 1448
3 1236 4799 1448
3 123 4800 4791
3 4799 1236 4801
3 2820 4802 3075
3 4803 1442 1443
3 1232 4803 1443
3 2820 4480 4802
3 2823 4804 3073
3 4803 1232 4805
3 730 1342 731
3 3772 731 1342
3 124 4800 123
3 751 1346 752
3 3811 752 1346
3 4001 3606 3991
3 4806 781 1350
3 1350 781 770
3 1478 1350 770
3 4807 769 1354
3 1354 769 765
3 1477 1354 765
3 1967 464 2048
3 4251 4808 4252
3 370 991 371
3 4512 4809 4513
3 375 1002 376
3 4787 1991 1989
3 1885 2080 2773
3 170 171 3982
3 2080 1885 1998
3 1972 468 2053
3 249 250 3952
3 4810 4811 4812
3 2823 4478 4804
3 2989 4813 4814
3 2989 1734 4813
3 360 1009 361
3 4815 4816 4817
3 365 1016 366
3 4818 4787 548
3 4819 4820 3414
3 1887 2074 2805
3 2074 1887 2000
3 3414 4820 3413
3 1233 4222 1234
3 4801 1234 4222
3 1233 4821 4222
3 1229 4258 1230
3 4805 1230 4258
3 1229 4822 4258
3 4599 4600 4823
3 4823 4824 4599
3 311 4824 4823
3 4825 4826 4827
3 4624 4633 4828
3 4828 4829 4624
3 74 4829 4828
3 1772 1677 1731
3 1730 1772 1731
3 4826 4830 4827
3 1677 1916 1731
3 1773 1679 1105
3 1602 1773 1105
3 4831 4757 4755
3 808 4832 1802
3 1679 1106 1105
3 4833 4762 4760
3 4832 1804 1802
3 536 244 4834
3 4835 4836 2634
3 4835 4837 4836
3 3531 4838 4839
3 4834 705 536
3 4834 244 245
3 550 165 4840
3 4840 718 550
3 53 54 3056
3 4840 165 166
3 1774 1673 1038
3 1753 1774 1038
3 1673 1039 1038
3 1775 1675 1050
3 1663 1775 1050
3 1675 1051 1050
3 1069 4841 709
3 707 709 4841
3 1069 1187 4841
3 1071 4842 696
3 694 696 4842
3 1071 1180 4842
3 381 380 1388
3 381 1388 1248
3 385 384 1390
3 385 1390 1250
3 4843 4844 3606
3 4195 4194 2727
3 3606 4001 4843
3 4206 4205 2737
3 1646 1429 1718
3 1720 1646 1718
3 4838 3018 4839
3 1646 1720 1297
3 1653 1433 1725
3 3235 4845 4699
3 4845 4846 4699
3 1727 1653 1725
3 1653 1727 1318
3 4847 4848 4849
3 290 291 3014
3 1715 1644 1716
3 1644 1715 1287
3 1722 1649 1723
3 1649 1722 1307
3 92 4850 4851
3 4851 4850 4852
3 91 92 4851
3 14 4853 4854
3 4854 4853 4855
3 13 14 4854
3 4856 1436 4857
3 4858 4640 4702
3 2216 4797 2214
3 4857 1436 71
3 71 72 4857
3 4832 808 2252
3 2214 4802 4859
3 4860 1439 4861
3 4861 1439 308
3 308 309 4861
3 3827 351 3824
3 4802 4516 4859
3 819 4862 1827
3 1983 4154 1985
3 4862 1829 1827
3 2725 4863 4729
3 4862 819 2247
3 2212 4864 2210
3 2732 4865 4730
3 3824 351 353
3 4866 2881 2882
3 4867 4868 4869
3 3836 354 3833
3 3833 354 356
3 4867 1991 4868
3 211 212 2957
3 4666 1008 4724
3 4724 1267 4666
3 4666 361 1008
3 4870 4871 4872
3 4871 3549 4872
3 4667 1015 4721
3 4721 1243 4667
3 4667 366 1015
3 4756 4873 4620
3 4794 4620 4873
3 4757 4873 4756
3 4761 4874 4642
3 4798 4642 4874
3 4762 4874 4761
3 425 4875 1267
3 378 2881 4866
3 1084 4875 425
3 431 4876 1243
3 2720 4877 2717
3 1087 4876 431
3 855 672 364
3 4878 1929 1930
3 4718 4879 4719
3 4392 1936 1935
3 2806 4714 4870
3 2806 321 4714
3 4877 2553 2717
3 1046 981 4722
3 2717 2553 2552
3 1034 970 4728
3 3194 4880 4881
3 4882 3756 4845
3 855 4762 672
3 4762 4833 672
3 1989 1988 2459
3 4880 4883 4881
3 4884 3765 4858
3 4885 1980 2951
3 4886 4887 4888
3 4887 4889 4888
3 2951 1980 1981
3 905 680 373
3 905 4757 680
3 4757 4831 680
3 3159 4890 3101
3 433 4891 1007
3 4890 4892 3101
3 3101 4893 3159
3 1007 1086 433
3 433 1086 1087
3 427 4894 1014
3 1014 1083 427
3 3101 3103 4893
3 427 1083 1084
3 4895 4896 2144
3 1659 4897 1904
3 1253 1054 1056
3 1253 4898 1054
3 4898 1294 1054
3 1255 1047 1049
3 1255 4899 1047
3 4899 1314 1047
3 4895 4581 4896
3 4900 4901 2150
3 663 665 4716
3 663 4716 1088
3 4900 4579 4901
3 490 1088 4716
3 654 656 4717
3 654 4717 1085
3 484 1085 4717
3 1041 4753 3951
3 3951 4753 248
3 1045 4747 3981
3 3981 4747 169
3 1201 1202 1369
3 1202 4821 1369
3 1202 4254 4821
3 1204 1205 1372
3 1205 4822 1372
3 1205 4266 4822
3 1538 4902 1539
3 4902 1538 1198
3 4902 1495 1539
3 1535 4903 1536
3 4903 1535 1196
3 4904 1912 1150
3 4903 1489 1536
3 4904 1913 1912
3 905 4768 1607
3 2579 4905 2865
3 905 377 4768
3 4906 1018 1034
3 1974 1018 4906
3 377 4772 4768
3 4880 3194 2974
3 4907 1030 1046
3 1970 1030 4907
3 340 3107 2759
3 855 4773 1618
3 4905 2034 2865
3 855 368 4773
3 2585 4908 2867
3 368 4774 4773
3 1224 2337 1225
3 3107 2738 2739
3 340 342 3107
3 1227 2343 1228
3 2738 3107 342
3 4908 2045 2867
3 4909 4910 4911
3 2107 2104 2463
3 4493 2557 1396
3 1021 489 491
3 489 1021 587
3 1025 483 485
3 483 1025 592
3 1517 381 1325
3 1517 4898 381
3 4898 379 381
3 1520 385 1330
3 1520 4899 385
3 4909 4912 4910
3 4899 383 385
3 1429 1503 1718
3 1429 1646 1430
3 1433 1510 1725
3 1433 1653 1434
3 4352 4647 4913
3 4914 4915 4916
3 3772 4647 4352
3 4372 4652 4917
3 3811 4652 4372
3 2724 1022 1112
3 4915 4918 4916
3 2664 2557 4493
3 2731 1026 1119
3 4914 4919 4920
3 4921 2898 2897
3 4493 1344 2664
3 2898 4921 3532
3 4491 2552 1387
3 4922 343 4666
3 2717 2552 4491
3 4923 347 4667
3 4083 509 511
3 1029 4083 511
3 4112 503 505
3 1033 4112 505
3 1860 1855 1857
3 1858 1860 1857
3 4919 4924 4920
3 4925 4926 4927
3 2059 1847 1848
3 4925 4928 4926
3 4491 1212 2717
3 4929 4930 4931
3 2060 1864 1865
3 4929 4932 4930
3 3475 4933 4934
3 4916 4919 4914
3 1879 1873 1875
3 4916 3719 4919
3 1877 1879 1875
3 4912 2655 4935
3 4296 360 362
3 4933 3475 3474
3 4310 365 367
3 3737 4933 3474
3 4936 4937 4938
3 4937 4936 4939
3 4937 17 4938
3 4937 16 17
3 4940 4941 4942
3 4941 4940 4943
3 4941 95 4942
3 4941 94 95
3 4754 4906 4755
3 4906 4754 1974
3 2655 2614 4935
3 4849 4848 2277
3 4759 4907 4760
3 4907 4759 1970
3 4426 2119 4944
3 644 1949 2559
3 4816 4945 4817
3 644 2943 1949
3 1392 1582 1670
3 4946 4816 4815
3 4947 3931 4948
3 4946 4949 4816
3 4950 4951 4952
3 4950 1664 4951
3 4953 4954 4955
3 2754 1938 1939
3 1394 1589 1669
3 4956 4957 4561
3 4947 3934 3931
3 4597 2003 1974
3 4599 2003 4597
3 4622 1973 1970
3 4624 1973 4622
3 2119 4958 4944
3 2283 2667 4959
3 4953 1735 4954
3 4863 2725 495
3 1148 4960 4961
3 495 494 4863
3 4957 4962 4561
3 2667 2283 2668
3 4865 2732 501
3 501 500 4865
3 2007 1820 1840
3 2007 1962 1820
3 4960 3057 4961
3 229 4963 2342
3 2342 4963 4964
3 4963 4965 4964
3 4963 229 230
3 150 4966 2332
3 4967 2479 4968
3 2332 4966 4969
3 4966 4970 4969
3 4966 150 151
3 2013 1822 1838
3 2013 1951 1822
3 2479 4971 4968
3 2011 1821 1656
3 2011 1954 1821
3 2505 4972 4973
3 2009 1819 1601
3 2009 1959 1819
3 2505 4974 4972
3 242 243 3593
3 3036 4975 1903
3 3520 241 242
3 4975 2383 1903
3 242 3522 3520
3 3522 242 3593
3 163 164 3594
3 3524 162 163
3 163 3527 3524
3 3527 163 3594
3 431 433 1087
3 425 427 1084
3 1491 1047 1613
3 1491 1048 1047
3 1047 1313 1613
3 1499 1054 1620
3 1499 1055 1054
3 1054 1293 1620
3 3834 3833 4264
3 3834 4257 3839
3 4976 4977 4978
3 3825 3824 4253
3 3825 4221 3832
3 4979 680 4831
3 4976 4980 4977
3 1333 688 2664
3 4981 672 4833
3 3196 4982 3717
3 688 690 2664
3 3196 286 4982
3 586 380 4772
3 586 4772 377
3 2838 4983 2839
3 382 4772 380
3 591 384 4774
3 591 4774 368
3 386 4774 384
3 1302 1304 1306
3 1302 1306 1308
3 1282 1284 1286
3 1282 1286 1288
3 625 1254 626
3 651 1256 652
3 2838 132 4983
3 4984 4985 4986
3 4986 4985 69
3 4987 4988 4989
3 4989 4988 306
3 4990 4991 1246
3 18 4991 4990
3 4992 4993 1242
3 4389 4994 4995
3 96 4993 4992
3 4994 4996 4995
3 4997 4998 4999
3 4965 4999 4998
3 5000 4998 4997
3 2088 5001 3770
3 5000 5002 4998
3 5003 5004 5005
3 4970 5005 5004
3 5006 5004 5003
3 5006 5007 5004
3 708 1202 709
3 2474 2903 3755
3 1068 709 1202
3 5008 89 90
3 5008 1010 941
3 2442 2896 3764
3 1202 708 4254
3 941 89 5008
3 5009 11 12
3 5009 1017 946
3 946 11 5009
3 2088 2969 5001
3 1094 5010 1097
3 1094 2628 5010
3 5011 4826 2228
3 695 1205 696
3 2021 2020 3044
3 1070 696 1205
3 1205 695 4266
3 5012 1455 5013
3 1583 1455 5012
3 5014 1453 5015
3 2664 690 2557
3 2397 2837 2852
3 2397 2396 2837
3 2390 2824 2829
3 2390 2389 2824
3 4248 325 327
3 5011 4830 4826
3 1062 1067 5016
3 514 4494 516
3 5016 5017 1062
3 5016 1067 4688
3 4388 622 4390
3 514 3408 4494
3 5018 4299 3895
3 1584 1453 5014
3 1075 1080 5019
3 5019 5020 1075
3 4981 4295 672
3 4295 564 672
3 5019 1080 4697
3 4851 5021 91
3 5018 5022 4299
3 4851 4852 5023
3 5023 5021 4851
3 4854 5024 13
3 439 5025 5026
3 4854 4855 5027
3 5027 5024 4854
3 4979 4303 680
3 4303 568 680
3 5025 5028 5026
3 1474 5029 4985
3 4985 5029 68
3 1476 5030 4988
3 4988 5030 305
3 1292 1294 1296
3 1292 1296 1298
3 921 5031 922
3 5031 996 922
3 1312 1314 1317
3 1312 1317 1319
3 918 5032 919
3 5032 985 919
3 1579 4245 5033
3 5033 4245 225
3 1576 4236 5034
3 233 234 5035
3 930 992 5035
3 5035 234 930
3 5034 4236 146
3 1468 1073 1472
3 154 155 5036
3 1073 1468 1076
3 1458 1078 1464
3 1078 1458 1081
3 935 1003 5036
3 5037 2555 5038
3 5036 155 935
3 3198 5037 5038
3 628 5039 4783
3 5038 3199 3198
3 5038 2555 2554
3 633 5040 4788
3 2755 5041 2754
3 2707 5042 3603
3 2755 5043 5041
3 204 205 2707
3 205 5042 2707
3 2385 2352 5044
3 2352 33 5044
3 5045 1356 1358
3 5046 1356 5045
3 2705 5047 2703
3 5048 295 1964
3 4293 3048 5049
3 5047 4469 2703
3 5049 3048 2798
3 5049 4453 4293
3 5050 4850 93
3 5050 4943 5051
3 5051 4850 5050
3 3468 3467 3666
3 5052 4853 15
3 5052 4939 5053
3 3238 5054 5055
3 5053 4853 5052
3 5054 3367 5055
3 2972 5056 2599
3 3139 1837 4063
3 2972 5057 5056
3 2663 4233 36
3 5058 4994 1930
3 4279 1451 5059
3 3907 5060 5061
3 4288 1449 5062
3 3907 5063 5060
3 5058 4996 4994
3 5064 5065 4514
3 115 5065 5064
3 5064 114 115
3 5066 5067 1947
3 5066 3711 5067
3 4991 5068 1456
3 19 5068 4991
3 4729 5032 2725
3 4993 5069 1454
3 97 5069 4993
3 1187 1188 1194
3 1192 1194 1188
3 1180 1181 1185
3 4729 985 5032
3 1183 1185 1181
3 4730 5031 2732
3 4730 996 5031
3 4741 5070 2698
3 4741 2507 5070
3 4782 5071 5072
3 4782 4469 5071
3 3415 5073 2797
3 5073 2798 2797
3 625 1607 4768
3 651 1618 4773
3 2958 5074 2970
3 4841 3462 3461
3 2958 3654 5074
3 5075 5076 4763
3 294 295 5048
3 4842 3457 3456
3 563 567 2115
3 5075 5077 5076
3 1574 4239 5029
3 1532 1195 836
3 5029 4239 67
3 1578 4242 5030
3 1529 1197 826
3 2085 4708 2723
3 5030 4242 304
3 2085 3405 4708
3 3091 1095 3092
3 1095 1097 3092
3 2118 563 2115
3 230 5078 4963
3 3102 5079 3104
3 4963 5078 4965
3 3102 5080 5079
3 5078 4999 4965
3 5078 230 231
3 151 5081 4966
3 4966 5081 4970
3 5081 5005 4970
3 4892 5080 3102
3 5081 151 152
3 1046 4722 4981
3 2555 3477 2556
3 4828 73 74
3 4981 4722 4296
3 1034 4728 4979
3 3202 3200 5082
3 4823 310 311
3 4979 4728 4310
3 4783 730 628
3 4788 751 633
3 4226 4228 4230
3 3200 5083 5082
3 4218 4220 4224
3 5082 5083 3946
3 3580 5084 270
3 5085 5086 4281
3 5084 269 270
3 5061 4255 4104
3 5087 5088 4290
3 1460 5089 5090
3 4255 3815 4104
3 5091 5092 5093
3 1460 2957 5089
3 827 4658 3023
3 4319 4234 4236
3 827 2964 4658
3 5094 5095 1798
3 5096 3643 4407
3 5097 5098 5099
3 5097 3953 5098
3 5100 5101 5102
3 5101 3913 5102
3 4481 4471 5103
3 4969 2337 2332
3 4471 3482 5103
3 810 4656 3026
3 5104 5105 766
3 4964 2343 2342
3 766 5105 624
3 810 2959 4656
3 232 5106 5107
3 5108 5109 3155
3 5108 3877 5109
3 5110 5111 4682
3 5112 4999 5107
3 5110 1681 5111
3 5113 5095 5094
3 5094 5114 5113
3 5107 5106 5112
3 153 5115 5116
3 5117 5005 5116
3 5116 5115 5117
3 5118 5119 771
3 771 5119 650
3 5120 5121 1651
3 4317 4237 4239
3 5120 3112 5121
3 4334 5103 5122
3 5051 4852 4850
3 92 93 4850
3 5053 4855 4853
3 5103 3482 5122
3 5123 5124 475
3 14 15 4853
3 5124 4611 475
3 4315 4240 4242
3 5125 4935 2612
3 5126 5085 5059
3 5127 5128 5129
3 5130 5087 5062
3 5128 5131 5129
3 4396 3959 3950
3 3950 5132 4396
3 4396 5132 5133
3 4412 3994 3980
3 3980 5134 4412
3 4412 5134 5135
3 174 1442 355
3 355 1442 356
3 355 173 174
3 253 1447 352
3 352 1447 353
3 352 252 253
3 5112 992 4740
3 1062 5017 4740
3 5117 1003 4739
3 1075 5020 4739
3 3450 905 1607
3 654 1083 655
3 4935 2614 2612
3 3447 855 1618
3 663 1086 664
3 312 313 5136
3 5137 5070 5138
3 972 2003 5136
3 5070 2507 5138
3 75 76 5139
3 983 1973 5139
3 1265 5140 5141
3 1494 1367 1364
3 1494 1364 1617
3 5140 4973 5141
3 1364 1283 1617
3 1488 1363 1360
3 1488 1360 1615
3 2723 4708 4710
3 1360 1303 1615
3 5142 5126 1452
3 504 1032 505
3 255 5126 5142
3 510 1028 511
3 4753 247 248
3 4753 1041 975
3 5143 5130 1450
3 5054 3238 3239
3 4747 168 169
3 4747 1045 980
3 4302 4301 5144
3 4301 5145 5144
3 176 5130 5143
3 5068 4226 5013
3 5003 5146 5006
3 20 4226 5068
3 5069 4218 5015
3 4997 5147 5000
3 98 4218 5069
3 3634 1151 5148
3 5148 1151 3054
3 1703 1800 1570
3 5149 5150 5151
3 5023 1010 5021
3 90 91 5021
3 5027 1017 5024
3 12 13 5024
3 2126 4488 4462
3 4462 4488 883
3 1705 1810 1567
3 5027 5152 5153
3 5152 5027 4855
3 5153 5152 432
3 5152 4891 432
3 5023 5154 5155
3 5154 5023 4852
3 5155 5154 426
3 5154 4894 426
3 5156 5157 5158
3 5158 5157 5147
3 5147 5017 5158
3 5159 5156 5158
3 5160 5161 5162
3 5150 5163 5151
3 5162 5161 5146
3 5146 5020 5162
3 2705 1173 4443
3 2704 1173 2705
3 4443 4327 2705
3 5164 394 398
3 5165 5160 5162
3 5159 5166 5167
3 5167 5166 4913
3 5165 5168 5169
3 5169 5168 4917
3 4863 369 371
3 371 4729 4863
3 4865 374 376
3 376 4730 4865
3 5164 404 394
3 4924 5170 5171
3 3019 5172 3017
3 5171 5170 288
3 5173 4923 4876
3 5172 5028 3017
3 5173 350 4923
3 2126 559 4488
3 1381 734 1379
3 1087 5173 4876
3 1087 1088 5173
3 2556 5174 5175
3 5174 2151 5175
3 649 350 5173
3 5176 4922 4875
3 5176 346 4922
3 1084 5176 4875
3 1084 1085 5176
3 647 346 5176
3 1379 734 5177
3 1926 1927 51
3 5178 4976 3472
3 1462 1941 209
3 490 1020 491
3 4716 1153 1020
3 3474 5179 5180
3 1020 490 4716
3 484 1024 485
3 4980 4976 5178
3 4296 4295 4981
3 5140 4260 1660
3 4310 4303 4979
3 3822 3963 403
3 5179 2145 5180
3 4717 1155 1024
3 1024 484 4717
3 503 4112 1014
3 5181 5182 5183
3 503 1012 504
3 509 4083 1007
3 509 1005 510
3 2755 1356 5046
3 1939 1356 2755
3 5182 5184 5183
3 5046 5043 2755
3 5185 1660 4260
3 5140 1660 1662
3 3692 1650 5186
3 694 4780 4764
3 4764 4780 3839
3 4764 695 694
3 5187 5188 5189
3 5190 5191 5192
3 5190 3327 5191
3 707 4777 4765
3 4765 4777 3832
3 4765 708 707
3 3691 4744 3692
3 2968 2087 5193
3 2969 2087 2968
3 5193 2966 2968
3 493 495 629
3 495 4194 629
3 495 2727 4194
3 499 501 634
3 2952 1374 4837
3 1981 1374 2952
3 4744 4745 3692
3 4837 892 2952
3 501 4205 634
3 425 1268 426
3 5194 4564 5195
3 501 2737 4205
3 431 1244 432
3 5196 5197 1218
3 5194 4566 4564
3 130 5197 5196
3 5000 5157 5198
3 5199 5200 2125
3 3477 5201 3478
3 5198 5157 3435
3 5006 5161 5202
3 5202 5161 3429
3 3475 5203 3476
3 4902 5204 1367
3 1530 5204 4902
3 1530 3437 5204
3 5186 2630 3692
3 4903 5205 1363
3 1533 5205 4903
3 1533 3431 5205
3 138 2630 5186
3 1353 4807 1354
3 4807 1353 5206
3 5200 5207 2125
3 1349 4806 1350
3 4806 1349 5208
3 4230 4272 5012
3 3643 1301 4407
3 3643 5209 1301
3 2834 5210 2852
3 2834 5211 5210
3 5012 4272 4274
3 454 2401 455
3 2402 5212 5213
3 2402 5214 5212
3 4224 4282 5014
3 4209 1275 4207
3 5014 4282 4283
3 4209 5215 1275
3 5115 1003 5117
3 5115 153 154
3 5106 992 5112
3 5106 232 233
3 1658 1797 1799
3 1797 1658 4311
3 5216 5217 5218
3 5219 5103 4330
3 5103 4334 4330
3 5217 4041 5218
3 5078 5107 4999
3 3414 5220 4819
3 5221 4136 5222
3 3414 3468 5220
3 5221 5223 4136
3 5081 5116 5005
3 5222 5224 5225
3 4311 3653 1797
3 2912 4375 2913
3 2815 5189 2829
3 2913 4375 5226
3 2754 5227 1938
3 5227 3591 1938
3 5228 4975 4392
3 5228 2383 4975
3 1324 5229 5230
3 5224 5231 5225
3 4939 5052 4937
3 4937 5052 15
3 15 16 4937
3 4943 5050 4941
3 4941 5050 93
3 1324 1591 5229
3 3959 1041 3951
3 248 249 3951
3 3994 1045 3981
3 169 170 3981
3 3125 328 330
3 5232 2640 5233
3 2403 2402 5213
3 2722 4710 5234
3 93 94 4941
3 4999 5112 5235
3 1147 2170 5213
3 5235 4997 4999
3 5147 4997 5235
3 5005 5117 5236
3 4710 1789 5234
3 5236 5003 5005
3 4500 3897 4501
3 5237 4711 4709
3 5146 5003 5236
3 4857 4796 4856
3 2640 61 5233
3 60 61 2640
3 4861 4793 4860
3 4231 5238 4272
3 2543 2580 5180
3 2086 5239 2929
3 2086 3557 5239
3 5240 5241 3975
3 1645 5242 1311
3 5243 3489 3488
3 1645 5244 5242
3 2840 5245 1216
3 2840 5246 5245
3 3058 5247 1936
3 5247 1934 1936
3 5180 2580 3737
3 478 28 5248
3 5249 2268 5057
3 487 264 4593
3 5008 5021 1010
3 90 5021 5008
3 5009 5024 1017
3 2877 2268 5249
3 4414 5181 5250
3 12 5024 5009
3 4824 2003 4599
3 4824 311 312
3 4829 1973 4624
3 4829 74 75
3 5037 4558 2555
3 682 5241 5240
3 3305 5251 3304
3 3305 5252 5251
3 5092 5253 5093
3 5254 5255 5256
3 5190 5257 5258
3 5190 5259 5257
3 3477 2555 4558
3 5260 5195 5261
3 4783 5039 3462
3 4783 3462 1187
3 5262 3156 3155
3 5262 5263 3158
3 5262 5264 5263
3 295 5265 1964
3 295 296 5265
3 4841 1187 3462
3 4788 5040 3457
3 1121 4492 1396
3 4492 4493 1396
3 1117 4490 1387
3 4490 4491 1387
3 4691 5266 39
3 5266 38 39
3 992 5106 5035
3 5035 5106 233
3 1003 5115 5036
3 5036 5115 154
3 4501 3898 440
3 4788 3457 1180
3 4842 1180 3457
3 1849 1795 275
3 1795 274 275
3 2696 1417 5267
3 5267 2480 1750
3 2003 4824 5136
3 5267 1417 2480
3 4584 1142 5268
3 5136 4824 312
3 4584 5268 4583
3 1973 4829 5139
3 5139 4829 75
3 4754 4620 4597
3 4597 1974 4754
3 4759 4642 4622
3 4622 1970 4759
3 5156 3435 5157
3 5000 5147 5157
3 5160 3429 5161
3 5006 5146 5161
3 624 767 766
3 1142 4584 2791
3 769 5104 766
3 650 772 771
3 781 5118 771
3 402 5164 1310
3 3122 1213 1490
3 402 404 5164
3 4248 5269 325
3 5269 5270 325
3 5271 3789 5272
3 4598 4620 4794
3 4246 5273 4335
3 5273 5274 4335
3 5275 2068 2067
3 4623 4642 4798
3 1687 2723 2721
3 5275 4734 2068
3 1486 5276 1487
3 5276 4540 1487
3 1483 5277 1484
3 5152 4855 5053
3 3435 4775 5198
3 5277 5278 1484
3 5002 5000 5198
3 5198 4775 5002
3 5053 1006 5152
3 3429 4776 5202
3 5007 5006 5202
3 5202 4776 5007
3 4814 3822 3334
3 5152 1006 4891
3 5279 4401 4404
3 5154 4852 5051
3 4401 4400 4404
3 2713 4117 1457
3 5280 5281 2106
3 5280 5282 5281
3 2098 4118 1416
3 5283 4720 5284
3 5283 4723 4720
3 5285 5286 1114
3 5285 5287 5286
3 5139 5288 983
3 5139 76 5288
3 5051 1013 5154
3 5154 1013 4894
3 5155 1268 1082
3 5136 5289 972
3 1082 1010 5155
3 5155 1010 5023
3 5153 1244 1096
3 1096 1017 5153
3 5153 1017 5027
3 5136 313 5289
3 5156 5167 5290
3 5290 5167 4758
3 5160 5169 5291
3 5291 5169 4742
3 4651 3771 3430
3 3430 4742 4651
3 4646 3760 3436
3 3436 4758 4646
3 4834 903 705
3 245 903 4834
3 4840 907 718
3 166 907 4840
3 5112 4740 5235
3 5235 4740 5017
3 5017 5147 5235
3 5117 4739 5236
3 5236 4739 5020
3 923 5292 4746
3 5020 5146 5236
3 5017 5016 5158
3 5158 5016 4688
3 5292 167 4746
3 920 5293 4752
3 5293 246 4752
3 4688 5159 5158
3 5020 5019 5162
3 5162 5019 4697
3 4697 5165 5162
3 5294 2748 5295
3 5295 2748 2753
3 5296 1177 5297
3 487 486 264
3 5297 5298 5299
3 982 4296 4722
3 5297 1177 5298
3 486 263 264
3 4349 5166 4674
3 4674 5166 4688
3 4674 4350 4349
3 360 4296 982
3 4366 5168 4689
3 4689 5168 4697
3 4689 4367 4366
3 971 4310 4728
3 365 4310 971
3 3115 5300 609
3 5104 769 4807
3 478 477 28
3 4807 5301 5104
3 1531 833 832
3 836 1195 832
3 477 27 28
3 1528 823 822
3 826 1197 822
3 351 4738 251
3 5206 5301 4807
3 3827 4738 351
3 354 4737 172
3 3836 4737 354
3 5118 781 4806
3 4841 3461 707
3 546 4496 547
3 4842 3456 694
3 2459 4496 546
3 564 4295 565
3 568 4303 569
3 4806 5302 5118
3 546 1989 2459
3 5208 5302 4806
3 3437 3436 5204
3 2310 524 2976
3 5204 3436 3760
3 3431 3430 5205
3 2976 524 531
3 346 343 4922
3 5205 3430 3771
3 350 347 4923
3 5300 5303 609
3 1580 5303 5300
3 4877 5284 2553
3 4783 1342 730
3 4877 2167 5284
3 4783 1194 1342
3 628 629 5039
3 3463 3462 5039
3 5039 629 3463
3 633 634 5040
3 4964 4965 4998
3 3458 3457 5040
3 4413 184 185
3 5040 634 3458
3 5053 1005 1006
3 1007 4891 1006
3 5051 1012 1013
3 1014 4894 1013
3 4780 694 3456
3 4780 4781 3839
3 5284 2167 5283
3 4777 707 3461
3 4777 4778 3832
3 831 833 4969
3 831 5007 836
3 821 823 4964
3 2282 105 106
3 4725 1122 4696
3 821 5002 826
3 4778 5132 3826
3 3826 5132 3827
3 3826 3832 4778
3 4998 821 4964
3 5002 821 4998
3 4781 5134 3835
3 3835 5134 3836
3 1310 2848 3334
3 3835 3839 4781
3 4969 4970 5004
3 5004 831 4969
3 3836 3980 4737
3 171 172 4737
3 3827 3950 4738
3 250 251 4738
3 2088 2087 2969
3 3670 4725 4696
3 297 298 2529
3 1986 1175 1176
3 3670 4696 3119
3 5007 831 5004
3 218 219 5304
3 4600 4793 5305
3 5305 4823 4600
3 310 4823 5305
3 2265 4360 5306
3 4633 4796 5307
3 5307 4828 4633
3 4422 2116 2265
3 5134 3980 3836
3 2116 4360 2265
3 2803 5308 2802
3 5134 4781 5135
3 73 4828 5307
3 2802 5308 5309
3 5132 3950 3827
3 3135 3670 3671
3 5132 4778 5133
3 1375 1374 1981
3 1375 2627 1377
3 333 332 267
3 1357 1356 1939
3 489 5173 490
3 5173 489 649
3 1088 490 5173
3 483 5176 484
3 5176 483 647
3 1085 484 5176
3 4796 4857 5307
3 5307 4857 72
3 72 73 5307
3 4793 4861 5305
3 5305 4861 309
3 5073 5310 2798
3 309 310 5305
3 5073 3415 4387
3 426 1268 5155
3 731 3772 4352
3 4913 4349 4352
3 4387 5310 5073
3 752 3811 4372
3 4917 4366 4372
3 1628 1626 2537
3 1789 4710 4711
3 1628 1358 1359
3 2244 4369 5311
3 4758 4913 4647
3 4711 5237 1789
3 3772 2762 4647
3 4742 4917 4652
3 3811 2765 4652
3 432 1244 5153
3 4620 4754 4756
3 5312 2568 2572
3 2080 1998 2082
3 2048 1996 2084
3 4642 4759 4761
3 2572 2813 5312
3 4417 2112 2244
3 3429 3431 4776
3 836 5007 4776
3 3435 3437 4775
3 826 5002 4775
3 2053 2002 2078
3 2112 4369 2244
3 638 5313 4384
3 4384 5313 5314
3 5096 2225 3644
3 747 2225 5096
3 2074 2000 2076
3 2651 2529 5261
3 2529 2651 297
3 4289 4322 4285
3 4289 4290 4323
3 4917 4742 5169
3 5160 5165 5169
3 4913 4758 5167
3 38 5266 4328
3 5156 5159 5167
3 4328 5266 1261
3 2923 2661 2660
3 4328 37 38
3 1380 948 2394
3 5315 2669 2578
3 2864 2659 2658
3 1389 948 1380
3 2394 1381 1380
3 358 4866 927
3 1044 1039 2025
3 927 359 358
3 378 4866 358
3 2578 2669 5316
3 5135 4781 4204
3 5317 2814 4452
3 1057 1051 2026
3 3126 2814 5317
3 5133 4778 4193
3 5318 2676 2593
3 3408 2654 4494
3 4494 2654 2653
3 2593 2676 5319
3 1174 1173 2704
3 1174 2470 1176
3 5320 2530 1540
3 5320 442 5321
3 1540 442 5320
3 2392 2391 5322
3 3789 3726 5272
3 1193 1342 1194
3 587 1388 380
3 5322 2391 5282
3 5323 5324 5271
3 592 1390 384
3 1917 1916 2027
3 4788 1346 751
3 4269 4376 4270
3 4269 1642 1963
3 2456 4591 4527
3 4591 2456 2455
3 4591 4601 4527
3 2573 2586 5175
3 5175 2586 2554
3 5325 5326 5327
3 4788 1185 1346
3 5327 5326 5211
3 408 5233 1511
3 408 418 406
3 1511 418 408
3 2413 2414 3097
3 4858 3765 4640
3 4892 2625 2105
3 4280 4320 4276
3 4280 4281 4321
3 148 149 1224
3 227 228 1227
3 2414 5328 3098
3 3098 3097 2414
3 4836 2632 2634
3 1108 1106 2028
3 4351 2632 4836
3 2990 1259 5329
3 5329 4616 2990
3 3099 3913 5101
3 5101 5330 3099
3 2084 1996 1995
3 5329 1259 1258
3 2082 1998 1997
3 5331 2390 2829
3 2078 2002 2001
3 2076 2000 1999
3 1211 2390 5331
3 5331 5332 1486
3 1486 1211 5331
3 1983 1982 4715
3 4715 1982 1987
3 628 731 4011
3 2469 4715 1987
3 633 752 4016
3 1978 1727 1873
3 5333 2397 2852
3 1200 2397 5333
3 5333 5334 1483
3 1748 5335 1747
3 2019 1743 1747
3 4349 4913 5166
3 1747 5335 2019
3 5159 4688 5166
3 1483 1200 5333
3 4366 4917 5168
3 5165 4697 5168
3 4398 4391 5336
3 5336 4391 4393
3 1977 1722 1864
3 427 426 4894
3 5337 5326 3201
3 1976 1720 1855
3 2657 4568 4684
3 433 432 4891
3 3031 3030 4684
3 4684 4568 3031
3 5326 5337 5338
3 5339 5338 5337
3 5254 5340 5255
3 5341 1376 1377
3 5268 3135 4583
3 1377 1621 5341
3 2812 1376 5341
3 1992 1988 2436
3 1992 1595 1994
3 2697 3135 5268
3 5342 2393 5207
3 1186 2393 5342
3 5343 5111 2797
3 1975 1715 1847
3 5343 2719 2718
3 2718 5111 5343
3 2797 2719 5343
3 4249 5344 5269
3 5269 4248 4249
3 5269 5344 5270
3 629 4194 3463
3 634 4205 3458
3 344 346 647
3 348 350 649
3 4247 5345 5273
3 5273 4246 4247
3 5273 5345 5274
3 3767 5346 4297
3 5346 3767 3766
3 4297 5346 49
3 5211 5338 5210
3 5211 5326 5338
3 4922 1267 4875
3 4666 1267 4922
3 4923 1243 4876
3 4667 1243 4923
3 5347 5348 5349
3 5350 5347 5349
3 5349 5348 5339
3 4906 4831 4755
3 1034 4831 4906
3 4831 1034 4979
3 4907 4833 4760
3 1046 4833 4907
3 4706 4705 3557
3 5323 5351 5324
3 4706 2086 1689
3 3557 2086 4706
3 4833 1046 4981
3 2118 5352 563
3 563 5352 5353
3 2492 4539 4522
3 4539 5354 4522
3 3962 5355 5356
3 5356 5357 401
3 5356 5355 5358
3 5358 5357 5356
3 1990 5359 2440
3 2440 5359 2437
3 5360 5361 3049
3 5248 28 29
3 2636 5362 2509
3 2509 5362 2511
3 2823 2292 4478
3 4405 5361 5360
3 2509 2508 2636
3 5363 5219 1274
3 5364 3721 3788
3 4476 2548 1790
3 5363 756 5219
3 2021 1711 2022
3 3721 3726 3788
3 1073 1072 1471
3 5219 756 4481
3 2184 5365 889
3 5366 5365 2184
3 1078 1077 1463
3 4539 4505 5367
3 2326 486 488
3 2326 263 486
3 2326 262 263
3 4324 4929 4325
3 5368 4327 4325
3 421 416 2065
3 4325 4929 5368
3 867 2590 4492
3 4492 1121 867
3 860 2497 4490
3 4490 1117 860
3 2410 2956 2955
3 1869 3047 2955
3 2955 3047 2410
3 2317 477 479
3 4593 264 265
3 4271 4357 701
3 2317 27 477
3 4271 1636 1952
3 2317 26 27
3 4292 3724 3723
3 3723 5369 4292
3 4292 5369 207
3 5370 3140 5371
3 5371 4061 5370
3 3142 3140 5370
3 4672 335 337
3 5372 2866 2457
3 1184 1346 1185
3 3673 2866 5372
3 578 1728 5373
3 5373 576 578
3 2307 4326 4442
3 4845 3756 4846
3 5374 1094 5375
3 5374 1623 2628
3 2628 1094 5374
3 4258 4822 4266
3 4258 4264 4805
3 4222 4821 4254
3 4222 4253 4801
3 5375 1623 5374
3 4324 4326 2307
3 3112 5376 5121
3 5121 5376 4687
3 5177 734 733
3 2049 467 1967
3 2023 3415 2797
3 733 2726 5177
3 3422 2448 1985
3 900 899 2014
3 900 2004 904
3 5376 3112 3876
3 3760 1367 5204
3 1367 3760 1365
3 4479 2289 2429
3 4479 4516 4480
3 3771 1363 5205
3 1363 3771 1361
3 5377 5378 1829
3 5379 5378 5377
3 949 1925 5380
3 5380 947 949
3 5381 5123 474
3 2054 471 1972
3 5381 5065 5123
3 4514 5065 5381
3 4477 2291 2430
3 1210 1490 1213
3 5291 3430 3429
3 3429 5160 5291
3 4742 3430 5291
3 1199 1485 1203
3 5290 3436 3435
3 3435 5156 5290
3 4477 5382 4478
3 4758 3436 5290
3 5383 4085 3625
3 4687 1651 5121
3 2277 4732 4849
3 2972 2419 2973
3 4849 4732 5384
3 95 4992 4942
3 5172 2643 5028
3 1110 4940 4942
3 4942 4992 1110
3 17 4990 4938
3 5172 3019 5077
3 1113 4936 4938
3 4938 4990 1113
3 2134 2408 2073
3 2057 4386 2055
3 1167 273 274
3 2132 2054 2052
3 1167 1169 4575
3 5077 2643 5172
3 289 3013 5171
3 1776 1640 4373
3 5171 288 289
3 4373 4368 1776
3 767 624 626
3 772 650 652
3 4373 1640 1960
3 1780 1638 4364
3 2130 2399 2079
3 1894 1895 4287
3 5364 5385 3683
3 210 1460 1462
3 5386 5387 5388
3 5389 4305 4307
3 1462 209 210
3 2343 4964 823
3 2128 2049 2047
3 823 1528 2343
3 2337 4969 833
3 833 1531 2337
3 3899 3898 4501
3 3450 5105 4873
3 4364 4359 1780
3 4873 5105 4794
3 4364 1638 1955
3 4873 4757 3450
3 3447 5119 4874
3 5390 4305 5389
3 4874 5119 4798
3 4874 4762 3447
3 3447 4762 855
3 5391 5392 1804
3 3450 4757 905
3 4792 5301 4860
3 4794 5301 4792
3 5393 5392 5391
3 4860 4793 4792
3 4795 5302 4856
3 4798 5302 4795
3 5394 2430 5395
3 4856 4796 4795
3 5395 1465 5394
3 743 5096 4407
3 52 3055 1926
3 747 5096 743
3 1926 51 52
3 2905 3666 3467
3 3899 3963 3822
3 2567 732 502
3 2493 5396 4661
3 1900 1901 4278
3 502 2568 2567
3 4661 5397 2493
3 4665 5397 4661
3 5286 4644 5398
3 5293 245 246
3 2157 1753 1752
3 1915 3898 1914
3 5293 920 903
3 903 245 5293
3 5292 166 167
3 1655 1663 1745
3 5292 923 907
3 948 1389 957
3 5301 4794 5104
3 5301 5206 4860
3 5302 4798 5118
3 5302 5208 4856
3 353 4253 3824
3 907 166 5292
3 356 4264 3833
3 131 2838 5197
3 5197 2838 1218
3 5287 4644 5286
3 5197 130 131
3 3447 650 5119
3 5118 4798 5119
3 3450 624 5105
3 5104 4794 5105
3 5238 4231 4342
3 4342 4231 4336
3 2776 5399 4414
3 1176 2470 1987
3 655 1014 4112
3 4954 5400 4955
3 4954 1735 1327
3 664 1007 4083
3 2153 1730 1729
3 4939 510 1005
3 1005 5053 4939
3 4943 504 1012
3 1012 5051 4943
3 1327 5400 4954
3 1600 1602 1739
3 192 193 580
3 4657 1130 4727
3 4727 1130 3255
3 4727 3026 4657
3 113 114 4498
3 4659 1125 4726
3 4726 1125 3250
3 1028 510 1113
3 1032 504 1110
3 4726 3023 4659
3 4414 5399 5181
3 4402 2424 4400
3 2586 3673 3568
3 5401 2424 4402
3 4563 2618 2641
3 2626 2627 1979
3 2580 2654 3558
3 2641 2618 59
3 5402 5403 5304
3 5402 5404 5403
3 4584 2790 2791
3 1106 1680 1845
3 1916 1678 1844
3 1051 1676 1843
3 4257 4266 695
3 4221 4254 708
3 1039 1674 1842
3 2638 2790 4584
3 1355 5206 1353
3 1351 5208 1349
3 5405 5404 5402
3 528 5402 5406
3 5405 528 5407
3 5402 528 5405
3 4592 2817 487
3 487 2817 488
3 2143 3069 4262
3 4262 4895 2143
3 4293 2575 4294
3 4263 4895 4262
3 2149 3072 4268
3 4268 4900 2149
3 4329 4900 4268
3 988 4618 5408
3 4618 3270 5408
3 964 4617 5409
3 4617 3275 5409
3 866 2092 2591
3 3946 5410 5411
3 5411 5410 2574
3 2459 1988 1993
3 1150 2647 4904
3 859 2091 2498
3 4904 2647 5412
3 409 3200 410
3 5413 5414 438
3 5413 440 1915
3 1196 1471 1072
3 1915 5414 5413
3 1198 1463 1077
3 438 440 5413
3 4860 1440 1439
3 409 2350 3200
3 409 2351 2350
3 31 2351 409
3 307 308 1439
3 5415 5416 5417
3 4856 1437 1436
3 70 71 1436
3 175 5143 1443
3 4813 5418 4814
3 1443 5143 1232
3 254 5142 1448
3 4813 1734 1914
3 1448 5142 1236
3 1914 5418 4813
3 2441 5228 5419
3 1435 4986 70
3 1435 1437 1351
3 4392 4391 5419
3 1351 4986 1435
3 1438 4989 307
3 1438 1440 1355
3 5419 5228 4392
3 1355 4989 1438
3 1014 655 1083
3 1007 664 1086
3 5419 4391 2441
3 4992 95 96
3 4992 1242 1110
3 4990 17 18
3 5415 5417 3181
3 4990 1246 1113
3 3157 1217 1216
3 1218 2840 1216
3 5415 57 5416
3 4595 4594 5420
3 5420 5421 4595
3 3158 3156 5262
3 874 2090 2562
3 1071 1240 1181
3 4595 5421 4603
3 1069 1238 1188
3 4507 3353 5422
3 882 2089 4462
3 5385 5423 3683
3 1215 1217 2788
3 4462 2089 2126
3 5334 5347 5277
3 5277 1483 5334
3 1135 1033 1031
3 5277 5347 5278
3 1133 1029 1027
3 2558 2264 1498
3 1498 2264 5424
3 4886 4888 5425
3 5425 4888 5426
3 5427 4085 5383
3 2657 1263 4568
3 5428 5429 3716
3 5430 5429 5428
3 5431 4000 5432
3 5431 5432 1732
3 5433 5434 5435
3 5436 5434 5433
3 5332 5437 5276
3 5276 1486 5332
3 5276 5437 4540
3 3407 518 3404
3 3404 518 3403
3 2938 2940 2072
3 2940 2004 2072
3 2072 2004 2071
3 5438 339 341
3 396 4246 4213
3 4837 4348 4836
3 4836 4348 4351
3 3154 538 3157
3 3154 3156 5439
3 4657 1131 1130
3 5196 2674 129
3 2637 2790 2638
3 129 130 5196
3 4659 1126 1125
3 2637 2639 2142
3 2142 2790 2637
3 4213 4336 4229
3 1513 1123 1122
3 4213 4246 4336
3 4410 805 804
3 5270 805 4410
3 1507 1120 1118
3 4410 325 5270
3 2213 458 457
3 460 2715 457
3 1953 915 914
3 399 259 260
3 1396 2557 1279
3 116 5123 5065
3 933 2559 914
3 5065 115 116
3 1387 2552 1291
3 396 23 24
3 914 2559 1953
3 1552 515 1550
3 2783 1551 1550
3 5263 2106 2625
3 1526 1525 1478
3 2625 3158 5263
3 5264 2106 5263
3 1523 1522 1477
3 388 101 102
3 2375 5440 5441
3 1111 1113 1246
3 5441 5440 5442
3 1109 1110 1242
3 1447 4799 353
3 4933 4705 5443
3 1447 253 254
3 1442 4803 356
3 1442 174 175
3 5443 4934 4933
3 5444 4409 554
3 5444 793 4409
3 391 180 181
3 5445 1926 3055
3 2210 4804 5382
3 5446 527 4763
3 2201 2076 2091
3 4921 527 5446
3 5447 5448 2914
3 5449 5448 5447
3 2686 5450 5451
3 5330 5451 5450
3 1875 1874 2408
3 2203 2078 2092
3 1865 471 2054
3 5100 5451 5330
3 1857 1856 2399
3 1848 467 2049
3 2205 2082 2090
3 5322 5280 3111
3 2207 2084 2089
3 5382 2211 2210
3 4702 4640 4553
3 5282 5280 5322
3 2610 1942 330
3 330 1942 1944
3 1175 4641 5452
3 1285 1280 4654
3 4654 1280 4655
3 5245 5108 3157
3 5246 5108 5245
3 3157 1216 5245
3 5452 4641 4445
3 399 4248 4216
3 1198 1530 4902
3 1367 1495 4902
3 1196 1533 4903
3 1363 1489 4903
3 2386 2211 5382
3 4216 4248 327
3 5170 3718 287
3 733 732 2567
3 287 288 5170
3 968 733 2567
3 967 733 968
3 208 209 1941
3 1234 4801 1236
3 1230 4805 1232
3 2274 2271 5453
3 4993 96 97
3 4993 1454 1242
3 4991 18 19
3 5453 5454 2274
3 4991 1456 1246
3 69 70 4986
3 1351 4984 4986
3 388 387 4202
3 306 307 4989
3 1355 4987 4989
3 4202 3053 4223
3 4504 2373 2533
3 5455 5456 5200
3 5200 5199 5455
3 5457 1040 5458
3 5200 5456 5207
3 4202 387 3053
3 5459 4818 548
3 5459 5460 4818
3 5328 5460 5459
3 4590 5461 4591
3 5461 4590 1688
3 4591 5461 4601
3 5462 5335 5463
3 3035 1754 3058
3 2949 5137 1928
3 4261 2285 2418
3 5463 5335 1748
3 2606 2134 2292
3 4267 2287 2420
3 1748 5464 5463
3 1787 5465 2517
3 2604 2132 2290
3 50 51 1927
3 5466 3725 1146
3 1146 3725 1493
3 2602 2130 2288
3 5143 175 176
3 5143 1450 1232
3 5142 254 255
3 2601 2128 2286
3 5142 1452 1236
3 1624 1626 1629
3 2517 5465 2520
3 2628 5467 5010
3 3953 1097 5010
3 1248 1021 1019
3 1250 1025 1023
3 1209 1155 1156
3 5468 2067 2749
3 1207 1153 1159
3 5010 5467 3953
3 955 3488 2857
3 4830 3488 955
3 5469 3390 5470
3 5471 5472 5283
3 2645 5473 2801
3 2801 5473 2803
3 5439 3156 3159
3 1671 5034 147
3 2801 2800 2645
3 4723 5283 5472
3 5137 5138 5474
3 1671 1634 1469
3 5474 5138 1662
3 1469 5034 1671
3 1672 5033 226
3 1672 1635 1459
3 2815 5187 5189
3 1459 5033 1672
3 2817 5187 2815
3 2817 4592 5187
3 5282 5475 5281
3 2104 2106 5281
3 5281 5475 2104
3 4984 1348 1424
3 1424 1423 4984
3 1424 1348 1426
3 1751 2479 4967
3 4987 1352 1420
3 1420 1419 4987
3 1420 1352 1422
3 2480 2479 1751
3 1074 1076 1531
3 1079 1081 1528
3 5476 5477 2977
3 5478 5477 5476
3 1900 4278 5479
3 1900 5479 2039
3 5479 4278 560
3 4569 2775 2653
3 838 4304 4613
3 4613 839 838
3 3031 2534 1627
3 4826 5480 2228
3 4825 5480 4826
3 4570 2775 4569
3 1837 2689 1835
3 1835 2689 2483
3 3533 3019 4838
3 4838 3019 3018
3 4838 3531 3533
3 3672 5481 3618
3 2628 1623 1622
3 1377 2627 1622
3 1161 1029 1133
3 4617 1131 4657
3 1158 1033 1135
3 3618 5481 5482
3 4618 1126 4659
3 4502 4551 4550
3 4502 429 434
3 4802 2214 3075
3 4802 4480 4516
3 4745 1650 3692
3 5483 4342 5444
3 3157 538 1217
3 5484 5485 5486
3 5487 5488 5486
3 5486 5485 5487
3 5483 5444 554
3 5444 4342 4335
3 391 390 4211
3 5470 5489 4363
3 4211 390 2122
3 1849 5490 1796
3 3483 3482 4471
3 578 2022 1710
3 1849 5491 5490
3 4613 194 195
3 1710 2022 1711
3 1710 1728 578
3 275 276 1849
3 4260 2937 5185
3 276 5491 1849
3 5492 1496 5462
3 1502 1496 5492
3 454 5493 2402
3 3405 2085 2929
3 459 5493 454
3 2402 2401 454
3 2436 1988 1990
3 1811 1705 1887
3 3415 2023 2062
3 5494 5042 5369
3 5387 5495 5388
3 2083 2084 2207
3 1816 1703 1885
3 5496 5497 5498
3 5369 5042 206
3 519 5499 5500
3 5501 519 5502
3 1388 587 1021
3 1390 592 1025
3 5487 5485 5503
3 5499 519 5501
3 3201 5325 411
3 4385 5145 3046
3 1225 2337 1531
3 5326 5325 3201
3 3054 5504 5148
3 5148 5504 5442
3 1228 2343 1528
3 1394 4822 1229
3 1392 4821 1233
3 1238 1069 1068
3 5244 2261 4531
3 5505 2592 5506
3 1240 1071 1070
3 2878 2592 5505
3 4346 849 846
3 1329 4769 5400
3 1382 1135 1134
3 1383 1133 1132
3 5507 844 842
3 5400 4769 5508
3 4911 5509 4909
3 1152 1153 1207
3 5259 840 829
3 1154 1155 1209
3 2081 2082 2205
3 4909 5509 3545
3 5510 551 5511
3 201 551 5510
3 4452 2575 4293
3 5512 5513 5250
3 5513 5512 5285
3 5287 5285 5512
3 2077 2078 2203
3 5514 5515 5516
3 5470 3390 5489
3 5517 1594 1735
3 4333 1594 5517
3 2075 2076 2201
3 1650 1652 5186
3 1049 1048 1171
3 1056 1055 1163
3 379 4898 1253
3 1652 1657 5186
3 383 4899 1255
3 5186 1657 137
3 5441 5518 5519
3 2865 4118 2652
3 5442 5518 5441
3 4804 2210 3073
3 4804 4478 5382
3 5520 5171 3013
3 4924 5171 5520
3 2668 2283 2293
3 1918 5521 2521
3 2521 5521 2525
3 2293 2745 2668
3 107 2745 2293
3 2462 5079 2107
3 5494 5522 5523
3 5523 5522 5524
3 5320 5321 5525
3 5260 5320 5525
3 5525 5321 844
3 68 69 4985
3 4984 1474 4985
3 305 306 4988
3 2867 4117 2866
3 4987 1476 4988
3 1428 1192 1237
3 1432 1183 1239
3 1373 1070 1204
3 1370 1068 1201
3 5525 844 5507
3 2414 3586 5328
3 190 3586 2414
3 5199 1300 5526
3 5526 1591 1664
3 5458 1040 4542
3 5526 1300 5527
3 5527 1591 5526
3 4523 4524 428
3 418 420 406
3 420 2113 406
3 406 2113 840
3 1256 1171 652
3 1254 1163 626
3 1430 1248 1247
3 1434 1250 1249
3 5404 3650 5403
3 5528 1479 4576
3 5403 3650 2646
3 1480 1479 5528
3 442 444 5321
3 444 2117 5321
3 1996 1883 1880
3 1998 1885 1884
3 3080 2858 5529
3 3082 2858 3080
3 1362 1415 1304
3 1366 1405 1284
3 5529 3081 3080
3 1369 4821 1392
3 1372 4822 1394
3 5321 2117 844
3 397 5530 5531
3 25 5530 397
3 24 25 397
3 400 5532 5533
3 261 5532 400
3 260 261 400
3 5459 3099 3098
3 547 3099 5459
3 1263 3143 5534
3 2002 1891 1888
3 2000 1887 1886
3 1890 1588 1895
3 5515 5535 5516
3 5496 5536 5497
3 2441 4391 2897
3 1882 1581 1901
3 5534 3143 5537
3 2244 2243 4417
3 830 4417 2243
3 2199 1952 2012
3 5022 5538 4299
3 2197 1955 2010
3 4304 193 194
3 4299 5538 4300
3 1466 1465 5395
3 2193 1960 2008
3 194 4613 4304
3 3405 4712 4708
3 3639 5539 5540
3 1912 4960 1150
3 2195 1963 2006
3 5541 2621 4967
3 1754 5267 1750
3 2480 1751 1750
3 2473 4389 2904
3 4390 3666 2904
3 5541 2114 2542
3 2542 2621 5541
3 581 580 193
3 2666 2376 2375
3 5325 5248 411
3 5248 29 411
3 4944 4428 4429
3 4944 4429 4426
3 847 4426 4429
3 407 406 840
3 193 4304 581
3 5542 2329 2331
3 5542 5543 5544
3 5544 2329 5542
3 2331 5543 5542
3 5268 1142 1162
3 5545 5546 5547
3 5130 5062 1450
3 1036 864 1120
3 5548 5549 3930
3 5126 5059 1452
3 5069 97 98
3 999 872 1123
3 5069 5015 1454
3 5068 19 20
3 5068 5013 1456
3 988 876 1126
3 407 840 5259
3 5371 3223 5550
3 1245 1246 1456
3 964 884 1131
3 1241 1242 1454
3 5550 3223 3225
3 1162 2697 5268
3 1319 1318 1727
3 605 4063 4013
3 67 68 5029
3 1474 1574 5029
3 304 305 5030
3 1476 1578 5030
3 1235 1236 1452
3 1231 1232 1450
3 5551 5552 5540
3 1674 1283 1282
3 1676 1293 1292
3 2265 2259 4422
3 1139 359 1186
3 1139 1138 2588
3 865 1123 872
3 1678 1303 1302
3 1680 1313 1312
3 2588 359 1139
3 858 1120 864
3 843 4422 2259
3 5553 4483 4482
3 5549 5554 3930
3 873 1126 876
3 1404 1192 1428
3 1325 1248 1430
3 1414 1183 1432
3 881 1131 884
3 1330 1250 1434
3 146 147 5034
3 1469 1576 5034
3 225 226 5033
3 1459 1579 5033
3 1476 4987 1419
3 1474 4984 1423
3 892 5365 2951
3 1468 1565 1469
3 1308 1307 1722
3 1298 1297 1720
3 1458 1559 1459
3 2951 5365 4885
3 2325 5533 2326
3 2816 5533 2325
3 2640 4563 2641
3 1266 1068 1370
3 5192 2640 5232
3 5192 4563 2640
3 1269 1070 1373
3 2316 5531 2317
3 1437 4856 5208
3 1288 1287 1715
3 5208 1351 1437
3 1440 4860 5206
3 5206 1355 1440
3 4915 5555 4918
3 4915 4914 5556
3 5556 5555 4915
3 2835 5531 2316
3 4015 5370 4061
3 5540 5539 5551
3 1911 5445 1912
3 5445 4960 1912
3 4982 287 3718
3 3718 3717 4982
3 286 287 4982
3 4425 1127 2312
3 4425 4338 2066
3 2066 1127 4425
3 4318 5557 5558
3 689 697 5285
3 4270 5557 4318
3 1959 1641 1819
3 5558 4319 4318
3 4015 3142 5370
3 5559 5560 5561
3 1589 1394 1393
3 1582 1392 1391
3 2389 5344 2824
3 5559 1915 1733
3 1569 1382 1385
3 1572 1383 1384
3 2396 5345 2837
3 1733 5560 5559
3 1926 5445 1911
3 1510 1726 1725
3 2971 2973 5562
3 5562 2973 2966
3 415 4282 416
3 1503 1719 1718
3 2326 5533 5532
3 2993 416 4282
3 2407 2408 2134
3 4229 4336 4231
3 3013 289 290
3 5279 2231 4401
3 2404 2054 2132
3 4401 2231 4403
3 1425 1426 1564
3 1421 1422 1562
3 2398 2399 2130
3 5426 1783 1786
3 1460 210 211
3 1786 2518 5426
3 2395 2049 2128
3 2276 4848 5563
3 2277 4848 2276
3 5563 2273 2276
3 262 2326 5532
3 3055 52 53
3 2317 5531 5530
3 26 2317 5530
3 1708 5564 5565
3 5565 5564 5508
3 428 4524 434
3 4770 4669 5565
3 5565 4669 1706
3 4987 1355 1352
3 4526 2453 2452
3 4984 1351 1348
3 1463 1198 1538
3 1471 1196 1535
3 5566 5567 891
3 891 5567 2471
3 5568 5569 5482
3 5022 5569 5568
3 5450 2686 4210
3 1962 1643 1820
3 1954 1639 1821
3 1951 1637 1822
3 3945 3032 5570
3 5570 3032 1627
3 3068 3066 4790
3 4790 3066 122
3 2969 5509 5001
3 5571 3770 5001
3 5001 5509 5571
3 5572 1551 5573
3 5573 1551 2783
3 411 410 3201
3 5546 5574 5547
3 4886 993 5575
3 1599 1698 1773
3 1841 1696 1772
3 2292 2134 2133
3 1654 1694 1775
3 1839 1692 1774
3 1691 1692 1839
3 2290 2132 2131
3 5575 2233 4886
3 1693 1694 1654
3 1695 1696 1841
3 4571 5196 1218
3 1697 1698 1599
3 2288 2130 2129
3 4571 2675 2674
3 2674 5196 4571
3 4736 5576 1326
3 3773 3027 3774
3 2286 2128 2127
3 5577 5576 4736
3 2816 2325 2817
3 5578 2162 5579
3 2773 1816 1885
3 2817 2325 488
3 1856 1816 2773
3 5578 2496 2162
3 2805 1811 1887
3 1874 1811 2805
3 5396 4522 5354
3 5354 4680 5396
3 2836 5327 2834
3 5327 5211 2834
3 5580 754 5363
3 1847 1715 465
3 1855 1720 1717
3 2405 754 5580
3 5313 5581 5314
3 1864 1722 469
3 4748 2138 2699
3 4748 3669 2136
3 2136 2138 4748
3 5582 5581 5313
3 1873 1727 1724
3 4593 2843 2786
3 265 2843 4593
3 5583 3339 5584
3 5585 5586 5587
3 5586 5588 5587
3 5589 5590 5591
3 5590 5592 5591
3 4886 5425 993
3 5593 5515 5514
3 993 3151 994
3 993 5425 3151
3 4436 1655 2155
3 4845 3235 4882
3 3995 3024 4215
3 5594 5595 5596
3 4864 4882 3235
3 2212 4882 4864
3 5595 5597 5596
3 5284 1289 2553
3 1284 1405 1402
3 2553 1289 1291
3 1294 4898 1517
3 1304 1415 1412
3 1314 4899 1520
3 3650 2610 2646
3 1422 1477 1522
3 1426 1478 1525
3 2838 2840 1218
3 2646 2610 217
3 4302 3589 5598
3 2838 131 132
3 1536 1489 1609
3 1595 1992 2434
3 2434 2431 1595
3 1539 1495 1604
3 2434 1992 2436
3 5109 5599 5262
3 3877 5599 5109
3 5262 3155 5109
3 5598 3589 3588
3 4272 4230 4231
3 4431 1600 2154
3 5573 5600 2236
3 2783 5600 5573
3 5501 5502 5601
3 4218 98 99
3 4218 4224 5015
3 5593 5602 5515
3 5601 3691 5501
3 5601 5502 5244
3 5603 4639 5604
3 5604 4639 3765
3 3765 3764 5604
3 5605 4703 5606
3 5607 1910 1909
3 1909 2522 5607
3 5087 4290 5062
3 4226 20 21
3 5606 4703 1682
3 1682 5367 5606
3 4226 4230 5013
3 5514 5516 5608
3 849 597 847
3 5609 5610 5611
3 5085 4281 5059
3 5432 5560 1732
3 844 2117 843
3 5584 3339 5612
3 5613 5560 5432
3 1516 1428 1644
3 840 2113 830
3 1636 1637 1951
3 5516 5614 5608
3 1518 1430 1646
3 1519 1432 1649
3 1521 1434 1653
3 5615 5616 5617
3 510 4939 4936
3 4936 1113 510
3 504 4943 4940
3 5615 5618 5616
3 4940 1110 504
3 1527 1492 1611
3 1524 1500 1606
3 5619 5620 5621
3 145 146 4236
3 1576 4319 4236
3 66 67 4239
3 1574 4317 4239
3 303 304 4242
3 1578 4315 4242
3 224 225 4245
3 5622 5623 5609
3 1579 1459 1559
3 1578 1476 1475
3 1574 1474 1473
3 1576 1469 1565
3 272 5624 4291
3 4470 3192 4528
3 4575 2682 4291
3 4291 5624 4575
3 5625 461 2536
3 5626 5627 5628
3 1638 1639 1954
3 1759 461 5625
3 1642 1643 1962
3 1640 1641 1959
3 3033 3032 5629
3 5629 3032 3945
3 5630 5125 4643
3 394 404 2392
3 2392 395 394
3 5627 5631 5628
3 5632 4137 722
3 5125 5633 4643
3 2978 5633 5125
3 2663 36 37
3 4955 5564 5634
3 5634 5564 710
3 1563 1564 1641
3 1566 1472 1643
3 1561 1562 1639
3 1560 1464 1637
3 1451 1452 5059
3 1455 1456 5013
3 1453 1454 5015
3 1449 1450 5062
3 1604 1495 1494
3 1606 1500 1499
3 1609 1489 1488
3 1611 1492 1491
3 2252 808 807
3 810 3773 807
3 2972 2971 5057
3 807 3773 2252
3 3691 5601 4744
3 4744 5601 1645
3 4316 4370 5635
3 1776 4370 4316
3 5635 4317 4316
3 4314 4361 5636
3 1780 4361 4314
3 5636 4315 4314
3 128 129 2674
3 2228 5637 5011
3 3488 4830 5011
3 5011 5637 3488
3 2247 819 818
3 827 3995 818
3 818 3995 2247
3 710 712 5634
3 1285 5634 712
3 1675 1676 1051
3 5294 5638 5639
3 5639 5638 4885
3 5640 5641 5642
3 5642 5641 5099
3 4332 5517 4207
3 4333 5517 4332
3 5643 5569 5485
3 5482 5569 5643
3 1673 1674 1039
3 1679 1680 1106
3 5488 2605 5486
3 5486 2605 5484
3 5415 3181 3180
3 1553 5562 5193
3 1677 1678 1916
3 1590 5562 1553
3 5193 1554 1553
3 3180 5644 5415
3 5415 5644 56
3 4528 3192 2883
3 5619 5645 5620
3 3408 3558 2654
3 5607 5492 5463
3 5463 5492 5462
3 5463 5464 5607
3 4699 3004 3235
3 1885 1703 1702
3 4699 4846 2532
3 4343 1328 5646
3 5621 3452 5619
3 2068 5647 2070
3 4734 5647 2068
3 1114 689 5285
3 1887 1705 1704
3 1726 1510 1705
3 5646 1328 1594
3 2569 1124 4489
3 875 2561 4489
3 4489 1124 875
3 2570 1129 4488
3 4210 2684 2712
3 4488 1129 883
3 2684 4210 2686
3 3468 3666 5220
3 5220 3666 4390
3 5367 5648 4539
3 4539 5648 5354
3 2646 5304 5403
3 5304 2646 218
3 4015 4014 1846
3 3406 3558 3408
3 1784 1316 5649
3 2457 2411 5372
3 5372 2411 4486
3 1719 1503 1703
3 5649 1316 1107
3 4486 3673 5372
3 2685 2776 2683
3 2776 2685 5399
3 4594 2452 4538
3 2683 2776 186
3 5261 3619 2651
3 5195 3619 5261
3 5650 5651 5652
3 5640 5638 5653
3 2400 2760 2327
3 5653 5638 5294
3 2560 4870 4714
3 4714 2469 2560
3 2600 2758 2102
3 4216 4265 4217
3 4839 5603 3531
3 4839 3018 3344
3 1107 2576 5649
3 4265 4216 5086
3 4213 4227 4214
3 4229 4228 4213
3 273 1167 5624
3 5624 1167 4575
3 5624 272 273
3 1464 1463 1537
3 1562 1422 1548
3 4227 4213 4228
3 1472 1471 1534
3 1564 1426 1547
3 3452 5654 5619
3 793 4621 4409
3 4409 4621 2569
3 5655 5656 5657
3 5620 3787 5621
3 5088 4323 4290
3 5657 5656 1065
3 5658 5659 5660
3 5620 5661 3787
3 5662 5659 5658
3 5086 4321 4281
3 2537 1626 1625
3 5663 4251 5664
3 1627 2534 1625
3 2216 4884 4797
3 2603 2761 4546
3 600 601 4546
3 4547 4548 5665
3 5513 5665 4548
3 5666 5667 5668
3 5471 5668 5667
3 1984 2443 5669
3 5669 2443 5670
3 2409 2763 2120
3 5671 5026 5488
3 439 5026 5671
3 4887 2233 1971
3 2630 627 3691
3 5672 4959 5673
3 4723 5472 5672
3 5651 5674 5652
3 4886 2233 4887
3 3109 5675 5676
3 1971 4889 4887
3 2486 4440 2456
3 5246 2840 5677
3 5677 2840 2839
3 3202 5082 5337
3 5678 5679 5680
3 5337 5082 5681
3 5681 5339 5337
3 1540 2530 299
3 4010 4434 4524
3 2530 298 299
3 4820 2278 3413
3 2034 4896 2031
3 5682 3978 5683
3 2833 2032 2031
3 2031 4896 2833
3 2281 2278 4820
3 1613 1313 1680
3 3109 3096 5675
3 5101 5100 5330
3 1641 1564 1630
3 1615 1303 1678
3 1643 1472 1631
3 1639 1562 1632
3 1637 1464 1633
3 4533 5684 4534
3 4534 5684 4590
3 4458 4531 2261
3 5684 4533 5443
3 1617 1283 1674
3 2045 4901 2042
3 2831 2043 2042
3 2042 4901 2831
3 1620 1293 1676
3 5685 2749 3045
3 688 535 697
3 2938 2072 2482
3 2482 2939 2938
3 5012 4274 1583
3 4877 537 2167
3 5468 2749 5685
3 5012 5013 4230
3 3978 3979 5683
3 4340 4547 452
3 182 4547 4340
3 4279 5059 4281
3 5014 4283 1584
3 5665 452 4547
3 4547 182 183
3 4341 5666 449
3 5014 5015 4224
3 5682 5686 5687
3 4288 5062 4290
3 446 450 4525
3 4526 4603 4525
3 2246 5688 2922
3 2922 5688 2924
3 2922 2917 2246
3 103 5666 4341
3 5668 449 5666
3 5666 103 104
3 4468 4529 5689
3 35 36 4233
3 4470 4529 4468
3 413 4449 414
3 414 4449 2110
3 3533 5446 5076
3 5076 5446 4763
3 5076 5077 3533
3 1345 4286 5690
3 5270 2389 805
3 5690 4286 4322
3 5270 5344 2389
3 5274 2396 794
3 1610 1611 1698
3 1608 1609 1696
3 1605 1606 1694
3 1603 1604 1692
3 5274 5345 2396
3 5691 5641 5692
3 5438 5641 5691
3 5693 1684 5694
3 1690 1684 5693
3 1917 599 1731
3 4467 4277 4320
3 560 4277 4467
3 147 148 1223
3 226 227 1226
3 699 1579 700
3 4315 1578 1577
3 4317 1574 1573
3 4521 2195 2194
3 4319 1576 1575
3 2511 5362 5695
3 5695 5362 5696
3 2245 2193 2192
3 5572 2608 5697
3 5697 2608 2502
3 804 4619 4411
3 2270 2197 2196
3 4411 4619 2570
3 4678 2141 4679
3 4678 2966 2973
3 2357 2199 2198
3 4799 4801 4253
3 4253 353 4799
3 4803 4805 4264
3 2973 2141 4678
3 4264 356 4803
3 5698 2093 5420
3 3871 3870 3389
3 4590 2455 4534
3 3198 2093 5698
3 5394 4477 2430
3 4558 5201 3477
3 4514 4498 5064
3 2943 644 643
3 645 2979 643
3 3475 4934 4556
3 4556 4934 4533
3 4556 5203 3475
3 5686 5699 5687
3 4827 4914 4825
3 5064 4498 114
3 4827 4830 5556
3 5700 5701 5702
3 4319 5558 4234
3 5556 4914 4827
3 4317 5635 4237
3 5701 5703 5702
3 5394 5382 4477
3 4315 5636 4240
3 5394 2386 5382
3 5700 5704 5705
3 699 5706 4243
3 1506 1373 1371
3 1501 1370 1368
3 1634 1531 1076
3 5707 2271 5563
3 1076 1469 1634
3 1635 1528 1081
3 3533 5077 3019
3 1081 1459 1635
3 5453 2271 5707
3 1985 2448 1984
3 2251 5708 2907
3 2907 5708 2908
3 2907 2902 2251
3 5709 3197 3717
3 5710 3197 5709
3 3655 5711 5712
3 5712 5711 2394
3 2206 2207 963
3 5335 2263 2019
3 1692 1604 1616
3 2200 2201 1035
3 1694 1606 1619
3 1696 1609 1614
3 1698 1611 1612
3 2202 2203 998
3 4211 4259 4212
3 3389 3870 5489
3 2204 2205 987
3 5462 2263 5335
3 4259 4211 5088
3 4202 4219 4203
3 4223 4220 4202
3 4219 4202 4220
3 5405 5407 5713
3 5713 5407 4346
3 5407 849 4346
3 5603 4839 5714
3 5714 4839 3344
3 3960 1652 4685
3 1652 3960 1657
3 4685 1652 1651
3 5715 1965 4565
3 1966 1965 5715
3 5716 5717 5718
3 281 5717 5716
3 5318 5378 5719
3 5719 5378 5379
3 4398 5336 5720
3 5720 5336 5721
3 2429 1000 5528
3 5528 1000 999
3 4414 4548 4413
3 4548 4414 5250
3 2397 1200 1098
3 1098 1200 1099
3 5315 5392 5722
3 5722 5392 5393
3 2390 1211 1103
3 1103 1211 1104
3 2284 5667 2282
3 5723 5724 3585
3 4473 445 2354
3 2488 445 4473
3 2354 2196 4473
3 4837 1374 4348
3 4348 1374 1376
3 4472 335 2356
3 2486 335 4472
3 2356 2198 4472
3 5704 5725 5705
3 2791 1143 1142
3 5705 5701 5700
3 492 4925 5726
3 5705 5727 5701
3 2058 5420 2056
3 5728 4636 5729
3 2093 2057 2056
3 2056 5420 2093
3 5726 4925 5149
3 1685 4950 4952
3 4952 1686 1685
3 4636 4698 5729
3 3422 1985 4572
3 5728 5730 5731
3 4572 2680 3422
3 4572 1985 4154
3 4537 5698 4538
3 4538 5698 4594
3 4958 4357 4944
3 4309 5732 5733
3 5733 5732 5734
3 5735 1259 2989
3 4474 5397 2349
3 2491 5397 4474
3 2349 2192 4474
3 2848 1259 5735
3 5736 5737 5738
3 5739 3169 3171
3 3643 3169 5739
3 5740 4068 5741
3 3169 437 3170
3 5723 5742 5724
3 4544 5743 5744
3 2357 1058 4428
3 3644 437 3169
3 5502 2261 5244
3 1127 455 5745
3 5745 455 2401
3 313 314 5289
3 898 972 5289
3 5289 314 898
3 76 77 5288
3 913 983 5288
3 5288 77 913
3 4369 4368 5311
3 4369 2112 4371
3 2984 5711 5746
3 5746 5711 3654
3 423 4455 424
3 5740 4070 4068
3 424 4455 2119
3 5747 128 2673
3 127 128 5747
3 2873 5748 323
3 323 5748 3880
3 5749 4249 5533
3 4249 400 5533
3 5750 5751 5752
3 4864 3073 2210
3 5751 5753 5752
3 5754 4247 5531
3 4091 3861 5750
3 3235 3073 4864
3 5443 4533 4934
3 4247 397 5531
3 4358 4944 4357
3 4958 2119 5755
3 443 4416 444
3 444 4416 2116
3 419 4420 420
3 4360 4359 5306
3 4360 2116 4362
3 420 4420 2112
3 4091 4172 3861
3 5756 5757 5758
3 5759 4681 2718
3 4766 4681 5759
3 5757 5760 5758
3 5402 5304 5406
3 5756 5761 5762
3 5304 219 5406
3 5761 3944 5762
3 5763 5764 5765
3 3880 1983 4715
3 5766 2691 3569
3 5763 5767 5764
3 4486 2691 5766
3 1700 4506 1701
3 1700 582 583
3 5483 4273 5238
3 556 4273 5483
3 5768 5769 5763
3 65 66 4238
3 5770 3590 5644
3 5644 3590 55
3 302 303 4241
3 4868 4506 4869
3 4868 1991 1701
3 1701 4506 4868
3 5769 5767 5763
3 4668 4672 337
3 5771 5772 5773
3 336 4670 337
3 5247 1749 1934
3 5247 3058 1754
3 1754 1749 5247
3 5771 5774 5772
3 5437 5775 5776
3 5776 5775 5777
3 5773 5778 5779
3 528 529 5407
3 5778 5780 5779
3 5407 529 849
3 5773 5772 5778
3 5398 1114 5286
3 1114 5398 4612
3 144 145 4235
3 2046 1411 1410
3 1416 2030 1410
3 1410 2030 2046
3 5398 5633 1277
3 1277 4612 5398
3 2430 1037 5395
3 5663 4808 4251
3 5395 1037 1036
3 5781 5782 5324
3 1511 5233 62
3 5782 5783 5324
3 5233 61 62
3 535 688 1333
3 5784 5785 5781
3 537 4877 2720
3 5604 3532 3531
3 5784 5786 5785
3 3764 3532 5604
3 2985 3224 3227
3 2999 5787 3227
3 3227 5787 2985
3 2873 333 5788
3 5788 333 268
3 5789 4604 4606
3 5790 1830 2659
3 5043 5791 5726
3 5792 4022 5793
3 5726 5791 492
3 4022 5794 5793
3 5726 5149 5043
3 4165 4155 5795
3 5541 4968 2118
3 4165 5796 4155
3 2118 2114 5541
3 4183 5797 5795
3 4967 4968 5541
3 4183 5798 5797
3 3633 2650 2649
3 5799 5800 5801
3 1149 1151 2649
3 2649 1151 3633
3 5802 1830 5790
3 5803 1809 2661
3 5804 1809 5803
3 2529 2530 5261
3 5260 5261 2530
3 5800 5725 5801
3 1911 1913 3767
3 3767 1927 1911
3 2530 5320 5260
3 1322 4767 5805
3 5805 4767 4897
3 5806 5807 5808
3 5806 5780 5807
3 4878 5809 5810
3 1749 1751 5811
3 5801 5704 5808
3 5811 1934 1749
3 2044 1446 1445
3 1457 2041 1445
3 5801 5725 5704
3 1445 2041 2044
3 5810 5809 2387
3 4294 496 5812
3 4192 4105 5813
3 223 224 4244
3 5812 496 2410
3 5814 5120 5815
3 4192 3819 4105
3 5815 5120 1651
3 5813 5816 5817
3 4704 5818 5819
3 5816 5820 5817
3 5818 4704 5605
3 5819 5818 3756
3 5818 4846 3756
3 5821 5822 3599
3 5823 5824 5789
3 5825 5826 5827
3 5828 5822 5821
3 5826 5829 5827
3 4552 4638 4550
3 4552 4553 4640
3 5830 5317 4452
3 1940 3725 3724
3 3724 1941 1940
3 4128 5831 5825
3 1493 3725 1940
3 4128 5661 5831
3 5832 4120 5833
3 3089 5317 5830
3 3201 3202 5337
3 5834 5835 5836
3 5837 5838 1169
3 5839 5838 5837
3 5840 5048 3171
3 294 5048 5840
3 5841 5842 5770
3 5843 4017 5844
3 5743 5845 5744
3 5846 5683 5847
3 5848 5842 5841
3 5350 5849 5850
3 5850 5849 4883
3 5683 3979 5847
3 137 138 5186
3 5827 5851 5846
3 5444 794 793
3 5274 794 5444
3 5827 5829 5851
3 5852 4080 5853
3 5854 2548 5855
3 5852 4084 4080
3 5855 2548 4476
3 5856 5857 5853
3 5858 2273 2272
3 5856 5859 5857
3 2272 3078 5858
3 5860 4096 5852
3 4096 4084 5852
3 5246 3877 5108
3 3155 3157 5108
3 2687 5861 2483
3 622 5861 2687
3 4504 5606 4505
3 2533 5606 4504
3 5862 3891 5860
3 5862 5794 3891
3 5367 4505 5606
3 3090 3106 2051
3 4818 5863 1699
3 2051 3106 110
3 5737 5864 5738
3 1699 5863 582
3 5865 5737 5866
3 5867 5868 3957
3 2097 2235 2095
3 2095 2235 4570
3 5868 3397 3957
3 3674 2340 2339
3 5869 4635 5867
3 2341 2248 2339
3 5824 4604 5789
3 1358 1628 5454
3 4383 4287 1345
3 5454 2537 2893
3 5869 4698 4635
3 4635 5868 5867
3 5454 1628 2537
3 4381 4284 417
3 2099 2100 2784
3 2784 2100 5777
3 4240 4415 4241
3 4660 4665 4661
3 4635 5870 5868
3 5396 4663 4661
3 5871 5872 5873
3 2709 4385 4397
3 5872 5679 5873
3 4397 2931 2709
3 5874 5875 4956
3 4397 4385 4386
3 5874 5876 5875
3 4459 864 1035
3 859 864 4459
3 3402 5619 3400
3 1035 2201 4459
3 4460 872 998
3 5619 5654 3400
3 866 872 4460
3 3402 1923 5877
3 998 2203 4460
3 1923 4557 5877
3 3675 2335 2334
3 2336 2253 2334
3 2149 5174 4779
3 5878 4718 5879
3 4718 3681 5879
3 5878 5705 5880
3 4779 5174 3478
3 4779 3072 2149
3 5705 5725 5880
3 2143 5179 4771
3 4771 5179 3476
3 5865 5864 5737
3 4771 3069 2143
3 5881 5882 5864
3 5219 4481 5103
3 4415 4240 5636
3 4241 4415 302
3 5729 5883 5884
3 5729 4698 5883
3 5885 5736 5886
3 4237 4419 4238
3 5736 5887 5886
3 5888 4043 5889
3 4043 4045 5889
3 4181 5890 5891
3 4181 3892 5890
3 4419 4237 5635
3 5892 5893 5740
3 336 338 4527
3 5893 4070 5740
3 4238 4419 65
3 5779 5806 5892
3 5779 5780 5806
3 5894 5895 5896
3 5894 5897 5895
3 5898 5899 2927
3 5225 3790 5900
3 5225 5231 3790
3 5900 5782 5216
3 5782 5901 5216
3 2927 5899 459
3 2927 2926 5898
3 2710 508 507
3 5902 5903 5894
3 512 2713 507
3 5561 5414 5559
3 5559 5414 1915
3 5748 2873 5904
3 5748 4154 3880
3 5903 5897 5894
3 2722 2723 4710
3 5905 5906 5902
3 5907 5908 1138
3 5905 5909 5906
3 5910 5908 5907
3 5911 5912 5913
3 5911 5914 5912
3 5408 5915 988
3 5880 5800 5913
3 5880 5725 5800
3 4578 5915 5408
3 1341 1203 1340
3 1099 1203 1341
3 5916 5917 5918
3 5917 5919 5918
3 5920 5921 5922
3 4380 4275 556
3 4656 2959 3275
3 4656 4657 3026
3 4658 2964 3270
3 4658 4659 3023
3 5828 5089 5822
3 5920 5923 5921
3 5922 5792 5885
3 5792 5924 5885
3 2957 3599 5822
3 5822 5089 2957
3 5828 2169 5089
3 5835 5925 5836
3 5408 1853 4578
3 5589 5926 5927
3 5928 5929 5930
3 5409 5931 964
3 5929 5932 5930
3 5847 4079 5933
3 4580 5931 5409
3 5409 1862 4580
3 5847 3979 4079
3 5933 5934 4127
3 4243 4454 4244
3 1336 1213 1335
3 5934 4129 4127
3 1104 1213 1336
3 5935 4051 4132
3 4132 4051 3855
3 5936 4162 5937
3 4454 4243 5706
3 4227 21 22
3 4244 4454 223
3 4234 4448 4235
3 4448 4234 5558
3 4162 4161 5937
3 5218 4182 5938
3 4235 4448 144
3 5218 4041 4182
3 5714 4549 4638
3 5939 4549 5714
3 5938 4125 5221
3 5940 5475 5358
3 4125 5223 5221
3 5940 2463 2104
3 5941 5942 5943
3 5941 5944 5942
3 2104 5475 5940
3 5358 2463 5940
3 5833 4092 5945
3 5946 5947 3057
3 5833 5948 4092
3 4219 99 100
3 5945 5949 4585
3 5949 4587 4585
3 5950 4047 5951
3 5950 4048 4047
3 5694 2020 5952
3 5951 5953 5954
3 5953 5699 5954
3 5955 5956 5957
3 5956 5958 5957
3 5959 5960 5961
3 5952 2020 2022
3 5952 575 5694
3 5960 5962 5961
3 5848 5947 5946
3 447 4683 5647
3 446 4683 447
3 4675 447 5647
3 5963 5964 5965
3 5963 5966 5964
3 5965 3768 5967
3 3768 5968 5967
3 4675 4677 447
3 4265 257 258
3 3124 3123 5821
3 5821 3123 3483
3 5967 5963 5965
3 5969 5970 5971
3 5967 5972 5963
3 5589 5973 5926
3 5974 5970 5969
3 5882 5975 5864
3 4377 2195 4608
3 5253 5866 5793
3 449 389 4341
3 5866 5924 5793
3 5976 4377 4608
3 4608 4607 5976
3 452 392 4340
3 4608 2195 4521
3 1712 1714 5977
3 5978 5979 5980
3 4523 5432 4000
3 5981 5982 5977
3 428 5432 4523
3 3180 3179 5841
3 5841 3179 3712
3 1598 1597 2305
3 5634 4953 4955
3 1285 4953 5634
3 5983 3638 2460
3 5984 5985 5986
3 2460 2445 5983
3 5985 5760 5986
3 5978 5987 5979
3 2460 3638 2465
3 5988 5387 5989
3 5990 5991 5816
3 5991 5820 5816
3 502 732 497
3 497 732 4446
3 5992 5993 5994
3 2305 1597 2980
3 5993 5995 5994
3 5996 5997 5998
3 5561 430 5999
3 5999 430 5939
3 430 429 5939
3 5996 6000 5997
3 430 5561 5613
3 6001 6002 6003
3 4259 178 179
3 5396 2493 4522
3 6002 6004 6003
3 6005 6006 6001
3 5259 5190 407
3 407 5190 5192
3 5988 5495 5387
3 2254 5840 3170
3 293 5840 2254
3 5994 6007 6008
3 5994 5995 6007
3 519 520 5502
3 6008 6009 5905
3 5502 520 2261
3 6009 5909 5905
3 6010 6011 6012
3 4000 5431 3998
3 3998 5431 4616
3 6011 5767 6012
3 5431 2990 4616
3 4719 5912 6010
3 6013 6014 6015
3 4719 4879 5912
3 6016 6017 4385
3 6018 6019 6020
3 6021 6017 6016
3 6022 6023 6024
3 6025 741 4406
3 6018 6026 6027
3 1925 3633 6028
3 6026 6029 6027
3 6030 5845 6031
3 6030 5744 5845
3 3634 5380 6028
3 6032 5883 5869
3 6028 3633 3634
3 5883 4698 5869
3 6028 5380 1925
3 2021 6033 4301
3 4301 6033 5145
3 6032 6034 6035
3 4797 3075 2214
3 926 741 6025
3 4390 571 5220
3 4376 6036 5557
3 5220 571 4819
3 6023 6037 6024
3 2114 2108 2542
3 2348 6038 4444
3 4444 6038 4442
3 4444 4445 2348
3 6039 6040 6020
3 2871 4977 4980
3 6041 6042 6043
3 6044 5817 6045
3 5817 5820 6045
3 2872 4977 2871
3 4980 2868 2871
3 6042 6046 6043
3 6047 6048 6049
3 6050 6051 6052
3 6036 4376 5976
3 6050 6053 6051
3 6036 6054 5557
3 6055 5879 6056
3 6036 2110 6054
3 6055 5727 5879
3 5690 4322 1332
3 6057 6058 5659
3 1332 1334 5690
3 6058 6059 5659
3 456 458 2111
3 6060 6061 6062
3 456 2108 460
3 722 724 5632
3 6063 6064 3347
3 3347 6065 3348
3 5212 2189 1147
3 5214 2189 5212
3 1147 5213 5212
3 6066 4040 6067
3 4554 5404 4555
3 4040 6068 6067
3 4554 1942 3650
3 3650 5404 4554
3 5690 1334 1345
3 436 3170 437
3 3644 4673 437
3 6069 6070 6066
3 5306 4365 2258
3 6069 6071 6070
3 6072 6073 6074
3 1479 1903 4577
3 4577 4576 1479
3 6072 6075 6073
3 4577 1903 2382
3 4461 876 987
3 874 876 4461
3 987 2205 4461
3 4463 884 963
3 6074 6073 6076
3 882 884 4463
3 963 2207 4463
3 2258 4365 2197
3 6073 6077 6076
3 5311 4374 2242
3 5996 3349 6078
3 2242 4374 2193
3 2242 2244 5311
3 2242 2193 2245
3 6079 6080 3711
3 5996 6081 3349
3 6082 6083 6084
3 6085 6086 6087
3 6088 6089 6069
3 5519 6080 6079
3 6089 6071 6069
3 3711 5113 6079
3 5957 6090 6088
3 6091 6092 6093
3 6093 6092 1935
3 2862 6094 6095
3 5957 5958 6090
3 6096 5799 6097
3 5799 6098 6097
3 2258 2265 5306
3 6084 6099 6096
3 2258 2197 2270
3 6084 5618 6099
3 6095 6094 134
3 6100 4946 4815
3 6101 2656 2662
3 5977 1714 5981
3 4679 2656 6101
3 6102 6103 6100
3 2533 2532 5818
3 6086 6104 6087
3 2841 6105 5721
3 2540 6105 2841
3 5721 2842 2841
3 6106 6107 6108
3 5818 5605 2533
3 6107 5962 6108
3 5818 2532 4846
3 5758 5985 6109
3 1597 5295 6110
3 5758 5760 5985
3 6110 5295 2753
3 6111 5771 6112
3 6113 1470 1466
3 6111 5774 5771
3 1507 1470 6113
3 6114 6111 6112
3 720 6115 6116
3 6114 6117 6111
3 6013 6015 5543
3 6118 6119 6120
3 6121 6122 6123
3 6118 6075 6119
3 476 5381 474
3 5123 475 474
3 6116 6115 43
3 892 4835 890
3 5566 891 890
3 6124 6125 6121
3 890 4835 5566
3 6125 6122 6121
3 6126 6127 6128
3 5512 5183 5287
3 6129 6130 6131
3 6130 6132 6131
3 3944 6133 6050
3 5181 5183 5512
3 5327 478 5325
3 6131 6132 6134
3 2496 5578 6135
3 478 5248 5325
3 6013 4111 6014
3 3944 6136 6133
3 6019 6137 6138
3 415 417 4284
3 4286 4285 4322
3 6139 4188 6140
3 6139 6141 4188
3 4286 1345 4287
3 2005 2358 2071
3 6142 5757 3851
3 6142 5760 5757
3 2014 2358 2005
3 6143 6144 6145
3 2071 2004 2005
3 4497 6146 112
3 6147 6148 6149
3 1824 6146 4497
3 6145 5906 6150
3 112 113 4497
3 5906 5909 6150
3 479 5327 2836
3 6151 6152 6153
3 478 5327 479
3 430 5613 428
3 5234 1788 1850
3 6151 4166 6152
3 1850 2722 5234
3 6154 5956 6155
3 1789 1788 5234
3 6154 5958 5956
3 6156 1482 1480
3 6155 6006 6157
3 1513 1482 6156
3 6158 6159 6160
3 5977 6161 1712
3 6161 6162 1712
3 5748 4573 4154
3 6158 6163 6159
3 4673 435 437
3 6036 4457 2110
3 4607 4457 6036
3 6164 5919 6165
3 5491 277 6166
3 584 2110 4457
3 1944 5122 6167
3 5491 6166 3434
3 5445 3055 3057
3 3057 4960 5445
3 6167 5122 3482
3 6168 6169 4078
3 408 5232 5233
3 6168 5623 6169
3 5232 408 405
3 6170 6171 6160
3 631 630 1065
3 631 5656 638
3 1065 5656 631
3 1285 4654 6172
3 6172 4654 4209
3 6170 6173 6171
3 6174 5071 5368
3 4818 5460 5863
3 6175 6176 5871
3 2869 582 5863
3 5863 5460 2869
3 6176 6177 5871
3 4435 1656 1655
3 6149 6178 6147
3 4435 2185 2011
3 2011 1656 4435
3 5755 699 701
3 5072 5071 6174
3 5408 1854 1853
3 1651 4687 4685
3 3270 1854 5408
3 5409 1863 1862
3 3275 1863 5409
3 6179 6180 6181
3 4677 445 447
3 6179 4122 6180
3 4430 1601 1600
3 6181 6182 5884
3 4430 2187 2009
3 6182 6183 5884
3 2009 1601 4430
3 6184 1806 6185
3 435 3015 3014
3 6184 4170 1806
3 3014 441 435
3 6186 6187 6188
3 6187 4535 6188
3 4357 4958 5755
3 6189 6190 6191
3 6192 6193 6194
3 6166 277 278
3 6195 6196 6197
3 2979 6198 2942
3 6199 6180 5832
3 6195 6200 6196
3 4956 5875 6199
3 5329 4520 4616
3 4609 4520 5329
3 6016 2708 6021
3 6201 6202 6203
3 6016 4385 2709
3 6202 6204 6203
3 2709 2708 6016
3 6205 6206 6207
3 5819 6208 4704
3 6206 5887 6207
3 3755 6208 5819
3 6120 6109 6209
3 2835 5754 5531
3 5345 5754 2835
3 6120 6210 6109
3 2837 5345 2835
3 2816 5749 5533
3 6209 6211 6212
3 5344 5749 2816
3 6211 6213 6212
3 2824 5344 2816
3 5507 5194 5525
3 5525 5194 5195
3 5755 701 4357
3 4346 4345 5713
3 5706 699 5755
3 6214 6002 5955
3 6002 6215 5955
3 6216 6217 6218
3 5713 4345 5404
3 405 5192 5232
3 6218 6217 6219
3 6220 451 452
3 697 451 6220
3 6137 6060 6138
3 6018 6221 6019
3 6222 4164 6223
3 6224 448 449
3 2167 448 6224
3 6222 5796 4164
3 6225 2270 2354
3 6223 6151 6226
3 1052 2270 6225
3 4508 6227 4509
3 2835 2316 2836
3 6193 6228 6194
3 4508 6229 6227
3 2942 6230 2941
3 6231 6027 6232
3 6027 6029 6232
3 4509 6227 1825
3 6233 1813 6234
3 5375 1825 6227
3 5397 2491 2493
3 1813 4150 6234
3 1769 6235 6236
3 5397 4665 2349
3 335 2486 338
3 335 4672 2356
3 6237 1769 6236
3 6018 6238 6221
3 6239 6177 6240
3 5745 2401 2405
3 6241 5916 6153
3 5745 2311 1127
3 6242 6243 6244
3 6245 6246 6247
3 2405 2311 5745
3 2691 2690 3569
3 6248 6249 6250
3 2916 6251 5379
3 6245 6252 6246
3 2918 6251 2916
3 6244 6253 6242
3 6254 4026 6255
3 4026 4048 6255
3 6254 6255 6256
3 5379 2917 2916
3 6080 5518 3712
3 6255 5340 6256
3 5519 5518 6080
3 6257 6258 6259
3 3712 3711 6080
3 6260 6261 6262
3 1136 2250 2249
3 6261 6263 6262
3 2046 2661 2249
3 6228 6264 6194
3 2249 2661 1136
3 6265 6266 6267
3 6242 623 6243
3 1219 2240 2239
3 2044 2659 2239
3 6268 6269 6270
3 2239 2659 1219
3 6192 6271 6272
3 4951 5576 4952
3 6273 6274 6275
3 4951 1664 1323
3 1323 5576 4951
3 1701 4787 1699
3 1699 4787 4818
3 5501 3691 5499
3 6273 6276 6274
3 627 140 5499
3 6277 6278 6279
3 4919 6280 4924
3 6281 6282 6193
3 3719 6280 4919
3 6283 6284 6285
3 627 5499 3691
3 6284 6286 6285
3 6036 5976 4607
3 6287 2245 2349
3 6283 6288 6289
3 6288 6195 6289
3 6279 6290 6277
3 6291 6292 6293
3 5610 6294 5611
3 6295 6296 6297
3 6294 6298 6102
3 1042 2245 6287
3 1947 5417 4562
3 4562 5417 2618
3 4562 1945 1947
3 1465 1876 5394
3 6298 6299 6102
3 6300 5610 5609
3 6300 6301 5610
3 5394 1876 2386
3 6302 2357 2356
3 5761 6119 6136
3 1058 2357 6302
3 5761 6210 6119
3 6303 3266 2058
3 6297 6296 5972
3 2750 3266 6303
3 2058 2055 6303
3 4015 2360 3142
3 1846 2360 4015
3 6304 328 3124
3 214 328 6304
3 6305 6306 6307
3 4179 4157 5663
3 6177 6308 6240
3 6275 6078 3086
3 2686 5451 2781
3 6275 6000 6078
3 1851 711 710
3 5256 6309 6310
3 6311 4812 4811
3 1851 1850 1788
3 6310 6312 5256
3 6313 6314 6315
3 1788 711 1851
3 6316 6317 6318
3 2781 5451 5974
3 1461 6319 1493
3 1461 1460 5090
3 5090 6319 1461
3 6054 2110 4449
3 5513 4548 5250
3 6317 4812 6318
3 6320 6321 6322
3 6323 6324 6325
3 2113 2112 4417
3 2105 2107 5080
3 6326 1765 6327
3 5080 4892 2105
3 6326 6328 1765
3 6323 6329 6324
3 6321 6330 6322
3 5080 2107 5079
3 6331 6332 6305
3 445 2488 450
3 6321 6320 6333
3 445 4677 2354
3 6334 6335 6336
3 4362 2116 4416
3 6337 6201 6338
3 6339 6340 6341
3 6339 6342 6340
3 2117 2116 4422
3 4371 2112 4420
3 597 2119 4426
3 5755 2119 4455
3 2942 6198 6230
3 6343 6344 6341
3 6343 6345 6344
3 3644 3643 5096
3 6337 6281 6201
3 5431 6346 2990
3 6347 6348 6349
3 6338 6350 6351
3 6350 6352 6351
3 1732 6346 5431
3 3899 4501 3896
3 1763 6353 6354
3 4608 4521 4609
3 4138 6355 6356
3 4443 5452 4441
3 6177 6357 6308
3 4441 5452 4445
3 3896 4501 3897
3 6358 3733 6359
3 6360 6361 5980
3 6360 6362 6361
3 3550 3807 6363
3 6364 6362 6360
3 6365 6366 6152
3 6367 605 4013
3 6368 5386 6369
3 4013 4061 6367
3 5386 5597 6369
3 2147 2468 2472
3 1792 6370 1793
3 2471 2868 2472
3 1792 6371 6370
3 3895 6372 5018
3 5615 6373 6374
3 5503 5022 5018
3 5615 6375 6373
3 5018 6372 5503
3 5500 5499 140
3 5444 4335 5274
3 6376 3400 6377
3 3400 5654 6377
3 6378 6379 6376
3 6380 6381 6271
3 5471 6224 5668
3 5283 6224 5471
3 5513 6220 5665
3 5285 6220 5513
3 4610 4530 4458
3 1258 4530 4610
3 6381 4179 6271
3 4609 1258 4610
3 6192 6194 6380
3 4415 5636 4416
3 6382 4179 5663
3 2901 6383 5393
3 2219 2218 6384
3 6385 6386 6387
3 2219 6384 3626
3 6388 6389 6390
3 3627 3626 6384
3 2906 6383 2901
3 5393 2902 2901
3 4416 5636 4362
3 4419 5635 4420
3 4515 2429 4576
3 6391 6392 6393
3 4515 2382 4516
3 4252 6394 6395
3 4420 5635 4371
3 3733 3917 6359
3 6382 6271 4179
3 6396 5340 6397
3 4252 4808 6394
3 6227 6398 5375
3 6399 6400 6401
3 6402 6403 6106
3 6398 1623 5375
3 4439 1838 2157
3 4439 2181 2013
3 2013 1838 4439
3 6403 6404 6106
3 4398 5720 526
3 526 525 4398
3 6400 6405 6401
3 526 5720 530
3 6406 6393 6407
3 443 1541 4418
3 4418 1541 301
3 423 1543 4456
3 4456 1543 222
3 419 1512 4421
3 6406 6408 6393
3 4421 1512 64
3 4454 5706 4455
3 4455 5706 5755
3 413 1505 4451
3 4451 1505 143
3 4448 5558 4449
3 6409 6410 6411
3 4449 5558 6054
3 4418 302 4415
3 301 302 4418
3 4433 1840 2153
3 6410 6386 6411
3 4433 2191 2007
3 6412 6395 6394
3 2007 1840 4433
3 6413 6414 6415
3 4421 65 4419
3 4609 4521 4520
3 4273 4272 5238
3 4273 556 4275
3 6415 6416 6417
3 6415 6414 6416
3 4277 4276 4320
3 6418 6252 6245
3 4277 560 4278
3 5946 5842 5848
3 5946 3057 3056
3 6419 6420 6421
3 3056 5842 5946
3 6419 6422 6420
3 64 65 4421
3 4456 223 4454
3 222 223 4456
3 4451 144 4448
3 1545 1544 2788
3 1545 2787 1549
3 5032 918 973
3 973 2725 5032
3 5031 921 976
3 6423 6353 6424
3 976 2732 5031
3 6353 1768 6424
3 994 3149 1040
3 6425 6426 6423
3 3151 3149 994
3 143 144 4451
3 5459 3098 5328
3 4649 5692 1596
3 4650 5692 4649
3 5650 6265 6267
3 2852 5210 5333
3 5762 3939 6427
3 1596 1598 4649
3 5762 3944 3939
3 5333 5210 5334
3 6427 6428 6429
3 6430 6431 3079
3 6428 6432 6429
3 3419 3087 702
3 5432 428 5613
3 117 4611 5124
3 5123 116 5124
3 6433 6434 5982
3 5124 116 117
3 702 3087 6435
3 2029 4381 2497
3 5384 6436 4849
3 5239 3557 3406
3 5239 3404 2929
3 3406 3404 5239
3 4668 4770 4671
3 1252 1059 4671
3 393 395 5814
3 6433 6437 6434
3 393 4743 398
3 5814 4743 393
3 6438 6439 6440
3 6322 6441 6442
3 4849 6436 4847
3 2476 6443 4971
3 2478 6443 2476
3 6444 2694 6398
3 4381 1214 2497
3 6398 2694 1623
3 6439 6445 6440
3 6322 6330 6441
3 6446 6202 6272
3 6202 6281 6272
3 4971 2477 2476
3 6257 6259 6447
3 4743 5814 4745
3 4743 1645 398
3 4660 4750 4664
3 2365 6447 6259
3 1222 1043 4664
3 6448 6449 6450
3 4835 2634 5566
3 6448 1906 6449
3 4835 892 4837
3 6451 6452 6453
3 2479 2477 4971
3 5787 6454 2985
3 1736 1969 1740
3 6191 3802 6455
3 1736 1738 1971
3 6191 6190 3802
3 3113 3112 5120
3 6452 6456 6453
3 5314 5237 4709
3 6344 6345 6278
3 4709 4712 5314
3 5120 5814 3113
3 5242 4531 1309
3 6457 6458 6459
3 1741 1743 2019
3 6457 6460 6458
3 6461 5979 6462
3 4749 2137 2136
3 5979 5987 6462
3 6463 6464 6461
3 6463 6465 6464
3 2136 3669 4749
3 6466 6467 6468
3 3667 2137 4749
3 1741 2016 1744
3 1309 1311 5242
3 5244 4531 5242
3 3544 2665 5114
3 6466 5829 6467
3 6469 6470 6471
3 1785 1783 6472
3 6469 6473 6470
3 1785 6474 1787
3 6472 6474 1785
3 4528 1487 4540
3 6471 6475 6476
3 3653 3544 1797
3 2263 5462 5424
3 5915 989 988
3 5915 4578 2420
3 2420 989 5915
3 5931 965 964
3 5931 4580 2418
3 2418 965 5931
3 4880 1484 5278
3 6475 6477 6476
3 5278 4883 4880
3 6300 5609 6478
3 5424 2262 2263
3 5609 5623 6478
3 4707 1689 1688
3 6479 6480 6481
3 642 644 1668
3 6480 6482 6481
3 642 1666 645
3 6483 6484 6485
3 5353 561 563
3 6476 6486 6479
3 4393 2842 5336
3 6476 6477 6486
3 207 208 4292
3 2829 5189 5331
3 4707 5443 4705
3 5331 5189 5332
3 6487 6488 6489
3 2135 6490 749
3 6257 6447 6491
3 6489 6492 6493
3 6494 5650 6267
3 749 748 2135
3 4157 6394 4808
3 6495 6394 4157
3 6496 6497 6498
3 6496 6499 6497
3 6494 6500 5650
3 6501 6502 6503
3 5663 4157 4808
3 6504 5807 6505
3 5807 5780 6505
3 6506 5686 6507
3 749 6490 753
3 6506 5699 5686
3 6037 6508 6024
3 6507 5851 6466
3 5851 5829 6466
3 5336 2842 5721
3 6425 6509 6426
3 6509 6425 6510
3 6146 2050 112
3 6024 6511 6512
3 6146 1824 1823
3 6496 6513 6514
3 417 1214 4381
3 3508 4062 6515
3 5479 559 2126
3 6516 6515 6517
3 6024 6508 6518
3 6519 6520 6521
3 1823 2050 6146
3 6518 6511 6024
3 2126 2039 5479
3 6522 6523 6524
3 560 559 5479
3 6525 6510 6526
3 6525 6527 6510
3 6425 6087 6526
3 2943 1950 1949
3 6425 6528 6087
3 1953 2559 1949
3 4509 6529 4514
3 6530 6531 6532
3 1825 6529 4509
3 1094 1093 5375
3 6533 6534 1897
3 4377 5976 4376
3 6533 6535 6534
3 4377 1963 2195
3 6536 6537 6333
3 3044 3046 6033
3 6530 6538 6531
3 6033 2021 3044
3 6033 3046 5145
3 4847 2757 4848
3 6539 6540 6541
3 1411 2250 1740
3 1777 6542 6543
3 4848 2757 5563
3 5670 2953 6544
3 2347 6545 6544
3 6305 6332 6306
3 6546 1831 1833
3 6332 5944 6306
3 1777 6547 6542
3 6548 6549 6550
3 6548 6465 6549
3 6311 6551 6552
3 1834 5544 1833
3 6553 4545 6554
3 6544 2953 2347
3 4545 5744 6554
3 6311 6555 6551
3 3508 6515 6516
3 1837 1846 4014
3 6556 6318 6552
3 4014 4063 1837
3 6557 6097 6504
3 1417 2696 1162
3 6097 6098 6504
3 6558 6559 5091
3 6559 6560 5091
3 6237 6185 1770
3 6185 1812 1770
3 6544 6545 5670
3 6556 6561 6318
3 6562 1980 4885
3 6563 6334 6293
3 6334 6305 6293
3 6564 6565 6566
3 6567 5859 3564
3 6292 6388 6563
3 5810 2948 1929
3 6292 6389 6388
3 1929 4878 5810
3 6568 6538 6530
3 2387 2948 5810
3 6569 4148 6570
3 6562 5638 2017
3 4148 4149 6570
3 6566 6565 2692
3 6388 6387 6335
3 4374 5311 4368
3 6571 6572 6573
3 4374 1960 2193
3 6571 6574 6572
3 4365 5306 4359
3 6575 6576 1868
3 4365 1955 2197
3 4975 3036 1936
3 1936 4392 4975
3 506 508 933
3 6576 6577 1868
3 6578 3538 6579
3 6387 6388 6390
3 6580 6581 6582
3 506 915 512
3 6583 6499 6521
3 2770 6515 4062
3 4358 1952 2199
3 6584 6585 4809
3 6584 5897 6585
3 6385 6387 6390
3 6520 6586 6587
3 6588 6589 6590
3 2017 1980 6562
3 1289 5284 4720
3 6589 6591 6590
3 4885 5638 6562
3 6592 6593 6594
3 747 5637 2226
3 6595 6391 6470
3 6391 6596 6470
3 6597 6598 6599
3 6599 6600 6597
3 6601 6522 6524
3 6601 6602 6522
3 6360 6603 6604
3 2226 5637 2228
3 2226 2225 747
3 4466 2508 2510
3 5508 4770 5565
3 2511 6605 2510
3 6606 5678 6607
3 6606 5679 5678
3 6603 6608 6604
3 2510 6605 4466
3 6609 6610 6611
3 3006 2991 2811
3 6610 6612 6611
3 2811 3232 3006
3 724 4158 6381
3 1446 2240 1744
3 4158 4179 6381
3 6613 6047 6614
3 4439 2486 2181
3 1706 1708 5565
3 4440 2486 4439
3 2106 5264 5280
3 6425 6526 6510
3 5280 5264 3111
3 5804 1801 1809
3 1136 2661 1809
3 3719 6615 5709
3 6616 524 2308
3 6542 6617 6618
3 2308 524 2310
3 6619 6620 6621
3 2308 2307 6616
3 5709 3717 3719
3 4476 4475 5855
3 5099 341 5097
3 4424 5854 5855
3 6619 6282 6620
3 5855 4475 4424
3 6542 6547 6617
3 6622 6623 6624
3 6625 2318 3416
3 6622 6626 6623
3 6522 6627 6628
3 6522 6629 6627
3 6525 6630 6415
3 6631 6057 6632
3 4878 1930 4994
3 6631 6633 6057
3 2759 3953 5097
3 5097 341 2759
3 6632 6634 6635
3 6634 6636 6635
3 6525 6104 6630
3 5366 2184 2183
3 6637 6355 4138
3 2186 2746 2183
3 6522 6602 6629
3 2183 2746 5366
3 3468 3414 2062
3 2137 6638 2747
3 6589 6639 6640
3 6589 6641 6639
3 6642 6488 6643
3 2062 2061 3468
3 6644 5787 2999
3 2999 2366 6644
3 6645 6203 6646
3 2747 2746 2137
3 6645 6647 6203
3 2328 2330 1257
3 6648 6649 6650
3 2328 3241 2331
3 6648 6212 6649
3 5474 1662 1661
3 6651 6410 6652
3 6410 6186 6652
3 6651 6336 6387
3 6336 6335 6387
3 6353 6426 6354
3 6653 6354 6426
3 6654 5617 6655
3 5474 1928 5137
3 6656 6657 6658
3 5973 5954 6506
3 5954 5699 6506
3 6353 6423 6426
3 6659 6660 6645
3 1661 1928 5474
3 6660 6647 6645
3 6661 6662 6333
3 1760 6663 726
3 5802 1826 1830
3 6131 6664 6665
3 1219 2659 1830
3 6664 6666 6665
3 2747 6638 2753
3 6333 6537 6661
3 3089 2280 2279
3 3921 6474 6667
3 6668 6424 6669
3 2281 3088 2279
3 3869 6670 3872
3 6668 6528 6424
3 3016 438 5414
3 5414 5561 3016
3 5371 6367 4061
3 4308 2558 6671
3 6671 4309 4308
3 6672 6603 6464
3 1668 2558 4308
3 6603 6673 6464
3 6674 6675 6676
3 6675 6677 6676
3 1650 4745 5815
3 6678 4817 6679
3 5815 1651 1650
3 4817 4945 6679
3 5815 4745 5814
3 6678 6680 6681
3 6680 6682 6681
3 6683 6684 6685
3 2487 3302 2485
3 4703 5605 4704
3 4703 1683 1682
3 2971 1590 5249
3 5249 5057 2971
3 6684 6686 6685
3 3052 1919 1921
3 6683 6687 6417
3 1925 949 1921
3 6687 6527 6417
3 5230 4566 5194
3 6688 6689 6609
3 5264 5262 5599
3 6689 6690 6609
3 2142 2789 2790
3 3921 6691 6474
3 4575 6692 4574
3 3422 2680 4574
3 4574 6692 3422
3 3877 4379 5599
3 3418 3318 6693
3 4603 4526 4595
3 3921 6694 6691
3 4406 4407 2124
3 2124 2123 4406
3 2124 4407 1305
3 3897 6695 6372
3 6696 6497 6697
3 6372 6695 5503
3 6372 3895 3897
3 6696 6698 6497
3 6693 3318 6367
3 6693 6699 3418
3 5177 2516 1379
3 5599 4379 5264
3 6700 6701 6702
3 4331 6703 4333
3 6701 6704 6702
3 2704 3549 4871
3 4870 2560 4871
3 4871 2560 2704
3 4331 4334 1943
3 1943 6703 4331
3 2499 3438 2502
3 2499 2501 3233
3 6611 6705 6706
3 3173 2299 3175
3 6611 6612 6705
3 2297 2299 3173
3 6707 6196 6708
3 2411 937 942
3 942 4486 2411
3 329 216 2610
3 2610 330 329
3 215 216 329
3 5480 2227 2228
3 5480 4825 3015
3 3015 2227 5480
3 6707 6709 6196
3 6546 1833 6710
3 6711 6630 6712
3 6711 6413 6630
3 6710 1833 5544
3 6712 6086 5496
3 6710 6713 6546
3 6086 5536 5496
3 6714 6715 6716
3 5577 4952 5576
3 6714 6717 6715
3 3989 3934 4947
3 1323 1326 5576
3 3989 3990 3934
3 4723 4650 2306
3 6718 6719 6720
3 5575 2232 2233
3 5439 2175 2174
3 538 3154 2174
3 2174 3154 5439
3 1316 1784 4889
3 5629 2388 2385
3 2385 3033 5629
3 3945 2388 5629
3 5468 5694 1684
3 1684 1686 5468
3 1299 6721 5527
3 6718 6677 6719
3 5209 6721 1299
3 2930 2926 2888
3 2930 3366 2932
3 2428 552 203
3 711 1281 712
3 6720 6124 6688
3 557 552 2428
3 6124 6722 6688
3 6723 6288 6676
3 6288 6724 6676
3 1140 1186 5342
3 6723 6718 6725
3 5207 5456 5342
3 6718 6726 6725
3 1274 1273 5363
3 6727 6480 6549
3 6480 6728 6549
3 6727 6463 6729
3 1274 5219 1276
3 203 2426 2428
3 2548 5854 1281
3 6671 2558 1498
3 1281 711 2548
3 5258 3327 5190
3 2482 2072 1836
3 1836 1835 2482
3 1305 4407 1301
3 5209 1299 1301
3 6463 6462 6729
3 5182 2782 5184
3 6730 6731 6732
3 6731 6733 6732
3 5182 5181 5399
3 5399 2782 5182
3 1148 1150 4960
3 5215 2311 1273
3 2439 2176 2178
3 2179 2438 2178
3 5600 2235 2236
3 1953 6734 936
3 936 6734 942
3 936 915 1953
3 3483 5828 5821
3 6735 6385 6736
3 4204 4206 5135
3 3305 6737 5252
3 3305 3303 3175
3 3175 6737 3305
3 4570 2235 5600
3 5151 5163 6738
3 5151 5043 5149
3 6385 6390 6736
3 6739 6411 6735
3 682 3908 5241
3 6739 6491 6411
3 6323 6639 6740
3 4645 5971 5630
3 1648 1647 2170
3 1648 2168 757
3 6323 6250 6639
3 4648 5971 4645
3 6740 6741 6742
3 5630 4643 4645
3 2172 2605 2804
3 3240 2675 1544
3 1128 6743 1137
3 1128 1127 2066
3 3990 3968 3934
3 6714 6716 6744
3 2066 6743 1128
3 6745 3177 3178
3 6746 6315 6747
3 2804 2173 2172
3 2394 2376 5712
3 1551 5572 1066
3 2666 3655 5712
3 5712 2376 2666
3 6746 6555 6315
3 357 359 2588
3 3178 4305 6745
3 357 2583 378
3 6488 6748 6489
3 5074 6749 2970
3 5074 3654 4311
3 4311 6749 5074
3 6750 6751 6752
3 571 570 4819
3 6751 6733 6752
3 571 4390 622
3 6097 6753 6754
3 4427 1381 2984
3 4446 1381 4427
3 6754 6753 6755
3 2984 2963 4427
3 4570 2774 2775
3 6746 6756 6757
3 1141 1143 1441
3 1141 1417 1162
3 4933 6758 4705
3 6746 6759 6756
3 2351 31 32
3 6760 6551 6757
3 5163 3193 3194
3 6760 6761 6551
3 3737 6758 4933
3 6762 6763 6764
3 6763 3997 6764
3 6765 6766 6767
3 6765 6759 6766
3 6758 3558 3557
3 3557 4705 6758
3 3737 3558 6758
3 6767 6469 6768
3 6469 6769 6768
3 5391 2902 5393
3 2251 2902 5391
3 2329 5544 1834
3 6489 6748 6492
3 1834 2330 2329
3 6642 6748 6488
3 2417 2972 2599
3 2599 2415 2417
3 2419 2972 2417
3 6770 6687 6296
3 6771 2379 2378
3 6687 6772 6296
3 2378 2526 6771
3 6509 6510 6770
3 5401 2421 2424
3 6773 6774 6750
3 1315 1738 1331
3 6775 2550 6126
3 1315 1316 4889
3 6041 3734 6776
3 6777 6778 6779
3 6777 6780 6778
3 4889 1738 1315
3 1291 1295 6781
3 1386 1387 6781
3 6782 6783 6779
3 6782 6784 6783
3 1507 1118 4713
3 6530 6785 6648
3 4713 1118 3282
3 6785 6212 6648
3 6786 3734 6041
3 6483 6787 6484
3 4713 1509 1507
3 6788 522 2531
3 6789 6590 6790
3 2531 522 2536
3 6790 6590 6591
3 2531 463 6788
3 5842 3056 3590
3 3590 5770 5842
3 6462 6791 6792
3 6793 1138 1140
3 6656 6794 6795
3 6793 577 576
3 6796 6482 6729
3 576 1138 6793
3 6797 5926 6798
3 2274 5454 2893
3 2537 2894 2893
3 5366 2748 5639
3 5926 5973 6798
3 6781 1295 1386
3 1331 1102 1101
3 1107 1316 1101
3 5639 2748 5294
3 5639 4885 5366
3 6799 4655 2312
3 6799 2311 5215
3 6781 1387 1291
3 2312 2311 6799
3 5377 2917 5379
3 6297 6800 6801
3 6297 6802 6800
3 4881 6738 5163
3 6602 6803 6773
3 2246 2917 5377
3 4883 6738 4881
3 2403 5213 1647
3 5163 3194 4881
3 1647 5213 2170
3 2857 3489 6804
3 2882 2856 6804
3 6804 3489 2882
3 1513 1122 4725
3 6804 2856 2857
3 4725 1515 1513
3 1908 1910 6805
3 1908 6806 1918
3 6803 6807 6773
3 5259 6808 5257
3 1321 5258 5257
3 5257 6808 1321
3 6809 6810 6811
3 3953 5467 5098
3 6810 6812 6811
3 2018 5099 5098
3 6656 6813 6794
3 5098 5467 2018
3 6541 6540 6814
3 5135 1119 4412
3 4206 1119 5135
3 4193 4195 5133
3 3876 2860 5376
3 6815 6816 1666
3 2862 4687 5376
3 1666 6816 645
3 3295 540 542
3 3295 3294 2180
3 2180 540 3295
3 5376 2860 2862
3 6444 2695 2694
3 1621 1623 2694
3 6817 6813 6656
3 1279 1278 6818
3 6819 6635 6820
3 1395 1396 6818
3 6818 1278 1395
3 6818 1396 1279
3 5490 6821 1796
3 2171 2173 6822
3 1796 6821 1168
3 6823 6824 1920
3 1920 6824 1925
3 6822 3041 2171
3 2177 2176 3132
3 2177 3136 2179
3 4436 2155 2300
3 3132 3136 2177
3 4503 1790 1789
3 4503 5237 2380
3 6814 6825 6819
3 6811 6826 6827
3 1789 5237 4503
3 5670 1986 5669
3 1982 1984 5669
3 5669 1986 1982
3 539 5178 542
3 539 541 4980
3 4980 5178 539
3 5466 3070 3074
3 2799 5524 3074
3 1920 1919 6823
3 1326 1251 4736
3 5483 554 556
3 6811 6812 6826
3 5483 5238 4342
3 2300 2453 4436
3 4467 558 560
3 4467 4320 326
3 1116 1801 2615
3 2615 1102 1116
3 2571 2568 502
3 2571 4294 2575
3 4734 5577 4736
3 502 4294 2571
3 1441 1143 1166
3 5129 5131 6828
3 1170 2597 1166
3 5520 4920 4924
3 5520 3013 3015
3 6261 6829 6830
3 3015 4920 5520
3 6831 5089 2169
3 5416 58 2618
3 2618 5417 5416
3 57 58 5416
3 6831 5090 5089
3 6832 3700 6833
3 3589 6834 3587
3 6834 6835 3587
3 927 1186 359
3 1190 1826 2512
3 2512 1191 1190
3 5735 3334 2848
3 6829 6836 6830
3 5735 2989 4814
3 6830 6836 6837
3 2515 2516 6838
3 5028 2642 5026
3 4519 2418 4580
3 4519 4581 4263
3 4517 2420 4578
3 4517 4579 4329
3 5133 1112 4396
3 4920 3015 4825
3 4825 4914 4920
3 4195 1112 5133
3 6839 3442 3236
3 6839 3234 6840
3 6840 3442 6839
3 3236 3234 6839
3 4814 3334 5735
3 5026 2642 5488
3 6841 6842 6843
3 2507 2505 6844
3 2446 6845 6846
3 2446 6847 6845
3 5310 5049 2798
3 5310 4387 4453
3 4453 5049 5310
3 3416 2313 3412
3 4912 5630 4910
3 3416 2318 2313
3 5971 4911 4910
3 4910 5630 5971
3 4694 1129 1335
3 4694 3255 1130
3 3383 3703 2487
3 1130 1129 4694
3 6841 6848 6842
3 2487 3381 3383
3 4693 1124 1340
3 6849 6843 6842
3 4693 3250 1125
3 2148 750 2146
3 1125 1124 4693
3 750 753 2146
3 4621 793 792
3 3686 6850 3278
3 4621 1341 2569
3 6851 4088 6852
3 4619 804 803
3 3686 3694 6850
3 4619 1336 2570
3 4973 5138 6844
3 6844 2505 4973
3 6844 5138 2507
3 6853 6854 3204
3 1686 6855 5468
3 2523 2878 1191
3 4952 6855 1686
3 32 33 2352
3 2878 1746 2241
3 2888 6856 2887
3 6857 2884 2887
3 6853 6858 6854
3 2887 6856 6857
3 6859 6860 3210
3 6859 6861 6860
3 4950 1685 6862
3 544 543 5484
3 5072 3191 3192
3 1685 1690 6862
3 5484 2605 544
3 6863 2960 2962
3 4930 2900 4931
3 6863 6864 2960
3 4930 4932 2906
3 2906 2900 4930
3 2858 2855 5529
3 2858 3082 2863
3 4695 1117 1386
3 813 6865 3323
3 4695 3282 1118
3 813 6866 6865
3 1118 1117 4695
3 4696 1121 1395
3 401 403 5356
3 2241 1191 2878
3 1122 1121 4696
3 3233 6867 3229
3 5356 403 3962
3 5472 5471 2284
3 2828 543 545
3 1760 5496 5498
3 49 50 4297
3 6868 5675 3094
3 6868 3330 5675
3 6869 4786 3596
3 4487 6870 4625
3 6871 6872 2982
3 545 573 2828
3 3005 6870 4487
3 3674 3120 2935
3 6871 1721 6872
3 6873 6874 6875
3 5710 6876 3195
3 1251 1053 4676
3 6874 6877 6875
3 5828 2168 2169
3 2935 2340 3674
3 5466 1146 3071
3 3071 1146 1145
3 3071 3070 5466
3 5426 2518 5425
3 5425 2518 3151
3 5471 5667 2284
3 6156 999 1123
3 6878 3314 6879
3 1480 999 6156
3 1123 1513 6156
3 6880 6881 3223
3 6880 6882 6881
3 3675 3122 2853
3 4541 6883 3409
3 4541 6884 6883
3 547 5459 548
3 3877 5246 6885
3 2861 2860 6885
3 2853 3122 1490
3 2756 5707 5563
3 2384 5707 2756
3 3205 4199 6886
3 4199 3736 6886
3 3353 6887 5422
3 5563 2757 2756
3 6887 6888 5422
3 3296 6889 6890
3 6889 6891 6890
3 6892 6893 3311
3 6894 6895 6896
3 6894 6897 6895
3 6885 2860 3877
3 6898 6899 6900
3 6899 6901 6900
3 2853 2335 3675
3 3973 3758 6898
3 1738 4889 1971
3 3973 3781 3758
3 1746 1743 2241
3 3758 6899 6898
3 3407 3408 514
3 3758 3761 6899
3 514 513 3407
3 4387 3413 2278
3 2278 2280 4387
3 1552 1063 517
3 517 513 1552
3 6615 6902 5709
3 6113 1036 1120
3 6902 5710 5709
3 4791 3314 6878
3 1466 1036 6113
3 1120 1507 6113
3 6878 3068 4791
3 6693 5550 6699
3 6693 6367 5550
3 6903 6904 6905
3 6906 3416 3411
3 6490 2135 2186
3 3393 1556 588
3 6490 2466 753
3 472 3883 6907
3 5644 55 56
3 5644 3180 5770
3 1740 1969 2096
3 1556 5300 588
3 2098 1416 2096
3 5519 6079 5114
3 5421 2058 3266
3 2665 5519 5114
3 4625 2633 2632
3 5420 2058 5421
3 3266 4603 5421
3 725 5496 1760
3 5493 5899 5214
3 6579 3538 3528
3 459 5899 5493
3 4306 5361 4405
3 3178 5361 4306
3 6684 6908 6909
3 4405 4307 4306
3 3528 6910 5583
3 3166 4735 6911
3 3166 3168 4735
3 5723 3582 6912
3 5214 2402 5493
3 3582 6913 6912
3 5461 1687 3261
3 1688 1687 5461
3 3261 4601 5461
3 4787 1701 1991
3 1093 1825 5375
3 1823 1825 1093
3 296 2651 5265
3 4905 2144 2034
3 4905 2579 2543
3 2543 2144 4905
3 4908 2150 2045
3 4908 2585 2573
3 6914 6915 6916
3 2573 2150 4908
3 6915 3564 6916
3 4583 3135 3671
3 3970 3932 3968
3 3932 3934 3968
3 6079 5113 5114
3 3671 2638 4583
3 5464 6917 1910
3 4921 525 527
3 6918 6919 4147
3 1751 4967 5811
3 3619 1964 5265
3 6919 4149 4147
3 5464 5506 6917
3 2392 3113 395
3 395 3113 5814
3 5141 4972 6920
3 5464 1910 5607
3 6920 1265 5141
3 3288 6921 3289
3 4973 4972 5141
3 3288 3340 6921
3 732 734 4446
3 5265 2651 3619
3 2734 2733 3134
3 4567 2534 3031
3 3031 4568 4567
3 3289 6841 6922
3 2899 2534 4567
3 2487 3703 3302
3 6841 6923 6922
3 6924 6925 6926
3 6925 6924 6927
3 2714 2715 6928
3 2714 6929 2213
3 6930 6931 6932
3 6928 6929 2714
3 6931 6933 6932
3 6934 1946 3327
3 6935 6936 2629
3 3327 5258 6934
3 6937 978 6938
3 3134 3129 2734
3 2581 2583 2629
3 6937 6939 978
3 774 6937 6938
3 774 6940 6937
3 6941 6942 6943
3 4782 3192 4470
3 6941 6888 6942
3 6944 6945 6946
3 2629 6936 2581
3 4926 2915 4927
3 6944 6947 6945
3 3165 3597 6948
3 5072 3192 4782
3 5695 6949 3271
3 3597 6950 6948
3 4926 4928 2918
3 2918 2915 4926
3 5406 219 220
3 3271 2511 5695
3 6845 6951 6737
3 6167 3123 3125
3 3125 1944 6167
3 3482 3123 6167
3 5696 6949 5695
3 6845 974 6951
3 1744 2016 2711
3 1908 6886 6806
3 2713 1457 2711
3 1908 6805 6886
3 4345 4555 5404
3 6952 6953 2919
3 4343 4555 4345
3 6952 4408 6953
3 1755 2767 6851
3 6925 6954 6926
3 3599 6304 5821
3 1946 6934 5095
3 4971 5352 4968
3 523 522 6788
3 523 717 531
3 5095 5113 1946
3 6788 717 523
3 4968 5352 2118
3 5095 6934 1798
3 6304 3124 5821
3 2358 2360 2071
3 6955 6956 6957
3 1276 5219 4330
3 6956 6958 6957
3 4330 4332 1276
3 6955 6957 6959
3 2502 2608 2500
3 2609 2501 2500
3 56 57 5415
3 6957 6960 6959
3 3562 6961 3470
3 4869 5359 4867
3 3562 6962 6961
3 1990 1991 4867
3 4867 5359 1990
3 4386 3046 6963
3 2751 2055 6963
3 6963 3046 2751
3 6963 2055 4386
3 6930 6964 6965
3 572 2688 6966
3 6304 3599 213
3 6930 3748 6964
3 6966 570 572
3 6942 6887 3358
3 6942 6888 6887
3 125 126 6967
3 3246 3312 6967
3 1754 3035 5267
3 3439 6968 797
3 5267 3035 2696
3 5466 3074 6969
3 5524 5522 6969
3 6968 6970 797
3 6969 3074 5524
3 6971 3757 6972
3 6969 5522 5466
3 6971 3761 3757
3 1552 513 515
3 6973 6974 3575
3 6579 6974 6973
3 3147 3143 3145
3 3125 3124 328
3 214 215 328
3 2466 6490 2182
3 2182 6490 2186
3 6975 6976 6977
3 6975 6978 6976
3 6979 6980 6981
3 2182 2184 2466
3 4683 446 4602
3 5983 3636 3638
3 4603 3266 4602
3 2275 2273 5858
3 3243 126 127
3 2275 4731 2277
3 5858 4731 2275
3 6280 5170 4924
3 2037 2884 6857
3 6980 6982 6981
3 3301 6983 6984
3 6983 6985 6984
3 590 6986 3259
3 590 593 6986
3 6986 6987 3259
3 6280 3719 3718
3 6986 5718 6987
3 3584 6988 6989
3 3584 6990 6988
3 3276 6991 3269
3 3718 5170 6280
3 3276 3277 6991
3 4611 3428 2237
3 5384 3392 5469
3 2237 475 4611
3 6992 6993 6994
3 2804 2642 2644
3 2645 2800 2644
3 6992 3345 6993
3 6995 6876 6996
3 6996 6997 6995
3 135 4686 6095
3 6857 2038 2037
3 6998 6999 3535
3 6095 4686 2862
3 6998 2525 6999
3 1542 5406 220
3 1542 422 528
3 528 5406 1542
3 7000 7001 3535
3 2655 2639 2614
3 6430 3189 6431
3 2655 4912 2662
3 7000 7002 7001
3 6095 134 135
3 7003 7004 7005
3 7004 3574 7005
3 2020 5694 5685
3 3589 4302 3216
3 7006 7007 6878
3 5685 3045 2020
3 7006 3857 7007
3 6879 7006 6878
3 5607 2522 5492
3 5685 5694 5468
3 6879 7008 7006
3 2984 2394 5711
3 2566 4313 7009
3 3655 3654 5711
3 3689 3864 7010
3 5648 5110 5354
3 5648 5367 1682
3 1682 5110 5648
3 133 7011 4983
3 3864 7012 7010
3 7010 7013 3689
3 7010 3581 7013
3 4983 7011 2839
3 4983 132 133
3 2564 7009 5226
3 5226 2565 2564
3 2566 7009 2564
3 675 674 2433
3 675 3133 681
3 5557 4270 4376
3 5557 6054 5558
3 5492 2522 1502
3 5538 5022 2160
3 6684 6416 6908
3 721 7014 7015
3 7014 3336 7015
3 7016 7017 3515
3 7016 2520 7017
3 4576 2429 5528
3 999 1480 5528
3 5537 3143 3147
3 3506 2320 2322
3 7018 7019 7020
3 6773 6807 6774
3 7019 3752 7020
3 6747 6473 6766
3 7021 7022 3336
3 4518 5044 34
3 4518 3034 3033
3 3033 5044 4518
3 2322 3872 3506
3 1036 1466 5395
3 5345 4247 5754
3 3368 1179 7023
3 5298 1179 3368
3 5344 4249 5749
3 5552 7024 5660
3 5551 7024 5552
3 714 7025 3386
3 5538 2464 4300
3 5426 4888 1781
3 1682 1681 5110
3 7021 7026 7022
3 4682 5354 5110
3 3291 6922 3333
3 1781 4888 1784
3 6922 6923 3333
3 1781 1783 5426
3 453 455 1137
3 453 2928 459
3 1137 2928 453
3 2750 2749 2069
3 3067 7007 3858
3 6743 6856 1137
3 3067 3068 7007
3 2069 2749 2067
3 5710 3195 3197
3 2069 2070 2750
3 4370 1776 4368
3 4370 4371 5635
3 3611 7027 3645
3 4361 1780 4359
3 7028 775 7029
3 7028 6940 775
3 6314 6595 6473
3 7030 6348 6989
3 6253 3799 6242
3 4361 4362 5636
3 2563 6436 2566
3 2563 2565 4847
3 6473 6747 6314
3 4847 6436 2563
3 2924 2341 3193
3 6857 6856 6743
3 4889 1784 4888
3 6243 3661 6244
3 3350 5823 3351
3 2147 541 540
3 3350 5824 5823
3 7031 7032 7033
3 6546 7034 1831
3 3301 7035 2040
3 7031 3875 7032
3 5410 1624 2574
3 2908 2336 3191
3 1831 7034 2361
3 4692 3145 3144
3 1262 4691 3144
3 5410 3946 3945
3 2795 2794 7036
3 7025 6861 3387
3 3387 3386 7025
3 2294 2223 4502
3 4502 2223 4551
3 2179 3136 2432
3 2432 2431 2179
3 2432 3136 2433
3 2795 7037 2799
3 5505 5506 1748
3 7033 7038 7039
3 6788 6907 6979
3 7036 7037 2795
3 7038 7040 7039
3 6713 6710 6015
3 6815 7041 7042
3 6710 5544 6015
3 5505 1746 2878
3 3142 2360 2359
3 2361 3141 2359
3 2149 2151 5174
3 2556 3478 5174
3 6015 6014 6713
3 1799 1558 1658
3 7043 7044 3455
3 7043 6546 7044
3 3382 7045 7046
3 7045 6970 7046
3 1748 1746 5505
3 1798 1558 1799
3 2864 2964 7047
3 2331 4142 5543
3 7047 2964 827
3 3382 7048 7045
3 7049 6962 3562
3 2923 2959 7050
3 5144 6017 3216
3 7048 5582 7045
3 3233 3345 6992
3 3642 6894 7051
3 5145 6017 5144
3 6992 6867 3233
3 3216 4302 5144
3 1300 1299 5527
3 1300 5199 1305
3 3490 3217 3222
3 3642 6897 6894
3 4866 2882 928
3 928 927 4866
3 5655 3438 3439
3 7050 2959 810
3 7052 3629 2744
3 5640 5692 5641
3 3559 7053 7051
3 5438 5099 5641
3 7037 3908 682
3 7054 3616 3618
3 7036 3908 7037
3 2643 5077 2645
3 3559 7055 7053
3 5140 1265 4260
3 7034 7056 6882
3 3312 7057 6967
3 3359 7058 3358
3 7057 125 6967
3 5676 7059 7060
3 2643 2642 5028
3 7059 7061 7060
3 5041 5151 6738
3 7062 7063 7064
3 5043 5151 5041
3 6949 3942 7065
3 6738 2754 5041
3 5696 3942 6949
3 2143 2145 5179
3 3474 3476 5179
3 5338 5334 5210
3 3236 3443 618
3 4384 632 638
3 7063 7066 7064
3 4384 5314 4382
3 3153 3537 5734
3 7067 7068 6892
3 5071 4327 5368
3 2720 2065 537
3 7067 3784 7068
3 5442 5440 5148
3 41 7069 3326
3 5148 5440 3634
3 3150 3517 6884
3 41 42 7069
3 5564 1708 710
3 5564 4955 5508
3 7070 7071 7072
3 5243 3488 5637
3 3234 3232 6444
3 1333 1337 535
3 5606 2533 5605
3 5070 7073 2698
3 5137 7073 5070
3 5188 5332 5189
3 7074 3492 7075
3 7070 3797 7071
3 3899 3822 5418
3 3360 3838 7072
3 5418 1914 3899
3 5418 3822 4814
3 3360 3856 3838
3 4549 4550 4638
3 7072 3448 7070
3 4549 5939 429
3 5312 969 968
3 968 2568 5312
3 1919 3051 6823
3 5719 6251 5449
3 6900 6901 7076
3 5449 5318 5719
3 3448 7077 7070
3 7078 7079 7080
3 3220 7081 3219
3 5379 6251 5719
3 3219 7081 7082
3 5746 2958 2963
3 2361 7034 3141
3 2963 2984 5746
3 3141 7034 6882
3 3654 2958 5746
3 2753 7083 6110
3 2980 1597 6110
3 3236 618 620
3 7078 7084 7079
3 6110 7083 2980
3 6828 7085 6903
3 7080 6976 7078
3 2924 3193 7086
3 3598 3167 7087
3 7086 4927 2924
3 6976 6978 7078
3 3195 7088 285
3 2566 5469 5470
3 5470 4313 2566
3 7088 284 285
3 7086 3193 5163
3 3383 7089 3702
3 7089 7090 3702
3 2919 3858 2925
3 7091 7092 7093
3 5604 3531 5603
3 7091 2421 2422
3 7091 3578 7092
3 196 3377 4614
3 4614 3377 4615
3 3040 704 3417
3 1264 4260 1265
3 3445 3661 619
3 2213 6929 2422
3 2422 6929 7091
3 619 618 3445
3 4614 195 196
3 4565 4566 6721
3 6721 5209 4565
3 3035 1514 7094
3 557 3600 3601
3 6900 7076 3601
3 1064 1063 1552
3 3601 7076 557
3 1064 1551 1066
3 2891 7095 2218
3 4324 2307 2309
3 6861 7096 2324
3 2310 4932 2309
3 5226 7009 3553
3 3553 3555 5226
3 3553 7009 3556
3 7096 7097 2324
3 2309 4932 4324
3 6208 3467 2061
3 7098 7099 6951
3 2061 4704 6208
3 3755 3467 6208
3 2251 2253 5708
3 2336 2908 5708
3 7099 5252 6951
3 5708 2253 2336
3 3743 7100 3744
3 2416 2415 1170
3 3743 686 7100
3 3607 7018 3605
3 1170 2789 2416
3 3744 7101 3604
3 2697 2696 7094
3 1950 2941 6564
3 7094 1514 2697
3 3158 2625 4890
3 4890 3159 3158
3 7101 3607 3604
3 4890 2625 4892
3 6960 3247 3127
3 7094 2696 3035
3 7102 4143 6962
3 5458 5572 7103
3 7102 4067 4143
3 2236 5457 7103
3 6901 7104 7105
3 2949 1508 7106
3 7104 7107 7105
3 2891 2218 2220
3 3165 3167 3598
3 7103 5457 5458
3 2699 2698 7106
3 2954 1904 1869
3 5691 4650 5673
3 5692 4650 5691
3 5673 5438 5691
3 2812 3005 4347
3 2863 6939 3118
3 4347 1376 2812
3 2891 2890 7095
3 521 630 632
3 1756 1755 6851
3 2679 3555 3554
3 3556 6858 3554
3 3245 6967 126
3 1756 7108 1759
3 3246 6967 3245
3 126 3243 3245
3 6851 7108 1756
3 1504 5500 141
3 1504 412 519
3 519 5500 1504
3 7109 7110 7111
3 3357 3355 3379
3 4378 480 2381
3 2381 2757 4378
3 7106 1508 2699
3 1759 7108 462
3 462 461 1759
3 3176 3172 7112
3 462 7108 472
3 7110 3359 7111
3 1165 1143 2791
3 1165 2789 1170
3 2970 1904 2954
3 3185 7087 3587
3 7113 7114 7115
3 3587 7087 3588
3 2423 2421 7091
3 7116 3766 3110
3 2423 7117 2425
3 5227 2754 6738
3 7091 7117 2423
3 7118 3167 7119
3 2246 2248 5688
3 7113 4032 7114
3 2341 2924 5688
3 6161 4024 6578
3 5227 5849 3591
3 5688 2248 2341
3 47 48 7120
3 2877 5249 2778
3 2778 5249 1590
3 2778 2777 2877
3 5696 7121 7122
3 6161 7123 4024
3 7122 7121 7124
3 7122 3942 5696
3 6875 6517 7125
3 6946 7126 3280
3 3280 3917 6946
3 6875 6877 6517
3 7127 7128 7129
3 4935 5125 5630
3 5630 4912 4935
3 7130 7131 7132
3 2241 1743 1742
3 6605 2511 3271
3 1744 2240 1742
3 1095 3091 1823
3 1823 1093 1095
3 2736 3212 6927
3 6771 1958 1957
3 7130 7133 7131
3 1961 2379 1957
3 6943 7058 3311
3 1957 2379 6771
3 7134 3424 6189
3 3424 6190 6189
3 7135 7136 2363
3 6384 2744 3627
3 7137 6895 7138
3 5734 3537 7139
3 1331 1738 1737
3 1740 2250 1737
3 7139 7041 5734
3 4750 4897 4767
3 1322 1222 4767
3 2160 7140 2161
3 3149 3150 6884
3 7128 7141 7129
3 6738 5849 5227
3 6895 6897 7138
3 3148 3748 6930
3 2161 7140 2165
3 588 5300 3115
3 2139 2789 2142
3 2363 7142 7135
3 6573 7143 5834
3 7144 7145 7146
3 6573 2807 7143
3 5316 3209 7147
3 595 594 3139
3 3672 3742 7140
3 595 4063 605
3 7140 3742 2165
3 2139 2141 2419
3 3139 4063 595
3 4770 5508 4769
3 1329 1252 4769
3 4766 1871 4751
3 4897 4750 4751
3 1958 3381 2487
3 6960 3127 3128
3 5567 4464 2872
3 3917 6850 6359
3 1590 674 676
3 3917 3280 6850
3 681 2777 676
3 531 717 3386
3 3386 3388 531
3 3120 1203 2935
3 6771 3381 1958
3 2961 3260 2962
3 4212 179 180
3 6625 6906 7148
3 5566 4464 5567
3 4203 100 101
3 2779 2777 681
3 3152 3153 5734
3 4217 258 259
3 4974 3294 3297
3 2779 2849 2706
3 4214 22 23
3 2111 2539 2109
3 6625 3416 6906
3 2542 2108 2109
3 2281 3137 3088
3 2908 3191 7149
3 5656 802 638
3 7149 4931 2908
3 7150 7151 6363
3 7151 3550 6363
3 1449 7152 1393
3 531 3388 2976
3 2976 3388 2977
3 7149 3191 5072
3 7153 3203 6805
3 413 412 1505
3 5319 3203 7153
3 142 143 1505
3 7154 3110 3766
3 3766 1913 7154
3 5412 3110 7154
3 6092 2842 4393
3 6091 2842 6092
3 4393 1935 6092
3 2311 2405 5580
3 5363 1273 5580
3 5580 1273 2311
3 1502 2522 2524
3 2525 3153 2524
3 7152 1588 1393
3 3005 2812 2810
3 1451 7155 1391
3 7145 7156 7146
3 7155 1581 1391
3 5429 3700 6832
3 4276 7155 4279
3 4276 1901 7155
3 2811 2991 2810
3 2004 2940 904
3 4653 6799 5215
3 4655 6799 4653
3 4285 7152 4288
3 2672 3388 3387
3 5215 4209 4653
3 3533 3532 5446
3 4285 1895 7152
3 5777 7157 5776
3 3280 7126 3279
3 5689 5437 5776
3 2494 120 121
3 5776 7157 5689
3 3178 3176 5361
3 5361 3176 3049
3 1891 7158 1889
3 1891 1808 7158
3 5854 4655 1280
3 1883 7159 1881
3 1280 1281 5854
3 1883 1794 7159
3 6346 1734 2989
3 7160 6796 7161
3 4790 122 123
3 4790 4791 3068
3 1732 1734 6346
3 6796 7162 7161
3 2989 2990 6346
3 7163 7052 2988
3 4901 2045 2150
3 7066 7052 7163
3 3311 6893 3307
3 4901 4579 2831
3 6768 6481 7160
3 4896 2034 2144
3 472 6852 7164
3 6768 6769 6481
3 1569 7165 1758
3 7164 3883 472
3 4896 4581 2833
3 1569 1584 7165
3 2444 7166 5983
3 6793 7167 577
3 2448 7166 2444
3 3097 3099 5330
3 5330 5450 3097
3 5983 2445 2444
3 5707 5045 5453
3 6793 1140 7167
3 2384 5045 5707
3 2156 7168 2157
3 5446 3532 4921
3 419 418 1512
3 63 64 1512
3 3218 3217 3490
3 5047 5071 4469
3 3146 3145 4692
3 5047 2705 4327
3 4327 5071 5047
3 7168 4440 2157
3 606 7169 2221
3 2036 2038 4339
3 606 608 7169
3 443 442 1541
3 300 301 1541
3 4639 4640 3765
3 423 422 1543
3 221 222 1543
3 4734 4675 5647
3 4683 2070 5647
3 4639 5603 4638
3 4339 2484 2036
3 612 7170 2217
3 5724 7074 7075
3 2464 5538 2159
3 2159 5538 2160
3 2935 1203 1485
3 4405 5360 4404
3 4404 5360 5279
3 3288 3287 7171
3 612 614 7170
3 2355 748 750
3 7171 3121 3288
3 2491 7172 2492
3 2035 4380 2561
3 7172 4431 2492
3 4508 4510 6840
3 2488 7173 2453
3 5297 3742 3672
3 7173 4436 2453
3 434 7174 2294
3 434 4524 7174
3 7175 2807 6573
3 4505 7176 2298
3 6840 6229 4508
3 7177 7178 7179
3 4505 2492 7176
3 2912 4928 481
3 578 5952 2022
3 481 4928 492
3 578 575 5952
3 6319 1146 1493
3 6443 3247 5353
3 2373 7180 2532
3 6319 5090 1144
3 7180 4637 2532
3 5748 5904 4573
3 5904 3580 4573
3 2820 2604 4480
3 2604 2290 4480
3 2851 6927 6924
3 3476 7181 2994
3 1144 1146 6319
3 3364 7182 1549
3 3364 3365 1397
3 5226 3555 2913
3 2913 3555 2914
3 5742 7074 5724
3 7075 3585 5724
3 5722 6383 5478
3 492 5791 482
3 482 5791 2384
3 5478 5315 5722
3 4399 4307 4405
3 2502 3438 7183
3 2425 4307 4399
3 7183 3438 5655
3 6920 1221 1265
3 3476 5203 7181
3 3478 7184 2996
3 3478 5201 7184
3 4699 7185 3004
3 3379 7186 3375
3 3375 7186 3377
3 5393 6383 5722
3 4699 4637 7185
3 7179 6774 7177
3 7187 7188 7189
3 2750 6303 2751
3 3008 620 3487
3 3487 3485 3008
3 3487 620 623
3 7011 6094 2861
3 6303 2055 2751
3 3090 7190 3107
3 2861 2839 7011
3 6910 6848 3338
3 6856 2928 1137
3 133 6094 7011
3 2888 2928 6856
3 7112 3303 573
3 7065 3277 3276
3 3271 6949 3276
3 4208 4207 5517
3 3276 6949 7065
3 3444 3592 3445
3 3444 3443 2238
3 2587 2624 2629
3 5439 3159 4893
3 3103 4482 4893
3 1580 3500 7191
3 4893 4482 5439
3 7190 2759 3107
3 152 5116 5081
3 7073 7106 2698
3 3059 3212 2736
3 3059 3061 7192
3 7073 5137 2949
3 1709 7118 1728
3 5517 1735 4208
3 3588 7118 1709
3 2949 7106 7073
3 6911 7193 3162
3 4332 4207 1276
3 152 153 5116
3 231 5107 5078
3 2588 2624 2587
3 231 232 5107
3 2629 2583 2587
3 104 7194 5666
3 5500 140 141
3 104 105 7194
3 4994 7195 4878
3 5392 5315 2617
3 5312 3121 969
3 2468 753 2466
3 5353 3247 2986
3 3637 3636 7191
3 3637 3500 6877
3 969 3121 7171
3 7191 3500 3637
3 4994 4389 7195
3 4375 2565 5226
3 6898 7196 3973
3 4378 2565 4375
3 6230 6835 3213
3 2872 4465 4977
3 7196 3975 3973
3 7197 3954 7198
3 5045 2384 5046
3 2983 3574 3225
3 5045 1358 5453
3 5830 2280 3089
3 5830 4452 4453
3 4453 2280 5830
3 3037 704 3040
3 3037 3039 3126
3 278 279 7199
3 593 3433 7199
3 4977 4465 4978
3 7197 3956 3954
3 5556 4830 955
3 5357 5475 2391
3 3442 6840 476
3 3442 3443 3236
3 2391 401 5357
3 1748 5506 5464
3 5358 5475 5357
3 3140 3141 6882
3 2626 2018 5467
3 2271 2273 5563
3 5435 7200 3550
3 4495 5102 3913
3 5384 3823 7201
3 7200 3548 3550
3 7202 3595 3248
3 7201 3392 5384
3 4495 3770 5571
3 5571 5102 4495
3 2471 5567 2870
3 7202 6869 3595
3 2981 3224 2985
3 2981 2983 3225
3 2870 5567 2872
3 2870 2868 2471
3 5766 3568 3673
3 3673 4486 5766
3 7203 7204 7205
3 7203 7206 7204
3 3105 7207 3100
3 3569 3568 5766
3 3100 7207 3103
3 2382 2215 4859
3 3642 7053 3293
3 3642 7051 7053
3 4859 2215 2214
3 4859 4516 2382
3 1690 7208 6862
3 2710 2262 508
3 7208 5456 6862
3 4770 4668 4669
3 4670 1706 4669
3 3225 3574 6699
3 5467 2628 2626
3 4380 555 2561
3 135 3960 4686
3 4687 2862 4686
3 2269 5057 2268
3 2877 2266 2268
3 556 555 4380
3 7188 7209 7189
3 7210 7211 7212
3 2170 1144 6831
3 5714 4638 5603
3 5714 3344 5939
3 1947 3181 5417
3 5378 5318 2528
3 5038 3568 3199
3 1066 7183 5657
3 5657 1065 1066
3 5657 7183 5655
3 6979 715 6788
3 2554 3568 5038
3 3407 513 518
3 715 717 6788
3 521 3403 518
3 4475 4337 4424
3 1961 4337 4475
3 6831 1144 5090
3 3491 6816 7075
3 6831 2169 2170
3 1662 4973 5140
3 645 6816 3491
3 7075 3492 3491
3 2425 7117 5389
3 5389 4307 2425
3 3492 7213 7214
3 3132 3308 3131
3 3492 7074 7213
3 4208 4953 6172
3 6172 4209 4208
3 3356 4507 837
3 837 839 3356
3 3151 2518 2519
3 2520 3150 2519
3 6172 4953 1285
3 2941 3215 6564
3 7215 2211 2387
3 2884 3238 2886
3 2884 2885 3238
3 577 7208 5693
3 7208 1690 5693
3 7216 3313 7217
3 1321 7218 5258
3 7217 3313 3246
3 7072 3838 3448
3 1321 1558 7218
3 7215 2473 2212
3 2212 2211 7215
3 3310 6943 3311
3 753 2468 2146
3 283 7088 6995
3 2146 2468 2147
3 3473 4142 2331
3 283 284 7088
3 6999 5521 4012
3 7116 7120 7219
3 7219 3766 7116
3 7219 7120 48
3 4012 3535 6999
3 3340 3039 3038
3 3310 3308 2439
3 2439 6943 3310
3 6105 2540 4403
3 2525 5521 6999
3 4403 2231 6105
3 4918 7029 6615
3 4673 2225 2227
3 5322 3111 3113
3 3113 2392 5322
3 3132 3133 3136
3 1258 4609 5329
3 3448 3838 3451
3 4863 494 369
3 4909 3545 2662
3 494 4011 4350
3 2662 4912 4909
3 369 494 4350
3 5411 2574 3384
3 3384 5681 5411
3 4865 500 374
3 500 4016 4367
3 374 500 4367
3 4321 5086 4216
3 4216 327 4321
3 6515 7125 6517
3 398 1311 5164
3 5164 1311 1310
3 1757 2346 2772
3 3115 3433 589
3 589 588 3115
3 589 3433 593
3 2441 7220 5228
3 5228 7220 2383
3 5353 2986 561
3 7040 7221 7222
3 2122 5088 4211
3 7222 7221 2730
3 7222 3337 7040
3 4323 5088 2122
3 3872 2322 3870
3 5487 5503 6695
3 7223 2941 6230
3 3897 4500 6695
3 2772 1755 1757
3 5681 7224 5349
3 6695 4500 5487
3 7223 3213 3215
3 3798 7081 3220
3 2435 2438 2179
3 7077 7081 3798
3 2179 2431 2435
3 3215 2941 7223
3 5349 7224 5350
3 2932 3622 2910
3 5349 5339 5681
3 5839 611 610
3 533 2175 4484
3 7191 3636 610
3 6230 3213 7223
3 3335 7018 3607
3 4484 534 533
3 7225 7018 3335
3 4232 3030 3034
3 3034 4233 4232
3 6805 1910 6917
3 5506 7153 6917
3 121 122 3066
3 6917 7153 6805
3 610 3636 5839
3 3066 2494 121
3 4570 5600 2774
3 6941 6943 2439
3 2439 2437 6941
3 42 6115 7069
3 685 3326 7069
3 7069 6115 685
3 2774 5600 2783
3 3355 3358 6887
3 5207 2393 2123
3 1795 1167 274
3 2667 339 5673
3 1168 1167 1795
3 4897 4751 1870
3 3300 3622 2932
3 2932 3366 3300
3 6887 3353 3355
3 5670 2445 2461
3 2730 7221 7226
3 1870 4751 1871
3 7227 3346 3410
3 1870 1904 4897
3 2465 2953 2461
3 2461 2953 5670
3 2888 2926 2928
3 4682 2718 4681
3 4465 6605 4978
3 2141 2973 2419
3 4466 6605 4465
3 280 281 5716
3 5718 3009 5716
3 2978 1277 5633
3 5716 3009 280
3 198 199 3380
3 7228 3374 3380
3 5398 4643 5633
3 4766 4663 4681
3 5491 276 277
3 5491 3434 5490
3 7220 2215 2383
3 3410 3412 7227
3 7220 2441 2216
3 5566 2634 4464
3 2216 2215 7220
3 5509 4911 5571
3 5509 2969 3545
3 7229 7230 3025
3 5898 2546 2545
3 6978 7230 7229
3 2545 2825 5898
3 7227 3412 7231
3 3712 5848 5841
3 3943 3395 3938
3 5770 3180 5841
3 7232 6955 2267
3 2267 2266 7232
3 332 266 267
3 7233 40 41
3 7233 3326 4692
3 2267 6955 2269
3 41 3326 7233
3 5717 281 282
3 5717 6997 5718
3 6857 6743 2063
3 282 6997 5717
3 2063 6743 2066
3 3240 3243 5747
3 5747 2673 3240
3 5747 3243 127
3 7234 1177 5296
3 7235 6935 3162
3 3162 7193 7235
3 1182 1177 7234
3 2063 2038 6857
3 2584 3081 2879
3 6472 1783 1782
3 2879 3081 5529
3 6616 2307 4442
3 3393 1557 1556
3 1784 7147 1782
3 1580 5300 1556
3 616 3874 3710
3 7210 7236 7211
3 3710 617 616
3 1782 7147 6472
3 4921 2897 525
3 525 2897 4398
3 2473 7215 5809
3 3076 3078 7237
3 5809 7215 2387
3 7238 6719 7239
3 1497 3152 6671
3 6671 1498 1497
3 42 43 6115
3 720 685 6115
3 1502 3152 1497
3 4442 6038 6616
3 469 1723 470
3 1506 470 1723
3 496 4294 502
3 283 6995 7240
3 333 267 268
3 2236 7103 5573
3 5573 7103 5572
3 5974 7241 5970
3 6997 282 7240
3 4911 5971 5970
3 2040 7035 2885
3 5970 7241 4911
3 2377 2379 4476
3 4476 1790 2377
3 460 2108 2115
3 2115 567 460
3 7240 6995 6997
3 1956 2484 1961
3 7238 6125 6719
3 532 534 2788
3 532 1217 538
3 5858 3063 4731
3 3353 4507 3356
3 7240 282 283
3 2788 1217 532
3 1956 1958 2487
3 2535 2534 2899
3 2535 2894 2537
3 4731 3063 4733
3 5424 5462 1496
3 2693 2695 2811
3 4750 4660 4662
3 470 1506 1808
3 6805 3203 3205
3 465 1716 466
3 4663 4766 4662
3 2653 4118 4569
3 5490 611 6821
3 4569 4118 2098
3 6821 611 5839
3 7239 6675 7242
3 6870 3222 4625
3 1496 1498 5424
3 3490 3222 6870
3 6220 452 5665
3 2165 7243 7244
3 1944 3125 330
3 3586 2869 5460
3 5460 5328 3586
3 2481 2939 2482
3 5079 2462 7244
3 4996 2939 2481
3 7244 7243 5079
3 1501 466 1716
3 466 1501 1794
3 7245 3618 5482
3 6220 5285 697
3 5209 5739 5715
3 6224 449 5668
3 2465 2947 2953
3 5715 5739 1966
3 4733 3823 4732
3 5715 4565 5209
3 4732 3823 5384
3 6224 5283 2167
3 3723 5494 5369
3 2718 4682 5111
3 1681 2797 5111
3 206 207 5369
3 7246 6941 2437
3 5294 1596 5653
3 6888 6941 7246
3 5692 5640 5653
3 5653 1596 5692
3 3052 957 2846
3 5381 4510 4514
3 2569 555 4409
3 7082 7121 7247
3 4410 804 4411
3 7247 7121 5696
3 200 201 5510
3 5511 3011 5510
3 2570 559 4411
3 5510 3011 200
3 7245 2827 7054
3 5058 2939 4996
3 5058 1930 5185
3 3108 3110 5412
3 5185 2939 5058
3 3138 2688 3139
3 2609 4542 3409
3 7054 3618 7245
3 5482 2827 7245
3 3138 3137 6966
3 3065 3746 3064
3 7248 3062 3064
3 3022 762 778
3 6966 2688 3138
3 3025 762 3022
3 778 3020 3022
3 4643 5398 4644
3 7249 2481 2483
3 476 4510 5381
3 4996 2481 7249
3 551 201 202
3 5287 4648 4644
3 5442 5504 5518
3 899 2330 2014
3 407 5192 405
3 6929 3578 7091
3 5518 5504 3712
3 6928 3578 6929
3 3050 3051 2847
3 3050 7229 3025
3 4892 3102 3101
3 2847 7229 3050
3 5487 4500 5671
3 5671 4500 439
3 5671 5488 5487
3 2843 265 266
3 2427 2707 3603
3 2427 3600 557
3 1257 2330 899
3 4974 3297 4972
3 4972 3297 6920
3 6430 7250 7251
3 3623 3625 7251
3 7251 7250 3623
3 5544 5543 6015
3 6055 7252 2451
3 320 334 331
3 6749 1659 2970
3 6749 4311 1658
3 1658 1659 6749
3 3717 3197 3196
3 411 29 30
3 285 286 3196
3 5215 1273 1275
3 1276 4207 1275
3 2712 187 188
3 7253 2794 2796
3 2209 2421 5401
3 3304 3324 2828
3 2796 3070 7253
3 2739 108 109
3 755 754 2403
3 2403 1647 755
3 6025 2123 2393
3 6823 3051 3021
3 4406 2123 6025
3 2393 926 6025
3 3021 3020 6823
3 5037 4537 4558
3 5811 4967 2621
3 2844 7084 2847
3 2844 2846 6838
3 2621 2620 5811
3 5698 4537 5037
3 2344 2346 2348
3 5401 2208 2209
3 686 3743 3749
3 3148 3146 3749
3 2772 2947 2771
3 3749 3146 686
3 2348 4445 2344
3 2950 2767 2771
3 5698 5037 3198
3 1660 1930 1661
3 2980 1290 2305
3 3938 3695 3943
3 5185 1930 1660
3 2100 2806 5777
3 3395 3943 7124
3 7116 3110 3109
3 3109 5676 7116
3 7254 7255 7256
3 7257 6750 6774
3 2977 3388 5476
3 6564 6566 6734
3 5476 3388 2672
3 6734 6566 942
3 2813 3121 5312
3 5828 3483 2168
3 7119 3161 3164
3 2670 2669 5478
3 5494 3723 5522
3 4869 7246 5359
3 5359 7246 2437
3 2772 2346 2345
3 2914 3555 5447
3 2345 2947 2772
3 5447 3555 2679
3 4679 2141 2140
3 2670 5476 2672
3 1728 7118 3164
3 2142 2656 2140
3 5718 6997 3257
3 2140 2656 4679
3 3257 6997 6996
3 7235 7258 6935
3 2231 5308 2229
3 2803 2230 2229
3 5453 1358 5454
3 2229 5308 2803
3 5803 7050 5804
3 5803 2661 2923
3 605 6367 3318
3 3418 713 3318
3 7119 3167 3166
3 7259 7258 7235
3 2923 7050 5803
3 3166 6911 7119
3 5790 7047 5802
3 5733 7041 6815
3 6815 4309 5733
3 5734 7041 5733
3 5790 2659 2864
3 2864 7047 5790
3 5478 5476 2670
3 3164 7118 7119
3 5525 5195 5260
3 1944 1943 5122
3 2231 530 7260
3 5122 1943 4334
3 5713 5404 5405
3 6855 2067 5468
3 4961 5947 3054
3 3057 5947 4961
3 3054 1148 4961
3 683 685 720
3 3605 7020 3992
3 6855 4952 5577
3 5721 6105 7260
3 2406 498 2963
3 3143 1263 1262
3 3992 7020 7261
3 2406 2956 2410
3 5804 808 1802
3 1802 1801 5804
3 5802 819 1827
3 1827 1826 5802
3 3465 3076 7237
3 7237 3460 3465
3 6933 3076 3465
3 557 7076 553
3 5511 551 553
3 553 7076 5511
3 7260 6105 2231
3 2658 2044 2043
3 7228 3011 7262
3 1852 2658 2043
3 7262 3011 5511
3 5348 5334 5338
3 5347 5334 5348
3 5338 5339 5348
3 3090 3107 3106
3 109 110 3106
3 2507 4741 2506
3 2355 2504 2506
3 5529 2855 2856
3 119 120 2495
3 3363 3360 7071
3 2506 4741 2355
3 2710 2016 2015
3 2015 2262 2710
3 4484 3365 2787
3 2097 1969 1968
3 1968 2232 2097
3 5777 5188 2784
3 4485 4486 942
3 5530 25 26
3 4485 6566 2692
3 5366 2746 2748
3 942 6566 4485
3 5999 3016 5561
3 5532 261 262
3 2647 2648 5412
3 2647 1150 1149
3 3549 5689 4872
3 2806 4870 4872
3 30 31 409
3 4670 336 4596
3 4601 3261 4596
3 954 5555 5556
3 5974 5184 2781
3 5556 955 954
3 962 5555 954
3 3354 7186 3379
3 3356 7186 3354
3 3379 3355 3354
3 4402 7263 5401
3 4403 7263 4402
3 7071 3360 7072
3 4408 2494 3067
3 7071 3797 3363
3 2043 2831 1852
3 2528 2593 2514
3 1107 1100 2577
3 5999 5939 3344
3 2617 2578 2577
3 7264 3537 3536
3 2465 3638 6873
3 7139 3537 7264
3 7265 4558 4536
3 7266 44 45
3 7266 2934 7026
3 5201 4558 7265
3 45 2934 7266
3 6675 7267 7242
3 7268 7153 5506
3 5506 2592 7268
3 5319 7153 7268
3 7105 7076 6901
3 2173 2800 6822
3 570 7269 4819
3 6435 594 596
3 5643 5485 5484
3 5643 2827 5482
3 6966 7269 570
3 5484 2827 5643
3 3344 3016 5999
3 3327 1945 5191
3 5420 4594 5698
3 2121 1332 4322
3 5511 7076 7105
3 2121 4323 2122
3 2985 6454 2982
3 2033 4383 2590
3 4383 1378 2590
3 4563 5192 5191
3 5439 4482 2175
3 1345 1378 4383
3 7256 7255 7270
3 5191 1945 4563
3 2698 2138 4741
3 3063 3062 4733
3 2677 2676 5449
3 2677 5447 2679
3 2836 2316 479
3 5449 5447 2677
3 7271 3421 6745
3 4382 5314 4712
3 3613 3421 7271
3 3094 3093 7225
3 4712 3405 4382
3 4971 6443 5352
3 4496 3913 547
3 5352 6443 5353
3 7271 2490 3613
3 6638 7083 2753
3 4496 2459 2458
3 2165 7244 2166
3 5390 2490 7271
3 2166 7244 2462
3 4333 6703 5646
3 5451 5100 5974
3 6116 43 4
3 6116 2945 720
3 5646 6703 4343
3 4 2945 6116
3 3130 3133 3132
3 3130 3129 3134
3 5646 1594 4333
3 6174 7149 5072
3 5099 5438 341
3 6174 5368 4931
3 4931 7149 6174
3 6638 2137 3667
3 3667 7083 6638
3 40 7233 4690
3 4690 7233 4692
3 7171 2726 967
3 2757 4847 4378
3 2607 2608 5458
3 2728 2726 7171
3 7171 3287 2728
3 2607 4542 2609
3 967 969 7171
3 5458 4542 2607
3 2584 2879 2881
3 3252 7272 7273
3 2097 2232 2235
3 5529 2856 2880
3 3248 3247 6960
3 2946 2947 2465
3 2946 6873 2950
3 2880 2856 2882
3 2465 6873 2946
3 2880 2879 5529
3 2186 2137 2746
3 2437 2438 2440
3 2436 1990 2440
3 5775 5332 5188
3 4978 3267 4976
3 5437 5332 5775
3 5188 5777 5775
3 2988 2741 562
3 1145 1147 2189
3 562 561 2988
3 2745 107 108
3 5214 2190 2189
3 7272 4450 7273
3 5084 5788 269
3 7273 4450 764
3 5084 3580 5904
3 5904 5788 5084
3 6978 7229 7078
3 2847 7084 7078
3 7078 7229 2847
3 2708 6565 6021
3 4493 1378 1344
3 543 2827 5484
3 2692 6565 2708
3 4491 1214 1212
3 6225 1053 1052
3 2874 3292 7232
3 7232 2875 2874
3 1040 3149 4541
3 4541 4542 1040
3 4541 3149 6884
3 6225 2354 4677
3 3323 3616 7054
3 7054 3324 3323
3 6691 7274 5465
3 5649 2576 5316
3 2733 2849 3134
3 2718 2716 5759
3 1871 4766 5759
3 5759 2716 1871
3 5079 7243 3104
3 4897 1659 5805
3 7208 7167 5456
3 202 203 552
3 5649 7147 1784
3 1320 1322 5805
3 552 551 202
3 205 206 5042
3 5494 3603 5042
3 5805 1659 1320
3 4929 4324 4932
3 4929 4931 5368
3 4677 1053 6225
3 6838 2846 2515
3 6694 7274 6691
3 5229 1591 5527
3 5848 3712 5504
3 5316 7147 5649
3 2188 2190 7253
3 577 7167 7208
3 7275 7163 3596
3 3596 4786 7275
3 7066 7163 7275
3 5380 5440 7276
3 5455 4950 6862
3 7253 3070 2188
3 6862 5456 5455
3 2375 947 7276
3 7276 5440 2375
3 3933 7277 7278
3 2505 2504 4974
3 1667 4309 6815
3 2464 2463 7279
3 7279 4300 2464
3 7279 2463 5358
3 6815 1666 1667
3 5360 3049 5309
3 3313 7216 7008
3 5309 5279 5360
3 3313 3312 3246
3 5308 2231 5279
3 5279 5309 5308
3 7276 947 5380
3 2895 3460 7237
3 2480 1417 1418
3 1441 2477 1418
3 7237 2894 2895
3 7277 3002 7278
3 4663 5396 4680
3 5354 4682 4680
3 3378 3374 7228
3 7237 3078 2892
3 4820 7269 2281
3 839 4613 4615
3 2892 2894 7237
3 4819 7269 4820
3 4615 3356 839
3 460 567 2715
3 5244 1645 5601
3 7277 3933 7280
3 2176 3308 3132
3 7281 7262 7107
3 7228 7262 7281
3 7218 1558 1798
3 953 955 2857
3 3486 3799 3220
3 953 2855 962
3 7282 46 47
3 7282 7120 7061
3 2439 3308 2176
3 47 7120 7282
3 7218 6934 5258
3 593 7199 3010
3 3010 3009 593
3 3010 7199 279
3 2660 2046 2032
3 7021 2945 7026
3 1861 2660 2032
3 720 2945 7021
3 2032 2833 1861
3 4510 476 6840
3 1798 6934 7218
3 2443 1984 2448
3 2443 2445 5670
3 6094 2862 2861
3 6094 133 134
3 2184 889 2466
3 5183 5184 4648
3 4648 5287 5183
3 763 7230 3258
3 763 762 3025
3 2619 2843 266
3 3025 7230 763
3 5214 2825 2190
3 1487 4528 2854
3 2190 2825 7253
3 2700 3611 2876
3 2854 1490 1487
3 7283 3810 4126
3 3812 3810 7283
3 2695 3232 2811
3 3612 2372 3614
3 6444 3232 2695
3 3887 3612 3614
3 2372 3612 2752
3 5689 3549 4468
3 4339 2038 2064
3 2066 4338 2064
3 4959 2667 5673
3 2854 4528 2883
3 3711 3179 5067
3 1892 7165 4284
3 5145 4385 6017
3 3547 3807 3550
3 7284 4433 4434
3 3181 1947 5067
3 3103 7207 5553
3 5553 4482 3103
3 5553 7207 3916
3 6736 6401 7285
3 6851 2767 2769
3 2769 4088 6851
3 2191 4433 7284
3 4434 4010 7284
3 3260 588 590
3 590 3259 3260
3 5371 3140 6880
3 6880 3223 5371
3 630 1063 1065
3 5861 7249 2483
3 2683 186 187
3 6880 3140 6882
3 5067 3179 3181
3 2208 2540 2111
3 5178 3469 542
3 5861 622 4388
3 2676 5318 5449
3 4388 7249 5861
3 7286 3489 5243
3 7286 926 928
3 6851 6852 7108
3 928 3489 7286
3 7108 6852 472
3 3761 7104 6899
3 6986 3009 5718
3 6899 7104 6901
3 593 3009 6986
3 3230 3438 3228
3 3065 3076 7287
3 7287 3746 3065
3 7287 3076 6933
3 5243 926 7286
3 2669 5315 5478
3 3472 3469 5178
3 5555 3117 4918
3 5562 2966 5193
3 6671 3152 5732
3 5732 4309 6671
3 5732 3152 5734
3 2911 2918 4928
3 962 3117 5555
3 4996 7249 4995
3 4928 2912 2911
3 5438 5673 339
3 4388 4389 4995
3 4995 7249 4388
3 7263 2208 5401
3 7263 4403 2540
3 2540 2208 7263
3 4210 3097 5450
3 324 326 4320
3 324 4321 327
3 5562 1590 2971
3 7036 2794 2793
3 2547 7288 2793
3 2264 2558 933
3 2793 7288 7036
3 2499 3233 3228
3 5684 4707 1688
3 5443 4707 5684
3 2804 5488 2642
3 1688 4590 5684
3 2554 2556 5175
3 3160 3161 7119
3 3160 6911 3162
3 2151 2573 5175
3 7119 6911 3160
3 3175 2299 6846
3 6846 6737 3175
3 3171 1966 5739
3 5209 3643 5739
3 3228 3438 2499
3 3309 3061 3060
3 4284 7165 4283
3 3087 3088 6435
3 3306 3621 3299
3 3087 3419 3089
3 2264 2262 5424
3 3622 3300 3299
3 4566 5230 5229
3 6920 7289 1220
3 1220 7289 1257
3 5229 6721 4566
3 2988 7052 2742
3 3171 3170 5840
3 2742 7052 2744
3 2742 2741 2988
3 293 294 5840
3 2876 3611 3640
3 6736 6390 6401
3 3640 3611 3645
3 7186 4615 3377
3 1220 1221 6920
3 5527 6721 5229
3 3117 3118 6940
3 7290 7288 2909
3 4457 4610 4458
3 2909 7288 2547
3 2909 2910 7290
3 4607 4610 4457
3 5598 1709 1711
3 1711 4302 5598
3 3588 1709 5598
3 7280 3970 7206
3 5259 829 6808
3 7206 7291 7280
3 1061 1321 6808
3 3655 2666 3544
3 3445 3592 2921
3 6808 829 1061
3 3042 3041 6822
3 3042 5309 3049
3 6822 5309 3042
3 4506 4507 4869
3 2713 512 2412
3 3356 4615 7186
3 5848 5504 5947
3 5947 5504 3054
3 2457 4117 2412
3 2412 4117 2713
3 5150 7086 5163
3 5150 5149 4927
3 4927 7086 5150
3 644 2559 1668
3 3737 3474 5180
3 2145 2543 5180
3 5910 3161 2622
3 2735 6927 2851
3 5537 3459 5534
3 2736 6927 2735
3 2851 2733 2735
3 6038 2536 6616
3 4568 1263 5534
3 5534 3459 4568
3 5138 4973 1662
3 5066 1946 5113
3 674 1554 2433
3 1947 1946 5066
3 5113 3711 5066
3 5570 1627 1624
3 4300 7279 5355
3 4589 4298 3962
3 5355 7279 5358
3 5570 5410 3945
3 6229 3234 6444
3 4589 3896 3895
3 3895 4298 4589
3 2975 2906 4932
3 1624 5410 5570
3 6840 3234 6229
3 4932 2310 2975
3 3756 3755 5819
3 5560 5613 5561
3 5560 1733 1732
3 33 34 5044
3 4673 3644 2225
3 3033 2385 5044
3 6960 3128 6959
3 2620 1934 5811
3 2269 6955 6959
3 7228 3380 3012
3 3012 3011 7228
3 3012 3380 199
3 5910 5373 3163
3 6959 3128 2269
3 3163 5373 1728
3 3163 3161 5910
3 7292 3317 4560
3 3329 2934 7061
3 2251 5391 4832
3 7026 2934 3329
3 4832 5391 1804
3 684 3146 4692
3 4692 3326 684
3 686 3146 684
3 4560 3317 4582
3 5441 2665 2375
3 5519 2665 5441
3 5904 2873 5788
3 3667 3116 7083
3 4832 2252 2251
3 806 808 5804
3 806 7050 810
3 5804 7050 806
3 268 269 5788
3 4560 4559 7292
3 4918 6615 4916
3 764 2596 2595
3 2950 6873 6875
3 6875 7125 2950
3 779 762 2595
3 2515 2846 957
3 4916 6615 3719
3 6599 6598 7293
3 5693 5694 575
3 2595 762 764
3 575 577 5693
3 3252 7273 3258
3 6616 522 524
3 1327 1329 5400
3 6920 3297 7289
3 512 915 937
3 3252 3251 7272
3 5508 4955 5400
3 2992 2991 3490
3 6823 3029 6824
3 3633 1925 6824
3 2246 5377 4862
3 6824 3029 3633
3 2992 6870 3005
3 4862 5377 1829
3 3432 118 119
3 3432 3428 4611
3 4611 118 3432
3 4862 2247 2246
3 3671 3119 2611
3 817 819 5802
3 817 7047 827
3 5802 7047 817
3 7112 3041 3043
3 3049 3176 3043
3 5640 2017 5638
3 3490 6870 2992
3 1115 1102 1331
3 1115 2250 1136
3 3043 3176 7112
3 2684 2683 187
3 7253 2825 2792
3 5266 4691 1262
3 1262 1261 5266
3 2792 2794 7253
3 2806 4872 7157
3 1484 4880 2936
3 5350 3591 5849
3 6738 4883 5849
3 7157 4872 5689
3 7157 5777 2806
3 3544 3653 3655
3 2608 5572 5458
3 3738 3745 3747
3 5910 2624 5908
3 2588 1138 5908
3 6304 213 214
3 742 741 5243
3 742 5637 747
3 2605 5488 2804
3 5243 5637 742
3 5969 4648 5184
3 5971 4648 5969
3 5184 5974 5969
3 5908 2624 2588
3 2936 1485 1484
3 2936 4880 2974
3 2528 5318 2593
3 1595 2431 1593
3 7214 6835 6230
3 2433 1554 1593
3 3662 3540 3948
3 7294 3949 3948
3 889 891 2467
3 2467 2466 889
3 2467 891 2471
3 438 3017 5025
3 5025 3017 5028
3 5455 5199 5526
3 5526 1664 5455
3 2937 2939 5185
3 4974 2504 2503
3 7295 3636 5983
3 2180 3294 2503
3 5839 3636 7295
3 2503 3294 4974
3 1189 1191 2241
3 1189 2240 1219
3 5313 802 5582
3 5025 439 438
3 638 802 5313
3 2338 3193 2341
3 7200 7296 7097
3 7297 5521 1918
3 1918 6806 7297
3 2575 4452 2814
3 3126 2813 2814
3 5435 7296 7200
3 3028 3020 778
3 3028 784 2650
3 2338 2340 2974
3 7097 3548 7200
3 2631 2633 4466
3 2617 5315 2578
3 2631 4464 2634
3 7248 3738 3740
3 2768 2767 2950
3 2950 7125 2768
3 4466 4464 2631
3 4882 2474 3756
3 2413 188 189
3 2212 2474 4882
3 5363 754 756
3 757 4481 756
3 3114 611 5490
3 5490 3434 3114
3 3214 6017 6021
3 7241 5974 5100
3 7241 5571 4911
3 3216 6017 3214
3 6021 3215 3214
3 2729 7226 5177
3 7166 7295 5983
3 2730 7226 2729
3 5177 2726 2729
3 7166 2448 3423
3 3423 7295 7166
3 1175 6545 4641
3 4641 6545 2347
3 6823 3020 3029
3 6564 3215 6565
3 2650 3633 3029
3 6565 3215 6021
3 1829 5378 2513
3 5048 1964 1966
3 1966 3171 5048
3 2513 5378 2528
3 3174 3303 7112
3 5075 5473 2645
3 3175 3303 3174
3 7112 3172 3174
3 2738 2745 108
3 2582 2881 378
3 4763 5473 5075
3 2645 5077 5075
3 2832 4580 1862
3 2832 2833 4581
3 2830 4578 1853
3 4378 4847 2565
3 2830 2831 4579
3 5422 7246 4869
3 4869 4507 5422
3 6888 7246 5422
3 6891 3241 3242
3 1257 7289 3242
3 1279 690 4612
3 3242 7289 6891
3 2584 2881 2582
3 378 2583 2582
3 4612 690 1114
3 3745 3738 7248
3 2612 2611 2978
3 3225 6699 5550
3 6367 5371 5550
3 2978 5125 2612
3 4953 4208 1735
3 6564 6734 1948
3 1948 1950 6564
3 541 2868 4980
3 4406 741 743
3 1948 6734 1953
3 5275 6855 5577
3 5898 2926 2546
3 2067 6855 5275
3 2799 7037 7298
3 7298 5524 2799
3 7298 7037 682
3 5577 4734 5275
3 7224 3384 3591
3 3591 5350 7224
3 5681 3384 7224
3 734 1381 4446
3 2166 2159 2161
3 4379 3877 3876
3 4379 3111 5264
3 5380 3634 5440
3 6302 1059 1058
3 6302 2356 4672
3 4672 1059 6302
3 1042 828 2243
3 2142 2639 2656
3 7299 7146 7300
3 2243 828 830
3 2987 7163 2988
3 2159 2166 2464
3 3596 7163 2987
3 1058 845 4429
3 5575 5457 2234
3 3231 620 3008
3 4429 845 847
3 3236 620 3231
3 2051 2050 3091
3 3091 3090 2051
3 2234 5457 2236
3 1052 841 2259
3 2598 3127 2478
3 2234 2232 5575
3 2259 841 843
3 2478 2597 2598
3 3240 7301 3244
3 463 6907 6788
3 3244 3243 3240
3 472 6907 463
3 2877 2777 2780
3 2918 2911 5448
3 1409 1411 1740
3 5448 2911 2914
3 1409 2096 1416
3 2706 2875 2780
3 3244 7301 3246
3 1740 2096 1409
3 1804 5392 2616
3 2616 5392 2617
3 4337 4338 4424
3 4298 5355 3962
3 4300 5355 4298
3 4484 2787 534
3 1444 1446 1744
3 1444 2711 1457
3 1744 2711 1444
3 6436 5469 2566
3 4337 1961 4339
3 5384 5469 6436
3 4326 4327 4443
3 2333 3191 2336
3 4883 5278 5850
3 5347 5350 5850
3 5850 5278 5347
3 1832 1831 2361
3 4950 5455 1664
3 1832 2014 1834
3 2333 2335 2883
3 7302 6876 5710
3 2166 2462 2464
3 6996 6876 7302
3 6091 2620 2541
3 4555 4343 6703
3 6703 1943 4555
3 2541 2539 6091
3 3077 3063 5858
3 6966 3137 7269
3 3065 3063 3077
3 7269 3137 2281
3 2826 3324 7054
3 5524 7298 668
3 7216 1270 7303
3 668 7298 682
3 5858 3078 3077
3 2526 3381 6771
3 7054 2827 2826
3 7303 1270 7132
3 2828 3324 2826
3 5899 2825 5214
3 2576 2578 5316
3 5898 2825 5899
3 2802 5309 6822
3 4573 3580 2681
3 1803 2616 2615
3 6822 2800 2802
3 2924 4927 2915
3 1804 2616 1803
3 2615 1801 1803
3 5507 842 7304
3 1090 1324 7304
3 7304 842 1090
3 458 2208 2111
3 2410 3047 5812
3 3048 4294 5812
3 5812 3047 3048
3 4925 492 4928
3 4925 4927 5149
3 741 926 5243
3 2516 7226 6838
3 2681 2680 4573
3 5177 7226 2516
3 6852 3479 7164
3 7060 7120 7116
3 7116 5676 7060
3 7061 7120 7060
3 2475 2477 1441
3 1828 2513 2512
3 1829 2513 1828
3 4466 2633 2508
3 2512 1826 1828
3 904 2940 1264
3 1264 1221 904
3 5839 7295 5838
3 3423 1169 5838
3 5838 7295 3423
3 5412 7154 4904
3 2501 3345 3233
3 4904 7154 1913
3 6091 2539 2538
3 2538 2842 6091
3 2475 2597 2478
3 2266 2875 7232
3 1934 2620 6093
3 6093 2620 6091
3 6093 1935 1934
3 7164 3479 7305
3 6897 3642 3641
3 3645 7306 3641
3 5452 1173 1175
3 4453 4387 2280
3 4443 1173 5452
3 3008 3485 3007
3 3490 2991 3007
3 4918 3117 7028
3 2980 7083 7307
3 3116 1295 7307
3 5910 2622 2624
3 7307 7083 3116
3 7307 1295 2980
3 6598 7308 7309
3 4339 1961 2484
3 7309 7308 6348
3 7028 3117 6940
3 7028 7029 4918
3 5099 2018 5642
3 748 2138 2135
3 2017 5640 5642
3 5642 2018 2017
3 904 1221 901
3 6383 5477 5478
3 1257 899 901
3 2906 5477 6383
3 2701 2700 2876
3 2908 4931 2900
3 2701 2875 2706
3 189 190 2414
3 5250 5181 5512
3 5581 2527 5237
3 5237 5314 5581
3 5582 2527 5581
3 2238 3443 473
3 3619 5195 4564
3 2906 2975 5477
3 5437 5689 4529
3 5477 2975 2977
3 4529 4540 5437
3 3545 2967 6101
3 5365 892 889
3 5365 5366 4885
3 6101 2662 3545
3 3184 7074 5742
3 7146 7156 7300
3 5251 7099 816
3 6101 2967 4679
3 5503 5485 5569
3 5569 5022 5503
3 4564 1965 3619
3 6545 1986 5670
3 5252 7099 5251
3 1175 1986 6545
3 7137 3792 6895
3 2353 2504 2355
3 6895 3792 6896
3 2353 2148 2180
3 6692 1169 3423
3 48 49 5346
3 3766 7219 5346
3 3423 3422 6692
3 5346 7219 48
3 3376 197 198
3 4575 1169 6692
3 3377 197 3376
3 962 2855 2859
3 2863 3118 2859
3 2254 3170 436
3 2254 292 293
3 3003 7310 7311
3 6122 7238 7312
3 7238 7313 7312
3 7311 6431 3003
3 5575 993 995
3 2743 3578 6928
3 1040 5457 995
3 995 5457 5575
3 6928 2741 2743
3 1305 5199 2125
3 5207 2123 2125
3 6287 1043 1042
3 2269 3128 5056
3 3096 3094 5675
3 5056 3128 2599
3 5056 5057 2269
3 6529 4498 4514
3 7190 3092 3953
3 3330 5676 5675
3 3090 3092 7190
3 3953 2759 7190
3 6287 2349 4665
3 4665 1043 6287
3 2523 1191 2512
3 6251 5448 5449
3 6529 1825 1824
3 5481 7140 2160
3 1824 4498 6529
3 3672 7140 5481
3 2426 203 204
3 1596 5294 5295
3 2918 5448 6251
3 204 2707 2426
3 5295 1597 1596
3 2544 2546 2932
3 1546 7301 3240
3 3240 1544 1546
3 957 1389 2515
3 1549 7301 1546
3 5571 7241 5102
3 5102 7241 5100
3 2689 1837 3139
3 2932 2910 2544
3 754 2405 2403
3 3139 2688 2689
3 5187 2785 5188
3 3853 7114 3855
3 4592 2785 5187
3 2415 2597 1170
3 3853 3852 7115
3 3221 7247 2636
3 6691 5465 1787
3 7082 7247 3221
3 1787 6474 6691
3 7115 7114 3853
3 5721 7260 5720
3 6616 2536 522
3 5720 7260 530
3 46 7282 2933
3 7061 2934 2933
3 2933 7282 7061
3 5672 5673 4650
3 4650 4723 5672
3 2380 5237 2527
3 5582 2526 2527
3 1834 2014 2330
3 4625 3222 2635
3 2635 2633 4625
3 2635 3222 2636
3 4655 5854 4423
3 2650 784 2648
3 4423 2312 4655
3 5241 3905 3974
3 2740 2741 6928
3 2740 2715 567
3 4423 5854 4424
3 6928 2715 2740
3 3147 3464 5537
3 5697 7183 1066
3 7314 1866 7315
3 3190 4082 7316
3 5094 1797 3544
3 2944 7266 7026
3 7026 2945 2944
3 44 7266 2944
3 4763 2230 5473
3 5473 2230 2803
3 5625 6038 2348
3 2536 6038 5625
3 2348 1759 5625
3 2636 7247 5362
3 2502 7183 5697
3 5362 7247 5696
3 3603 5494 5523
3 7317 7177 7318
3 1066 5572 5697
3 5523 670 3603
3 2785 2784 5188
3 2785 4592 2786
3 4346 846 4344
3 1092 1328 4344
3 2847 3051 2845
3 3052 2846 2845
3 4344 846 1092
3 5677 6885 5246
3 5677 2839 2861
3 2861 6885 5677
3 2706 2849 2702
3 2851 2700 2702
3 1258 1260 4530
3 5568 5481 2160
3 2160 5022 5568
3 5482 5481 5568
3 4531 4458 4530
3 3089 3419 5317
3 1706 4670 4588
3 5317 3419 3126
3 4884 2442 3765
3 3544 5114 5094
3 2216 2442 4884
3 3261 2721 4588
3 6083 7317 7318
3 1798 1797 5094
3 7317 6083 6082
3 3278 3277 7065
3 574 3041 7112
3 5319 2676 2678
3 4895 4263 4581
3 7112 573 574
3 4895 2144 2143
3 2678 3203 5319
3 3268 6605 3271
3 2360 1846 2071
3 7319 3725 5466
3 7319 5522 3723
3 3723 3725 7319
3 5466 5522 7319
3 3268 3267 4978
3 4978 6605 3268
3 2613 2638 3671
3 3671 2611 2613
3 4900 4329 4579
3 4900 2150 2149
3 3162 6935 2623
3 2623 2622 3162
3 2623 6935 2629
3 1168 6821 5837
3 5837 1169 1168
3 5837 6821 5839
3 7320 4356 7300
3 7250 3081 2584
3 1100 1102 2615
3 5282 2391 5475
3 5193 2087 1592
3 3598 7087 3183
3 3183 3182 3598
3 3183 7087 3185
3 1592 2087 1595
3 1592 1554 5193
3 576 5373 5907
3 2782 2781 5184
3 3134 2849 2850
3 681 3133 2850
3 5907 1138 576
3 2350 2388 5083
3 2782 5399 2685
3 5083 3200 2350
3 5083 2388 3946
3 6328 7321 1766
3 2671 3209 5316
3 5907 5373 5910
3 1549 7182 7301
3 5316 2669 2671
3 5791 5043 5046
3 5046 2384 5791
3 3974 3905 7322
3 1766 7321 1778
3 1766 1765 6328
3 7323 7324 7325
3 3971 7324 7323
3 7131 7326 7327
3 6907 3883 6980
3 6980 6979 6907
3 6980 3883 6982
3 7133 7326 7131
3 2218 3579 6384
3 2218 7095 3579
3 1260 1310 1309
3 2848 1310 1260
3 3062 3985 7328
3 7328 3985 3986
3 7329 4714 321
3 7329 3880 4715
3 4715 4714 7329
3 321 3880 7329
3 3340 3288 7330
3 3121 3039 7330
3 7330 3288 3121
3 7330 3039 3340
3 7331 7332 7204
3 7331 7333 7332
3 3969 7333 7331
3 2303 2456 7168
3 7168 2156 2303
3 7168 2456 4440
3 7017 5465 7334
3 7334 3515 7017
3 2520 5465 7017
3 4797 4884 4858
3 3595 2986 3248
3 3595 6869 3596
3 7100 721 3744
3 7100 686 683
3 683 721 7100
3 3185 7214 7213
3 7074 3184 7213
3 7213 3184 3185
3 7335 3722 3728
3 3729 7336 3728
3 3728 7336 7335
3 7092 7095 7093
3 7092 3578 3579
3 3579 7095 7092
3 4797 4858 3000
3 1866 6577 7315
3 2752 2367 2372
3 7142 6259 7337
3 7338 3459 5537
3 7338 3464 3460
3 3460 3459 7338
3 5537 3464 7338
3 6942 3358 7058
3 7058 6943 6942
3 4702 3000 4858
3 7222 3291 3337
3 2730 3291 7222
3 3741 7243 2165
3 4177 7339 7340
3 3371 7243 3741
3 2165 3742 3741
3 6126 1762 1761
3 779 7341 780
3 7142 2365 6259
3 7337 7342 7343
3 7340 7339 7344
3 7101 7015 3607
3 7342 7345 7343
3 7346 7347 7348
3 7101 3744 721
3 721 7015 7101
3 7346 7349 7347
3 3857 7326 3541
3 7350 4785 6869
3 3541 7326 3542
3 7351 6451 6696
3 7055 4785 7350
3 6994 2315 7352
3 7352 2315 7353
3 4313 5470 4363
3 6906 7354 7148
3 3516 7354 6906
3 7355 7356 7198
3 7133 7356 7355
3 6893 7357 7358
3 7358 7357 7359
3 5412 2648 7360
3 6451 6698 6696
3 7360 2648 784
3 7360 3108 5412
3 7351 7361 7362
3 7196 5240 3975
3 7196 6898 6900
3 7325 1400 7323
3 7323 1400 1401
3 7363 7364 6567
3 7361 7365 7362
3 6777 7364 7363
3 7366 7197 7198
3 7367 6730 7368
3 4032 7197 7366
3 7366 4031 4032
3 3546 716 715
3 715 6979 3546
3 6874 3637 6877
3 6874 6873 3638
3 3638 3637 6874
3 1665 3993 1407
3 3690 1408 1407
3 3237 7035 7369
3 4200 3205 6854
3 6854 3205 3204
3 6854 6858 4200
3 7370 7181 4629
3 7370 2102 2758
3 2758 7181 7370
3 4629 2102 7370
3 7082 3221 7371
3 3217 3219 7371
3 6730 7372 7368
3 7371 3221 3217
3 7371 3219 7082
3 6883 3411 3410
3 3410 3409 6883
3 7367 6257 6739
3 7035 7373 7369
3 7369 7373 7374
3 7297 4008 5521
3 7375 4008 7297
3 6257 6491 6739
3 6546 6713 7044
3 7376 6765 7377
3 7378 3455 7044
3 7044 6713 7378
3 3229 7379 6832
3 6765 7380 7377
3 6867 7379 3229
3 6832 3230 3229
3 6834 3589 3216
3 7381 6756 7376
3 6834 3213 6835
3 3216 3213 6834
3 7109 7382 7110
3 7058 3359 7110
3 7110 7382 7058
3 798 797 6970
3 798 7045 802
3 6970 7045 798
3 3563 6896 7383
3 7383 6896 7384
3 7300 4356 4394
3 7385 6253 6244
3 3617 5297 3672
3 7381 7386 6756
3 3617 3616 5296
3 7387 7342 7368
3 5296 5297 3617
3 3968 3262 7388
3 7388 3262 7389
3 3709 3331 6843
3 7342 6258 7368
3 960 7390 7391
3 6843 3331 6923
3 6363 7392 7393
3 7393 7392 7394
3 7084 2844 7395
3 7395 2844 6838
3 6667 7396 7397
3 6474 7396 6667
3 7397 3921 6667
3 7167 5342 5456
3 6847 7390 960
3 1140 5342 7167
3 7387 1867 7342
3 7131 7303 7132
3 7327 7303 7131
3 7152 1449 4288
3 7152 1895 1588
3 7398 4134 3365
3 4135 4134 7398
3 6625 4354 4356
3 1867 7345 7342
3 7399 3874 7400
3 7315 6624 7401
3 7207 7402 7403
3 7403 7402 3862
3 3863 3704 7404
3 7315 6577 6624
3 7404 3704 1817
3 7137 7405 7406
3 7406 7405 7407
3 7408 7409 6977
3 3752 3093 3342
3 3342 3341 3752
3 7401 7410 7411
3 7225 7412 6868
3 6868 7412 3330
3 7410 6437 7411
3 6868 3094 7225
3 7413 7414 7415
3 7416 7409 7408
3 7417 7418 3869
3 7419 7418 7417
3 3498 1555 3526
3 3500 1555 3498
3 7413 7420 7414
3 3526 3499 3498
3 7343 7314 7415
3 3792 3791 6896
3 7343 7345 7314
3 3792 7137 3793
3 7411 6433 7421
3 3874 616 7400
3 3616 3323 6865
3 7400 616 653
3 780 783 785
3 6126 6128 1762
3 778 780 785
3 7422 5523 5524
3 7422 668 670
3 670 5523 7422
3 5524 668 7422
3 7423 4553 4551
3 4632 4553 7423
3 6597 7424 7425
3 7080 7426 6976
3 6976 7426 6977
3 7411 6437 6433
3 3916 3860 3915
3 4101 3911 3915
3 3915 3860 4101
3 7165 1892 1758
3 7165 1584 4283
3 6919 6918 3875
3 6919 3874 4149
3 3875 3874 6919
3 6889 7427 6891
3 7421 7428 7413
3 3469 7427 6889
3 7428 7420 7413
3 7425 7424 7429
3 3188 3190 3001
3 7316 3001 3190
3 3188 3001 3003
3 7430 7431 6600
3 7430 6599 3536
3 3536 7431 7430
3 6732 6751 7432
3 6732 6733 6751
3 6600 6599 7430
3 6477 7433 6486
3 7434 7377 7161
3 6486 7433 7435
3 7435 6550 6486
3 7377 7380 7161
3 7434 7189 7436
3 6486 6550 6728
3 3068 6878 7007
3 3857 3858 7007
3 7437 7111 7438
3 7189 7209 7436
3 7439 7440 6782
3 6972 3757 7438
3 7440 6784 6782
3 7438 7111 6972
3 7438 3757 7437
3 714 716 7025
3 714 3386 717
3 7326 3857 7327
3 7326 7133 3542
3 7193 6911 4735
3 7196 7441 5240
3 4735 4604 7193
3 7327 3857 7006
3 7006 7008 7327
3 911 3211 6860
3 6860 3211 3210
3 6860 6861 911
3 3583 7442 6990
3 3585 7442 3583
3 7196 6900 7441
3 6990 3584 3583
3 3237 7369 3239
3 7443 3263 3988
3 3237 2885 7035
3 6806 3735 7297
3 7181 2758 2994
3 7181 5203 4629
3 7297 3735 7375
3 7444 7445 7288
3 5063 7445 7444
3 1399 7321 1401
3 1399 1398 1778
3 1778 7321 1399
3 3746 7287 7446
3 7206 7331 7204
3 7332 7205 7204
3 7032 7447 7033
3 7032 3875 6918
3 6918 7447 7032
3 7446 7287 6933
3 7443 3265 3263
3 4784 7275 4786
3 5906 7448 7449
3 7066 7275 4784
3 4532 7450 4556
3 7155 1451 4279
3 7155 1901 1581
3 6998 3153 2525
3 7448 7451 7449
3 6998 3535 3537
3 6102 7452 6103
3 6102 6299 7452
3 5772 7453 5778
3 3537 3153 6998
3 4312 2319 3556
3 4312 7009 4313
3 5772 7454 7453
3 3556 7009 4312
3 6189 7455 7456
3 6882 7457 6881
3 7455 7458 7456
3 3224 3223 6881
3 6536 7459 6537
3 6881 7457 3224
3 615 617 7460
3 615 7461 653
3 7460 7461 615
3 3660 3659 7290
3 3660 2910 3622
3 7290 2910 3660
3 6536 2260 7459
3 7462 7250 2584
3 7462 2581 6936
3 2584 2581 7462
3 4556 7450 5203
3 7463 4546 2761
3 7464 7465 7466
3 7466 7465 7467
3 4632 4546 7463
3 7468 7442 6816
3 6990 7442 7468
3 7469 3628 7062
3 7470 7471 5905
3 7470 7472 7471
3 7473 3628 7469
3 4536 4538 7474
3 7464 6274 7465
3 7474 4538 2452
3 3652 3315 7475
3 7475 3315 7292
3 3539 979 6939
3 7360 783 3108
3 7310 979 3539
3 6939 2863 3539
3 4408 3067 6953
3 3858 2919 6953
3 6711 727 7476
3 6953 3067 3858
3 6083 7477 6084
3 7477 5618 6084
3 7194 5667 5666
3 7194 105 2282
3 7478 7479 6090
3 7478 7480 7479
3 2282 5667 7194
3 7481 7258 3623
3 4196 7482 7483
3 6936 7258 7481
3 7482 7484 7483
3 3623 7250 7481
3 7158 1371 1669
3 1669 1889 7158
3 1808 1371 7158
3 7427 3241 6891
3 7427 3469 3471
3 3471 3241 7427
3 727 7485 7476
3 6413 6711 7476
3 5949 5752 7023
3 4094 5752 5949
3 7486 7214 3185
3 7486 3587 6835
3 6835 7214 7486
3 3185 3587 7486
3 3946 5411 7487
3 5681 5082 7487
3 7487 5411 5681
3 7487 5082 3946
3 784 783 7360
3 3002 7277 7488
3 7488 7277 7489
3 7490 7491 7492
3 7491 6312 7492
3 7493 617 3709
3 6931 7446 6933
3 6931 6930 6965
3 6965 7446 6931
3 7460 617 7493
3 5612 7494 7495
3 7495 7494 3040
3 7490 7492 7496
3 7098 3769 7497
3 7492 7498 7496
3 6939 979 978
3 6152 7499 6365
3 984 6938 978
3 7499 7500 6365
3 7497 3769 7501
3 7502 7264 7293
3 7139 7264 7502
3 5920 7503 7504
3 7505 3104 7243
3 3105 3104 7505
3 7081 3441 7506
3 7507 6798 6506
3 7508 7509 3186
3 5551 7509 7508
3 4532 4534 7510
3 7510 4534 2455
3 6994 7352 7511
3 6879 3313 7008
3 3314 3313 6879
3 7511 7352 7512
3 7513 7514 3279
3 7503 7515 7504
3 7049 7514 7513
3 6644 2363 7136
3 3708 7039 3332
3 3332 7039 3337
3 3332 3331 3708
3 7159 1368 1670
3 1670 1881 7159
3 5960 7516 7517
3 1794 1368 7159
3 4630 2760 7184
3 7184 2760 2996
3 7516 6654 7517
3 7184 5201 4630
3 7518 7519 5616
3 7518 7520 7519
3 7521 6284 7522
3 7521 6286 6284
3 7523 6023 7524
3 3187 6950 3597
3 3165 3598 3597
3 5824 3350 7525
3 7525 3350 7259
3 3108 783 7526
3 7523 6037 6023
3 4630 7265 7169
3 7169 7265 2221
3 7169 608 4630
3 6864 7527 2960
3 1761 6775 6126
3 2960 7527 2965
3 2296 2295 3888
3 3888 2447 2296
3 5718 3257 6987
3 3256 3259 6987
3 6987 3257 3256
3 7528 3801 7529
3 7530 3801 7528
3 908 7396 3211
3 7524 6023 7531
3 6023 7532 7531
3 6993 7227 7231
3 3345 7227 6993
3 5950 7533 7534
3 7231 6994 6993
3 7535 6798 7507
3 7533 6397 7534
3 3627 2744 3629
3 3631 7536 7537
3 3639 7536 3631
3 7537 3632 3631
3 7202 6957 6958
3 3248 6957 7202
3 6958 6869 7202
3 7143 7538 5835
3 3542 3948 3540
3 7538 6787 5835
3 3542 7294 3948
3 5680 7539 5678
3 3542 7355 7294
3 5680 6365 7539
3 4483 5553 3914
3 5678 7539 7540
3 4637 2120 7185
3 2763 3004 7185
3 7185 2120 2763
3 7539 7541 7540
3 7397 7396 908
3 7302 738 7542
3 7542 738 2889
3 6982 3547 6981
3 4561 7543 4559
3 4561 4962 7543
3 3546 6979 6981
3 6981 3547 3546
3 7426 7038 7447
3 7080 7038 7426
3 7447 6977 7426
3 3710 3709 617
3 7544 6358 6359
3 2194 2191 3999
3 3999 3998 2194
3 660 7545 7546
3 660 1779 7545
3 7547 6358 7544
3 7462 7481 7250
3 6151 7548 6226
3 7548 7549 6226
3 6248 7550 7551
3 7550 6586 7551
3 6936 7481 7462
3 6141 7552 7553
3 7553 7552 3645
3 3914 5553 3916
3 4947 4948 7554
3 3862 5750 3861
3 7555 5913 5800
3 5800 5799 7555
3 7556 7557 7558
3 7556 7559 7557
3 4172 3859 3861
3 7560 4072 7561
3 4072 4073 7561
3 1401 7562 7563
3 7564 7565 4946
3 7566 7546 7545
3 7564 7567 7565
3 4018 7568 7569
3 6182 7570 7571
3 7569 7568 7572
3 7570 7573 7571
3 6601 6655 7520
3 5881 5865 7574
3 5865 6560 7574
3 3579 2744 6384
3 3418 6699 7004
3 7004 6699 3574
3 4032 4030 7114
3 7114 4030 3855
3 3340 3338 6921
3 6848 3289 6921
3 6921 3338 6848
3 6157 7575 7576
3 7191 610 5303
3 7575 7577 7576
3 5303 610 609
3 7578 6783 6559
3 5303 1580 7191
3 7579 3971 7563
3 7563 7562 7579
3 7578 6777 6783
3 6420 5844 3800
3 3800 6421 6420
3 6841 6843 6923
3 6841 3289 6848
3 7353 7156 4178
3 7580 7581 4945
3 7227 3345 3346
3 7581 7582 4945
3 4178 4174 7353
3 7583 7118 3588
3 7583 7087 3167
3 3167 7118 7583
3 3588 7087 7583
3 3420 3177 6745
3 6745 3421 3420
3 2297 3177 3420
3 7225 3335 7412
3 7584 6753 7585
3 3328 3330 7412
3 6753 6557 7585
3 7412 3335 3328
3 6255 7534 5340
3 7173 4435 4436
3 7534 6397 5340
3 7173 2488 2185
3 2185 4435 7173
3 7586 7587 2551
3 6422 5844 6420
3 3846 4171 5935
3 7587 7588 2551
3 3954 3949 7294
3 7464 7466 5997
3 7294 7198 3954
3 3842 7325 5430
3 6593 6592 6004
3 4173 7589 4050
3 7520 6602 6601
3 6582 7590 7591
3 6890 7289 3297
3 7590 659 7591
3 3297 3296 6890
3 7592 7593 7594
3 6891 7289 6890
3 7593 6147 7594
3 4050 7589 3831
3 4050 4052 4173
3 4152 7595 7596
3 911 2324 909
3 2362 910 909
3 6004 3937 6593
3 4060 7595 4152
3 7596 4153 4152
3 6694 3921 3922
3 7597 7593 7592
3 3864 3689 3693
3 7597 7598 7593
3 3864 3863 7012
3 7592 6171 7599
3 3923 4167 3922
3 6171 6173 7599
3 3814 3325 7600
3 3922 4167 6694
3 4042 4044 3809
3 3734 7601 3732
3 4042 3882 4045
3 3809 3882 4042
3 3938 7602 3696
3 3734 6786 7601
3 4151 4153 7458
3 7603 7604 5957
3 7605 3226 7056
3 6533 7606 7560
3 7605 3455 2997
3 2997 3226 7605
3 7056 3455 7605
3 6064 6065 3347
3 3351 3565 3352
3 6114 7607 7606
3 3352 3565 3624
3 7607 7608 7606
3 7043 7034 6546
3 7609 7610 6207
3 7043 3455 7056
3 7609 7611 7610
3 7612 7613 6135
3 7056 7034 7043
3 2224 604 7180
3 7612 7614 7613
3 7180 2373 2224
3 7180 604 4637
3 1586 3730 3668
3 6135 7615 7612
3 3668 1587 1586
3 2323 2324 7097
3 2323 7296 2362
3 7097 7296 2323
3 7615 7616 7612
3 7617 6810 6604
3 6810 6364 6604
3 4151 7618 4060
3 7619 7358 3309
3 7619 3307 6893
3 6893 7358 7619
3 3309 3307 7619
3 5844 7620 5843
3 3280 3278 6850
3 3694 6359 6850
3 5844 6422 7620
3 1585 1587 3800
3 3602 7606 6533
3 5230 7304 1324
3 3919 6068 3920
3 3800 5844 1585
3 7621 6556 7622
3 6556 6761 7622
3 7623 7624 7625
3 7624 6270 7625
3 4629 7450 7170
3 7170 7450 2217
3 7623 7626 7627
3 7170 614 4629
3 3397 7602 3938
3 3608 3472 4976
3 4976 3267 3608
3 3562 3472 3608
3 7626 7628 7627
3 3309 3060 7629
3 7627 7624 7623
3 3129 3131 7629
3 7629 3060 3129
3 7629 3131 3309
3 6243 623 619
3 619 3661 6243
3 7627 7630 7624
3 5194 5507 5230
3 6168 6905 7631
3 7458 7618 4151
3 4635 4634 5870
3 2449 4136 5223
3 4003 6965 4843
3 6905 6904 7631
3 6165 7632 6164
3 7633 6443 2478
3 7632 6503 6164
3 7633 3127 3247
3 6165 7634 7632
3 3247 6443 7633
3 7634 7635 7632
3 2478 3127 7633
3 4843 4001 4003
3 7305 4045 3882
3 7636 7637 7638
3 3283 7637 7636
3 6278 7639 7640
3 7016 3150 2520
3 7639 7641 7640
3 7016 3515 3517
3 3517 3150 7016
3 5944 6332 5942
3 4499 5943 5942
3 7467 7465 7642
3 7643 5660 7024
3 6982 3883 3806
3 5507 7304 5230
3 7644 7645 7646
3 7644 7647 7645
3 5427 5853 4080
3 6633 3926 6058
3 6864 7205 7527
3 7332 2965 7527
3 7527 7205 7332
3 7038 7033 7447
3 7038 7080 7040
3 7379 5429 6832
3 7379 6867 3716
3 3716 5429 7379
3 5966 3317 3316
3 7648 7649 6606
3 3319 5964 3316
3 3316 5964 5966
3 7353 2315 2314
3 2318 7320 2314
3 7648 7650 7649
3 5091 5093 7651
3 2314 7320 7353
3 6983 3964 6985
3 6983 3301 3302
3 3302 3964 6983
3 4080 4082 5427
3 6058 3926 6059
3 6058 6057 6633
3 2925 3540 2920
3 3662 2921 2920
3 2920 3540 3662
3 6298 6045 6299
3 5093 7652 7651
3 5886 7503 5885
3 5944 7653 6306
3 5886 7515 7503
3 6264 6228 7654
3 7654 6228 6619
3 6117 7655 7656
3 6301 6045 6298
3 7252 7657 2451
3 6053 7336 6051
3 6143 7658 7659
3 6933 3465 6932
3 7658 7660 7659
3 7661 7662 7663
3 7661 6445 7662
3 6932 3465 3464
3 6061 6748 6642
3 6619 5547 7654
3 6655 7664 7517
3 7654 5547 5574
3 7317 7178 7177
3 2473 5809 7195
3 7664 5962 7517
3 7195 5809 4878
3 1907 7665 1905
3 7195 4389 2473
3 3698 3697 7090
3 3698 6833 3700
3 7090 6833 3698
3 1907 6273 7665
3 6148 7666 7667
3 703 702 6435
3 703 596 713
3 3729 6052 6051
3 7666 7668 7667
3 6435 596 703
3 6991 7514 3269
3 6991 3277 3279
3 6030 7669 6246
3 3279 7514 6991
3 7669 7670 6246
3 6051 7336 3729
3 7095 2890 7093
3 3796 3794 4100
3 3796 4098 3800
3 7510 2217 4532
3 7510 2455 2303
3 2303 2217 7510
3 5388 7671 5386
3 7098 814 7099
3 7099 814 816
3 7026 3329 7022
3 7672 6742 7673
3 3328 3336 7022
3 7022 3329 3328
3 3085 7674 3083
3 6343 7675 7676
3 7677 3961 6034
3 7675 1906 7676
3 6034 3961 7678
3 7679 7680 7681
3 6034 6032 7677
3 3809 7682 7683
3 1817 7684 7404
3 7680 2809 7681
3 7012 3863 7404
3 7681 7685 7679
3 7404 7684 7012
3 7681 7686 7685
3 2891 3615 2995
3 3696 7687 7688
3 5935 4052 4051
3 7672 7689 7690
3 7322 3972 3974
3 7672 5958 7689
3 3975 5241 3974
3 6108 6524 7691
3 4189 6140 4188
3 6915 7692 6567
3 6914 7692 6915
3 6524 6523 7691
3 5652 2163 7693
3 6567 3564 6915
3 6141 4186 4188
3 2163 7694 7693
3 5994 7695 5992
3 5994 7472 7695
3 7554 4180 4181
3 7696 7697 7698
3 4094 5945 4092
3 7697 6332 7698
3 5948 4093 4092
3 7699 6129 7700
3 6129 7394 7700
3 7701 7702 7703
3 4181 5891 7554
3 7702 7704 7703
3 7705 7706 6031
3 7705 7707 7706
3 6161 6578 6162
3 6340 7708 6450
3 6950 3187 5539
3 5055 3366 2886
3 2886 3238 5055
3 3367 3366 5055
3 6956 6955 7232
3 7708 7709 6450
3 6956 3292 6958
3 7710 7482 6044
3 7232 3292 6956
3 5539 3639 6950
3 3363 7711 7712
3 7712 7711 7385
3 7713 7644 4631
3 3560 7383 4789
3 3563 7383 3560
3 7710 7484 7482
3 4789 3561 3560
3 1922 4557 1923
3 7172 4430 4431
3 7172 2491 2187
3 2187 4430 7172
3 3563 7051 6894
3 6894 6896 3563
3 1933 7714 1931
3 1933 6536 7714
3 6863 2822 6864
3 6863 2962 3256
3 5659 7715 6057
3 5659 5662 7715
3 1812 6547 1770
3 3256 2822 6863
3 6378 7716 6379
3 7647 7644 7713
3 7716 5995 6379
3 5757 5756 7717
3 6378 7718 7719
3 7718 7407 7719
3 7530 6455 3802
3 6066 7720 6069
3 6742 7672 7690
3 7150 7721 5433
3 4054 4511 1778
3 1778 1398 4054
3 4055 4511 4054
3 4116 4114 5932
3 7722 6438 6440
3 4116 6052 3729
3 6440 7723 7722
3 5932 6052 4116
3 3085 6404 7674
3 7724 6029 7725
3 6370 7726 1793
3 7722 7723 7727
3 6910 3530 6842
3 6842 3530 6849
3 7728 7729 7730
3 6842 6848 6910
3 7731 7732 7733
3 7731 7734 7732
3 5433 7721 5436
3 6041 7735 6042
3 4074 4076 7736
3 7002 7431 7001
3 5978 7737 5987
3 5978 6636 7737
3 6268 7624 7738
3 3536 3535 7001
3 7624 7630 7738
3 7001 7431 3536
3 7474 2221 4536
3 6268 5549 7739
3 5549 1932 7739
3 7740 7455 6191
3 7740 7741 7455
3 7474 2452 2300
3 7742 2163 2496
3 7742 7694 2163
3 2300 2221 7474
3 5966 7743 7744
3 7745 7746 7747
3 4408 6952 4395
3 3427 3428 4395
3 7746 7748 7747
3 7749 7750 6502
3 7749 7655 7750
3 4395 6952 3427
3 5427 4082 4085
3 1813 7751 1814
3 3189 3625 4085
3 7744 4582 5966
3 7744 7743 5876
3 2851 6924 3610
3 7027 3611 3610
3 7751 7752 1814
3 3610 6924 7027
3 7753 5990 5816
3 6957 3248 6960
3 6063 3848 3850
3 6897 3641 7138
3 6063 6081 3848
3 7306 7137 7138
3 3849 7754 3850
3 7138 3641 7306
3 3849 7717 7754
3 7719 7755 6140
3 7719 7407 7755
3 7564 6100 6103
3 5816 5813 7753
3 3947 3949 7385
3 7756 7757 6234
3 3947 3661 3662
3 7756 6569 7757
3 7323 7563 3971
3 1401 7563 7323
3 7203 7205 984
3 7203 7291 7206
3 984 7291 7203
3 7089 7046 7090
3 7089 3383 3382
3 3382 7046 7089
3 7463 4702 4632
3 7758 7759 7760
3 7463 2761 3000
3 3000 4702 7463
3 3939 3941 7761
3 7758 7762 7759
3 7216 7182 1270
3 7763 7730 7729
3 5583 3338 3339
3 6910 3338 5583
3 720 7021 7014
3 7014 7021 3336
3 7764 6267 6584
3 7014 721 720
3 3865 3251 3863
3 7764 6494 6267
3 7765 7766 6396
3 7765 7767 7766
3 3865 3693 7272
3 7272 3251 3865
3 7761 6427 3939
3 5977 6217 6161
3 7192 3208 3207
3 6217 7123 6161
3 3212 3059 3207
3 7768 7565 7769
3 3207 3059 7192
3 7565 7567 7769
3 7494 3038 3040
3 7494 5612 3339
3 3339 3038 7494
3 5874 7744 5876
3 5874 4956 4582
3 4582 7744 5874
3 7031 3710 3875
3 7031 7033 3708
3 3708 3710 7031
3 7321 7562 1401
3 7384 6896 3791
3 6708 7770 7768
3 6328 7562 7321
3 7771 5687 5953
3 7677 3958 3961
3 5953 5951 7771
3 5953 5687 5699
3 6708 6200 7770
3 7768 7769 6708
3 7769 7772 6708
3 6448 7773 1907
3 6448 6663 7773
3 3841 1400 7325
3 7325 3842 3841
3 3843 1400 3841
3 5252 6737 6951
3 974 7098 6951
3 6985 3965 3967
3 3971 7774 3967
3 3967 7774 6985
3 6964 7775 4843
3 3748 7775 6964
3 4843 6965 6964
3 7776 3396 3399
3 3399 3440 7776
3 1555 1557 3526
3 7777 7778 7597
3 1555 3500 1580
3 3311 7058 7382
3 7109 6892 7382
3 7778 7598 7597
3 7382 6892 3311
3 6922 3291 3287
3 7777 7568 7779
3 7780 6421 7781
3 3287 3289 6922
3 7082 7081 7506
3 7781 5131 7780
3 6311 6313 6315
3 7568 6661 7779
3 7506 7121 7082
3 6795 7782 6656
3 7569 5128 5127
3 7783 7784 6961
3 6961 7784 3470
3 7599 5128 7569
3 6961 6962 7783
3 7785 2965 7333
3 7333 2965 7332
3 7333 3969 7785
3 6555 6311 6315
3 3942 7122 3943
3 7599 6173 5128
3 6310 6653 7786
3 3943 7122 7124
3 178 4259 7787
3 5088 5087 7787
3 7787 4259 5088
3 7025 7788 7096
3 6653 7789 7786
3 7096 7788 7097
3 6235 7551 6236
3 7096 6861 7025
3 7320 7156 7353
3 3784 7357 7068
3 7551 6586 6236
3 6893 6892 7068
3 6361 7790 5978
3 7790 6636 5978
3 5254 7491 6256
3 7068 7357 6893
3 5254 6312 7491
3 6216 7791 6217
3 2965 7792 2961
3 7791 7123 6217
3 3393 3260 2961
3 2961 7792 3393
3 7793 7794 2489
3 2223 600 7423
3 7423 4551 2223
3 7423 600 4632
3 5783 5900 3790
3 7793 7117 7794
3 7795 5860 3891
3 5661 4128 3785
3 7796 7585 7797
3 4067 7126 4065
3 7585 6557 7797
3 6947 4066 4065
3 6593 7798 6594
3 7469 5934 7473
3 7469 7062 4036
3 7512 7799 7511
3 6992 6994 7511
3 6593 5786 7798
3 7511 7799 6992
3 3781 3759 3758
3 6313 6311 4811
3 7341 779 2594
3 2370 2489 7794
3 2594 3095 7341
3 6426 7789 6653
3 4036 5934 7469
3 4627 4626 4189
3 5686 5682 7800
3 7402 7207 3105
3 6141 6139 7552
3 7306 3645 7552
3 7552 6139 7306
3 7801 7802 6669
3 7803 3530 3529
3 7802 7804 6669
3 3529 4023 7803
3 7805 7806 6337
3 7063 7052 7066
3 7806 6282 6337
3 7063 7062 3629
3 3629 7052 7063
3 7807 4512 7808
3 4512 4055 7808
3 3925 7809 7537
3 3927 7809 3925
3 7807 7810 7764
3 7810 6494 7764
3 7537 3926 3925
3 1899 7750 7655
3 1899 7811 7750
3 6801 7786 7789
3 6801 7498 7786
3 1812 6185 1806
3 7812 7466 7467
3 6796 6729 6792
3 7800 6507 5686
3 5430 7325 3894
3 7677 5867 3957
3 7088 3195 6876
3 6876 6995 7088
3 3957 3958 7677
3 4187 3855 4030
3 7813 6197 6709
3 4030 4029 4187
3 3821 7328 3986
3 3823 7328 3821
3 3986 3818 3821
3 7814 4057 3900
3 7813 7815 6197
3 7579 7816 7817
3 7817 7816 7530
3 3782 3780 795
3 1793 7818 7819
3 1793 7726 7818
3 7331 3970 3969
3 7820 7821 7725
3 7821 6249 7725
3 7206 3970 7331
3 7822 3936 3935
3 3392 7201 3935
3 7823 7710 6300
3 3935 7201 7822
3 5985 5984 7824
3 3001 7825 3002
3 7316 7825 3001
3 2301 2295 2297
3 2301 3421 2304
3 3263 3262 3990
3 7823 7484 7710
3 3990 3988 3263
3 6626 7826 7827
3 7826 7828 7827
3 6796 6792 7162
3 6462 6792 6729
3 1586 1585 3731
3 3731 1585 4017
3 6902 7829 5710
3 6631 7830 7831
3 6276 6273 1907
3 7830 6825 7831
3 3777 7390 3888
3 4354 7832 6456
3 6902 6615 7029
3 7029 7829 6902
3 4354 7148 7832
3 2822 2821 6864
3 2822 3256 2889
3 7833 7390 3777
3 7832 6453 6456
3 7824 6109 5985
3 7832 7638 6453
3 4027 4130 3912
3 7834 7433 6477
3 7711 3363 3797
3 7834 7635 7433
3 6704 7759 7835
3 7759 7762 7835
3 3797 3799 7711
3 4027 4029 4133
3 5785 3920 5901
3 4587 7023 1179
3 3664 3663 3795
3 6266 7693 5895
3 3664 3794 3668
3 4017 1585 5844
3 7693 7694 5895
3 2219 4077 2222
3 7310 3539 7311
3 3539 3082 7311
3 3186 7836 7508
3 7836 7837 7508
3 1713 7838 1721
3 7839 7836 3186
3 1713 1712 6162
3 6162 7838 1713
3 5786 3920 5785
3 2995 3677 2371
3 7839 5742 7836
3 3095 3342 3093
3 2371 2367 2995
3 7366 7356 4133
3 7198 7356 7366
3 4133 4031 7366
3 5901 5781 5785
3 3904 5990 7753
3 3860 3859 4101
3 4189 7840 6140
3 4006 5990 3904
3 3095 2594 3342
3 3554 6858 6853
3 5602 6717 7841
3 3204 2679 6853
3 3411 7842 7843
3 6853 2679 3554
3 7842 3517 7843
3 7055 7844 7053
3 3209 7845 7147
3 7053 7844 3293
3 4358 4428 4944
3 4358 2199 4428
3 4428 2199 2357
3 7845 6472 7147
3 6662 4078 7846
3 7225 3093 7019
3 7019 3093 3752
3 6431 7311 3079
3 7019 7018 7225
3 3486 623 6242
3 6242 3799 3486
3 6458 7847 7848
3 7311 3082 3079
3 7829 7302 5710
3 3147 7849 3464
3 7829 7029 761
3 3147 3148 7849
3 4178 7850 4175
3 7851 7179 7178
3 761 7302 7829
3 4178 7852 7850
3 6670 3567 3566
3 3506 3872 3566
3 7787 7853 178
3 7853 177 178
3 3566 3872 6670
3 7057 4800 124
3 7854 7855 257
3 3312 4800 7057
3 124 125 7057
3 7855 256 257
3 7502 7856 7041
3 4949 6610 7580
3 7293 7856 7502
3 4949 6612 6610
3 7857 6664 7733
3 7041 7139 7502
3 257 4265 7854
3 7857 6666 6664
3 5631 7858 7859
3 5631 7860 7858
3 5086 5085 7854
3 7854 4265 5086
3 7524 1791 7861
3 1791 7819 7861
3 3768 5965 7501
3 5949 5945 4094
3 5949 7023 4587
3 4120 4119 5948
3 6996 7302 7542
3 2889 3257 7542
3 7542 3257 6996
3 6968 7862 6833
3 3439 7862 6968
3 7863 7864 7865
3 6833 6970 6968
3 5655 797 799
3 802 5656 799
3 7864 7866 7865
3 799 5656 5655
3 6948 4605 3168
3 6950 4605 6948
3 3168 3165 6948
3 5987 7737 6791
3 5948 5833 4120
3 784 3028 785
3 6741 7478 7673
3 6402 7867 7868
3 6402 7869 7867
3 7870 7871 7586
3 785 3028 778
3 7870 5589 7871
3 5614 5271 5272
3 2222 3615 2220
3 5987 6791 6462
3 6838 7226 7395
3 7221 7084 7395
3 7395 7226 7221
3 7824 6209 6109
3 3387 6861 6859
3 3210 2672 6859
3 6238 6231 7872
3 7873 6205 7872
3 6859 2672 3387
3 1721 7874 6872
3 2983 2982 6872
3 6742 6741 7673
3 7875 7876 4021
3 6077 6531 7877
3 5864 5975 5738
3 6039 5586 6175
3 5586 5585 6175
3 5780 5626 6505
3 6872 7874 2983
3 6176 7878 6357
3 7783 4141 4140
3 7878 7663 6357
3 4142 3473 4140
3 5986 6127 5984
3 6458 6460 7847
3 1579 4243 4245
3 4140 3473 7783
3 7055 3561 4785
3 4786 6869 4785
3 7879 2589 7549
3 4843 7775 4844
3 1579 699 4243
3 1621 2693 5341
3 3604 3606 4844
3 4844 7775 3604
3 2693 2812 5341
3 1572 7880 1764
3 4021 4022 7875
3 1572 1583 7880
3 1794 7881 466
3 7025 716 7788
3 1794 1883 7881
3 3548 7097 7788
3 1808 7882 470
3 1808 1891 7882
3 1896 7880 4275
3 7880 4274 4275
3 7788 716 3548
3 2152 7174 2153
3 3206 3208 3649
3 7174 4434 2153
3 255 7855 5126
3 3206 7883 3212
3 3649 7883 3206
3 4021 7876 3892
3 3907 5061 7322
3 255 256 7855
3 5545 6621 7884
3 3726 5608 5272
3 5272 5608 5614
3 176 7853 5130
3 4431 2154 7176
3 7176 2154 2298
3 7176 2492 4431
3 7885 3782 7600
3 176 177 7853
3 5784 5781 5351
3 2053 7882 2002
3 7882 1891 2002
3 3784 3782 7885
3 3546 3548 716
3 5351 7254 5784
3 4064 4066 7886
3 2048 7881 1996
3 5535 7558 5516
3 7881 1883 1996
3 5516 7558 5614
3 3417 7003 7495
3 7495 7003 5612
3 7495 3040 3417
3 1721 7838 7874
3 7887 7888 6344
3 7887 6046 7888
3 3575 2983 7874
3 7874 7838 3575
3 4150 1813 1815
3 7015 3335 3607
3 7886 4141 4064
3 3336 3335 7015
3 7739 7889 6269
3 5658 5660 7643
3 5658 7890 5662
3 7049 3609 7514
3 7739 1931 7889
3 7891 3871 4198
3 2191 7284 3999
3 7514 3609 3269
3 6741 7892 7478
3 3727 3722 3684
3 3684 4114 3727
3 3879 3647 3646
3 7284 4010 3999
3 3646 3900 3879
3 3763 3921 7397
3 3759 3780 7437
3 7880 1896 1764
3 7880 1583 4274
3 4095 4097 7893
3 6553 7848 7847
3 7505 7894 3105
3 7505 7243 3371
3 3371 7894 7505
3 7048 2526 5582
3 7048 3382 3381
3 3381 2526 7048
3 4223 2993 4224
3 7457 7056 3226
3 3226 3224 7457
3 6882 7056 7457
3 7895 3976 3978
3 4282 4224 2993
3 4223 3053 2993
3 7252 7896 7657
3 7252 6055 6056
3 6056 7896 7252
3 7645 4056 7897
3 7897 7646 7645
3 7898 661 7899
3 4447 7900 3753
3 3753 7900 3688
3 3753 3751 4447
3 3978 5682 7895
3 7399 7400 7772
3 7399 6570 3874
3 7901 7902 7888
3 7458 7741 7903
3 3888 2295 2302
3 2304 3884 2302
3 3351 5823 6916
3 7888 7902 6344
3 7888 6046 7901
3 6916 5823 6914
3 6916 3564 3351
3 7709 727 726
3 7772 6570 7399
3 5955 5957 7604
3 7604 7904 5955
3 4182 4183 7905
3 7647 4056 7645
3 3887 4025 3886
3 7905 5938 4182
3 3778 3884 3886
3 3528 3530 6910
3 7607 5741 7608
3 7261 3993 3992
3 7607 6114 6112
3 3606 3605 3992
3 6112 5741 7607
3 7290 7906 7444
3 7444 7906 5063
3 7444 7288 7290
3 6198 7214 6230
3 6198 2979 3492
3 3492 7214 6198
3 3651 815 814
3 6422 6316 7620
3 814 7098 3651
3 6561 5843 7620
3 5515 7841 5535
3 5602 7841 5515
3 3359 3357 7907
3 7620 6316 6561
3 7709 7485 727
3 6392 6407 6393
3 3635 6972 7907
3 7907 3357 3635
3 7907 6972 3359
3 3855 4051 3854
3 3831 3852 3854
3 3854 4051 3831
3 7908 7909 6009
3 6548 7723 7910
3 7910 7723 6440
3 6029 7820 7725
3 6009 6008 7908
3 6009 7909 5909
3 3290 6187 7911
3 7803 7522 7912
3 6162 6973 7838
3 7838 6973 3575
3 7913 6034 7678
3 7174 2152 2294
3 7174 4524 4434
3 4432 4256 7914
3 7911 6187 7915
3 7913 7589 6035
3 4432 7595 4060
3 7916 6531 6077
3 7914 7595 4432
3 6035 6034 7913
3 7281 3378 7228
3 7281 7107 3635
3 3635 3378 7281
3 7914 5061 5060
3 5063 7906 5060
3 5060 7906 7914
3 5736 5885 5924
3 7059 3329 7061
3 7059 5676 3330
3 3330 3329 7059
3 7093 2370 7794
3 7117 7091 7794
3 7794 7091 7093
3 7678 7589 7913
3 3810 2449 5223
3 7917 3851 5998
3 7322 5061 4104
3 661 7918 7899
3 4104 4103 7322
3 7919 6240 7920
3 7919 5916 6241
3 3812 7283 4071
3 3189 7251 3625
3 7920 5916 7919
3 4071 7283 4073
3 7921 7740 7922
3 4071 4069 3812
3 7921 6144 6143
3 6143 7740 7921
3 7922 6144 7921
3 5652 2164 2163
3 7912 7522 7460
3 3713 4177 7923
3 7822 4191 3936
3 959 6845 6847
3 7924 7730 7925
3 7678 3961 3837
3 7926 7730 7924
3 974 6845 959
3 7924 7361 7926
3 6847 960 959
3 7927 7928 6294
3 4137 6637 4138
3 6264 6637 4137
3 6599 7293 7264
3 7264 3536 6599
3 7929 7930 7931
3 464 466 7881
3 3837 3961 3451
3 3837 3828 7678
3 4173 4119 4121
3 4122 7932 4121
3 7389 3262 3264
3 3264 3507 7389
3 7933 740 739
3 3693 3688 7900
3 4121 7932 4173
3 7881 2048 464
3 739 774 7933
3 3306 3298 3425
3 3803 3426 3425
3 7734 6231 6232
3 7930 7934 7931
3 3425 3298 3803
3 7935 6345 7930
3 7030 7293 7309
3 7930 7929 7936
3 7930 6345 7934
3 7309 7293 6598
3 7309 6348 7030
3 3398 3396 7124
3 7936 7935 7930
3 7124 7121 3398
3 6737 6846 6845
3 7783 3473 7784
3 3471 3470 7784
3 7784 3473 3471
3 4962 7937 7543
3 7055 7350 7844
3 4585 4559 7543
3 7543 7937 4585
3 4718 4700 3681
3 4718 5878 4879
3 6331 6334 6336
3 6334 6331 6305
3 3292 3293 7844
3 7844 7350 3292
3 7938 6331 6336
3 6657 5596 7671
3 7005 6974 7003
3 7520 6655 7519
3 7005 3574 3575
3 5617 5616 7519
3 3575 6974 7005
3 6950 3630 4605
3 7519 6655 5617
3 4605 3630 4606
3 7824 5984 7588
3 7192 3322 3321
3 3321 3647 7192
3 6406 7747 6408
3 6406 6407 7745
3 3570 3572 3577
3 7745 7747 6406
3 7671 5388 6658
3 7679 7748 6787
3 3581 4004 3577
3 813 815 6866
3 813 3323 816
3 6657 7671 6658
3 7372 7939 7387
3 6343 7934 6345
3 6335 6563 6388
3 3315 3317 7292
3 7387 1893 1867
3 5786 5784 7798
3 7254 6594 7798
3 3315 3652 3319
3 2446 2447 6847
3 7798 5784 7254
3 2446 6846 2299
3 7940 7941 3843
3 3576 3572 3739
3 7387 7939 1893
3 5996 6078 6000
3 5996 5998 6081
3 3576 1408 3581
3 7369 7529 3239
3 7374 7529 7369
3 816 3324 5251
3 5251 3324 3304
3 6334 6563 6335
3 7900 7272 3693
3 3188 6431 3189
3 3003 6431 3188
3 5655 3439 797
3 7042 7041 7856
3 7293 7030 7856
3 7856 7030 7042
3 5584 6974 6579
3 7849 6932 3464
3 3189 6430 7251
3 5612 6974 5584
3 6391 6393 7942
3 7049 3562 3609
3 7943 7420 6454
3 6454 5787 7943
3 7849 3148 6930
3 3267 3269 3609
3 3704 3863 3385
3 7305 3882 3881
3 3883 7164 3881
3 3881 7164 7305
3 7944 6574 7454
3 4484 4483 7398
3 6930 6932 7849
3 6391 7942 6596
3 7398 4483 4135
3 6030 6252 5744
3 6408 7942 6393
3 7398 3365 4484
3 3867 4184 3649
3 3873 4184 3867
3 3649 3868 3867
3 3385 3251 3253
3 3258 3373 3253
3 3761 6971 7104
3 6263 7835 6262
3 7104 6971 7107
3 7090 3697 3702
3 3703 3383 3702
3 5298 3370 5299
3 3742 5297 5299
3 6262 7835 7762
3 5299 3370 3742
3 6148 7667 7945
3 3361 7946 7115
3 7115 3362 3361
3 3363 7946 3361
3 6958 3292 7350
3 908 910 7397
3 7945 7667 7947
3 908 3211 911
3 1889 1669 1589
3 4532 2217 7450
3 7406 6377 3793
3 3793 7137 7406
3 1889 1589 1890
3 1589 1588 1890
3 4535 7696 6188
3 4629 5203 7450
3 6317 4810 4812
3 4810 6317 6149
3 6317 6163 6149
3 5430 3894 3893
3 3700 5429 3893
3 3893 5429 5430
3 3390 3389 5489
3 3390 5469 3392
3 7948 7464 6000
3 7948 6275 6274
3 6274 7464 7948
3 4006 3904 3903
3 4124 3810 5223
3 4126 3810 4124
3 7949 6074 5602
3 5223 4125 4124
3 6053 6074 7949
3 7303 7327 7008
3 7008 7216 7303
3 3246 7301 7217
3 7182 7216 7217
3 6000 6275 7948
3 7937 5833 5945
3 5945 4585 7937
3 7350 6869 6958
3 5618 6374 6099
3 7555 6096 6099
3 7217 7301 7182
3 7077 3440 3441
3 4139 4141 7886
3 4962 5833 7937
3 6269 6369 5597
3 3441 7081 7077
3 3528 5583 5584
3 5256 7950 6309
3 3651 3652 815
3 6579 3528 5584
3 815 3652 6866
3 3137 594 3088
3 3088 594 6435
3 1881 1670 1582
3 4199 3663 3736
3 4199 3205 4200
3 3480 3479 4088
3 1881 1582 1882
3 1582 1581 1882
3 3480 4086 3484
3 7586 2551 7765
3 6061 6060 7611
3 4032 7113 7197
3 7197 7113 3956
3 6940 774 775
3 761 7029 775
3 4139 4110 4142
3 7454 6574 7860
3 7765 2551 7767
3 7860 6574 7951
3 6391 6595 6392
3 7952 7760 6459
3 6418 7952 6459
3 7150 5433 7151
3 5435 3550 7151
3 7151 5433 5435
3 3843 1398 1400
3 7886 4110 4139
3 3731 4009 7375
3 7375 3730 3731
3 7003 3417 7004
3 7148 7636 7832
3 4173 6035 7589
3 7004 3417 3418
3 5087 5130 7853
3 7853 7787 5087
3 7927 7953 7928
3 7953 6681 7928
3 6227 6229 6398
3 7832 7636 7638
3 7923 3842 5428
3 6398 6229 6444
3 7793 2489 5390
3 6505 5628 7954
3 7793 5389 7117
3 5390 5389 7793
3 669 682 5240
3 7954 5628 7955
3 6871 7956 1721
3 6871 2982 6454
3 6454 7956 6871
3 3582 3584 6913
3 2550 6127 6126
3 2549 6127 2550
3 3582 5723 3585
3 3906 7445 5063
3 3908 7445 3906
3 5063 3907 3906
3 3096 3108 7526
3 7256 7270 7957
3 7526 3095 3096
3 7958 5990 4006
3 2368 2367 2752
3 7752 5990 7958
3 2368 2489 2370
3 5595 6269 5597
3 4733 3062 7328
3 5595 5594 6270
3 6270 6269 5595
3 2549 5984 6127
3 6741 6740 6641
3 6774 7179 7257
3 7328 3823 4733
3 6837 7256 7957
3 5428 3842 5430
3 4109 4108 4499
3 4109 4438 4111
3 7959 6181 5884
3 7814 4256 4058
3 7833 7391 7390
3 4058 4057 7814
3 6641 7892 6741
3 6428 6427 7761
3 5662 6634 7715
3 6632 6057 7715
3 7715 6634 6632
3 5701 7960 5703
3 5727 7960 5701
3 4062 4089 2770
3 3265 4089 4062
3 7417 7891 7419
3 7862 3230 6832
3 7491 7961 6256
3 6606 7962 5679
3 3439 3230 7862
3 7490 7961 7491
3 6832 6833 7862
3 5743 1922 7963
3 6975 7964 6978
3 7646 7903 7660
3 7506 3441 3398
3 6975 6977 7965
3 7965 7964 6975
3 4544 1922 5743
3 5753 7894 3369
3 3369 7894 3371
3 3369 3368 5753
3 7417 3869 3871
3 3367 3803 3298
3 7963 5845 5743
3 3298 3300 3367
3 3399 3398 3441
3 7065 3687 3686
3 3398 7121 7506
3 3686 3278 7065
3 7966 7967 6539
3 5423 6056 3679
3 6005 6001 7884
3 7884 6621 6005
3 3679 3678 5423
3 3679 6056 3681
3 6866 3652 7234
3 7234 3652 1182
3 6222 6223 6535
3 7113 7946 3956
3 6539 7967 7968
3 7115 7946 7113
3 4100 3503 3502
3 3502 3567 4100
3 6238 6018 6027
3 6027 6231 6238
3 3449 3958 7776
3 7776 3440 3449
3 5894 5896 7472
3 7968 6540 6539
3 7822 3818 3817
3 3871 7891 7417
3 7752 7958 1814
3 7425 7436 7308
3 1814 7958 1817
3 3817 4191 7822
3 7429 7436 7425
3 468 470 7882
3 6428 7969 6432
3 7970 4191 4192
3 7882 2053 468
3 7761 7969 6428
3 2255 2257 7778
3 6923 3331 3333
3 3337 3291 3333
3 7374 7817 7528
3 7778 7777 2255
3 6004 6592 6003
3 7884 6001 6003
3 4192 5813 7970
3 7971 7721 7972
3 7150 6666 7972
3 7778 2257 7598
3 7643 7973 7974
3 2284 2283 4959
3 2284 4959 5472
3 7972 7721 7150
3 738 740 2889
3 738 7302 761
3 5672 5472 4959
3 5744 6252 6554
3 4784 7064 7066
3 6554 6252 6418
3 7975 7976 7690
3 4789 7064 4784
3 7647 7713 3866
3 7902 6339 6341
3 3866 7713 3873
3 3866 3868 7647
3 4175 7339 4177
3 6341 6344 7902
3 7901 6339 7902
3 7528 7529 7374
3 1924 7615 7963
3 6082 6084 6755
3 7528 7817 7530
3 2158 7615 1924
3 7963 1922 1924
3 7690 7689 7975
3 5217 5216 5901
3 7364 6558 5859
3 5859 6567 7364
3 7977 7976 7975
3 7831 7978 6631
3 7979 7978 7831
3 7144 6646 7980
3 6239 6241 6366
3 7981 6646 7144
3 7982 6547 1812
3 704 3419 702
3 6865 5296 3616
3 5217 7983 4041
3 3754 3996 7261
3 3688 3996 3754
3 7261 3751 3754
3 3573 3816 3984
3 6866 5296 6865
3 6866 7234 5296
3 1761 6309 7950
3 3984 3816 3986
3 7869 6628 6400
3 3984 3983 3573
3 6400 6399 7869
3 7277 7291 7489
3 7393 6666 7150
3 7150 6363 7393
3 6400 6628 6405
3 7280 7291 7277
3 2313 2315 7231
3 7231 3412 2313
3 7959 6032 6035
3 3581 1408 7013
3 7950 6775 1761
3 3690 3689 7013
3 7957 6830 6837
3 7013 1408 3690
3 7616 2158 7984
3 7105 7262 5511
3 7984 2158 3446
3 4815 4817 7985
3 7107 7262 7105
3 7986 2321 2320
3 5085 5126 7855
3 7855 7854 5085
3 7985 4817 7953
3 7720 6066 6067
3 2320 3506 7986
3 5823 5789 6914
3 4185 4627 4189
3 3873 4627 4185
3 7489 7291 977
3 6067 7904 7720
3 4949 7580 4816
3 977 979 7489
3 977 7291 984
3 6162 6578 6973
3 6784 7574 6559
3 6973 6578 6579
3 4816 7580 4945
3 6559 6783 6784
3 3820 3818 7822
3 3820 7201 3823
3 7127 7242 7987
3 7822 7201 3820
3 4081 4095 7316
3 4084 4095 4081
3 7313 7242 7127
3 7316 4082 4081
3 984 7205 7988
3 7933 6938 7988
3 7988 7205 7933
3 2256 4353 7989
3 7873 7990 6206
3 2260 4353 2256
3 7812 7467 7802
3 7988 6938 984
3 7802 7467 7804
3 2995 2367 2369
3 3850 7991 6063
3 2370 2890 2369
3 7650 7648 6588
3 7039 3708 7033
3 7992 6764 6571
3 3469 6889 7993
3 6184 7994 4170
3 7039 7040 3337
3 6514 7994 6184
3 3296 542 7993
3 7993 6889 3296
3 7993 542 3469
3 6571 6764 7951
3 7994 6514 7995
3 7995 6514 6513
3 7996 6247 5937
3 6059 7536 5540
3 5540 7536 3639
3 5540 5552 6059
3 7488 7310 3003
3 7737 6048 6613
3 7489 7310 7488
3 3850 6429 7991
3 7920 6308 6439
3 6527 6770 6510
3 3003 3002 7488
3 7340 7940 7923
3 7923 4177 7340
3 6345 7935 7639
3 7997 7324 3966
3 3966 7324 3971
3 3966 3965 7997
3 7998 5928 5930
3 2319 2321 3556
3 7692 7809 3927
3 6914 7809 7692
3 3927 6567 7692
3 5967 6802 5972
3 6985 7373 6984
3 5968 6802 5967
3 7035 3301 6984
3 6984 7373 7035
3 7639 7935 7641
3 7643 7024 7999
3 7639 6278 6345
3 4512 4511 4055
3 4512 7807 4809
3 7837 8000 7999
3 6047 6613 6048
3 8001 6247 7996
3 8002 6795 8003
3 7782 6795 8002
3 7999 7024 7837
3 7737 6613 6791
3 7999 8000 7643
3 7785 8004 7792
3 6560 5866 5092
3 7792 8004 3393
3 5127 4018 7569
3 7792 2965 7785
3 5092 5866 5253
3 5092 5091 6560
3 979 7310 7489
3 1557 8004 3526
3 7920 6240 6308
3 3393 8004 1557
3 4200 6858 4197
3 7986 3795 4197
3 4197 6858 7986
3 7513 7102 7049
3 7513 3279 7126
3 6059 5660 5659
3 7697 4499 5942
3 5942 6332 7697
3 7126 7102 7513
3 7696 4499 7697
3 7493 7912 7460
3 5127 4019 4018
3 6176 6357 6177
3 7493 3709 6849
3 6849 7912 7493
3 8005 4019 5127
3 8006 6062 8007
3 3385 8008 3705
3 3705 8008 3707
3 3705 3704 3385
3 8009 7653 5944
3 4143 4141 7783
3 8007 7967 8006
3 6664 6131 6134
3 8010 8011 8012
3 7783 6962 4143
3 7045 5582 802
3 5796 8013 4156
3 5799 6096 7555
3 4156 8013 4126
3 4156 4155 5796
3 7579 7817 8014
3 7374 7774 8014
3 4149 3874 6570
3 6134 7733 6664
3 8014 7817 7374
3 7968 7967 8007
3 8014 7774 7579
3 3732 8009 6947
3 7079 7084 7221
3 8015 5825 5827
3 5827 5846 8015
3 7079 7040 7080
3 6640 7821 6591
3 6249 7821 6640
3 7221 7040 7079
3 3668 3794 1587
3 3784 7067 3783
3 6192 6272 6193
3 7437 3780 3783
3 6071 7701 7703
3 3783 7067 7437
3 8016 4009 4017
3 4017 5843 8016
3 6937 3118 6939
3 6940 3118 6937
3 5792 5922 7875
3 2315 6994 7231
3 4536 2221 7265
3 4630 5201 7265
3 3372 8008 3385
3 3372 3373 7965
3 7965 8008 3372
3 7986 6858 2321
3 2321 6858 3556
3 911 6861 2324
3 5901 7983 5217
3 6206 7990 5887
3 6206 6205 7873
3 4099 4102 7781
3 4811 8017 6313
3 3079 3081 6430
3 7933 2821 740
3 4036 7064 8018
3 6313 8017 6314
3 4789 4034 8018
3 6375 6654 5765
3 8018 7064 4789
3 7867 6399 6389
3 8018 4034 4036
3 7869 6399 7867
3 6389 7868 7867
3 7781 4098 4099
3 7813 7461 7815
3 8019 7577 7575
3 6670 3869 7418
3 6157 8020 7575
3 7813 6709 653
3 653 7461 7813
3 4701 4700 7998
3 4701 5930 4115
3 7998 5930 4701
3 6947 4065 6945
3 7126 6946 6945
3 6945 4065 7126
3 7575 8020 8019
3 6281 6193 6272
3 7942 8021 8022
3 6408 8021 7942
3 8023 8024 8025
3 8026 8024 8023
3 4354 6625 7148
3 6426 6509 7789
3 6430 3081 7250
3 1769 8027 6235
3 6216 6285 7791
3 6389 6292 7868
3 6849 3709 6843
3 6286 7123 7791
3 3743 3604 7775
3 5741 6112 8028
3 7791 6285 6286
3 7917 5998 5997
3 7775 3748 3743
3 7283 8013 4073
3 4126 8013 7283
3 278 7199 6166
3 3433 3434 6166
3 6187 6186 7915
3 6166 7199 3433
3 7355 3542 7133
3 5794 5253 5793
3 5924 5792 5793
3 7355 7198 7294
3 8029 7386 6600
3 3991 3993 1665
3 8005 5127 5129
3 1665 4001 3991
3 1771 8027 1769
3 8030 6649 5927
3 5927 6213 7871
3 5927 6649 6213
3 6704 7835 7559
3 7559 8031 6704
3 8032 6836 8033
3 7889 8034 6369
3 783 780 7526
3 1931 8034 7889
3 3977 3976 2222
3 6369 6269 7889
3 8001 7758 7952
3 2222 4077 3977
3 4145 7409 7416
3 3707 7409 4145
3 5760 8035 5986
3 7416 4146 4145
3 5986 8035 8036
3 7952 7758 7760
3 6837 6836 8032
3 7384 3791 4037
3 4037 3791 3466
3 8037 4634 4636
3 4037 4035 7384
3 8038 4634 8037
3 6988 7042 7030
3 6539 6809 7966
3 2260 6536 1933
3 8039 6539 6541
3 8039 6809 6539
3 5862 7652 5093
3 6990 7042 6988
3 7549 2589 6226
3 8010 5731 8011
3 8040 8041 7541
3 8040 7701 6071
3 6071 8041 8040
3 7541 7701 8040
3 5093 5253 5862
3 7454 5627 7453
3 7030 6989 6988
3 5626 5778 7453
3 6954 8042 6926
3 8043 5959 5961
3 7027 6924 6926
3 6926 8042 7027
3 7453 5627 5626
3 6073 7916 6077
3 780 7341 7526
3 7341 3095 7526
3 6075 7916 6073
3 7965 3373 7964
3 7230 6978 7964
3 7761 5928 7969
3 7922 6326 6327
3 7964 3373 7230
3 2447 7390 6847
3 3401 6379 3446
3 3888 7390 2447
3 3401 3400 6376
3 6376 6379 3401
3 4176 3713 7512
3 8044 6702 8031
3 4177 3713 4176
3 4251 4250 8045
3 7512 4174 4176
3 5798 4183 4038
3 4038 4040 5798
3 5436 1807 8046
3 7561 6222 6535
3 6182 8047 6183
3 8045 5664 4251
3 3273 3515 7334
3 7334 3274 3273
3 8046 1807 3923
3 4005 7684 4006
3 4005 4004 7012
3 7012 7684 4005
3 4535 6187 3285
3 7336 7949 7335
3 3285 3284 4535
3 6053 7949 7336
3 7998 6010 6012
3 3285 6187 3290
3 8004 8048 3526
3 6012 5928 7998
3 5919 7879 5918
3 7549 5916 5918
3 5918 7879 7549
3 7785 8048 8004
3 6099 6374 8049
3 5911 7555 8049
3 3973 3972 3781
3 7102 6962 7049
3 7102 7126 4067
3 5886 7990 7515
3 8049 6374 5911
3 5887 7990 5886
3 6952 2919 3592
3 3592 3427 6952
3 7997 3697 3699
3 3699 3894 7997
3 7553 8042 6141
3 6600 7386 7424
3 7424 6597 6600
3 8049 7555 6099
3 7553 3645 7027
3 6210 5756 5758
3 5758 6109 6210
3 7027 8042 7553
3 6744 6702 8044
3 6970 6833 7046
3 7046 6833 7090
3 7717 5756 5762
3 7124 3396 3395
3 6020 6040 8050
3 5390 2489 2490
3 8050 6040 8051
3 2752 3613 2490
3 4946 6100 7564
3 6349 7188 8052
3 7508 7024 5551
3 8052 7188 8053
3 6658 5388 6123
3 7837 7024 7508
3 5592 5951 5954
3 3320 3322 7359
3 8054 661 7898
3 2363 6644 2366
3 659 661 8054
3 3320 8055 3325
3 7359 8055 3320
3 4036 7062 7064
3 6065 6064 5768
3 2821 7205 6864
3 6215 6001 6006
3 6006 6155 6215
3 7933 7205 2821
3 8056 7540 8041
3 3856 3828 3838
3 7408 6918 7416
3 5578 6031 5845
3 7408 6977 7447
3 5956 5955 6215
3 6215 6155 5956
3 7447 6918 7408
3 5298 3368 3370
3 6607 7540 8056
3 4073 6222 7561
3 6820 6541 6814
3 4106 3816 3573
3 5617 6654 6375
3 3819 3816 4106
3 3573 4107 4106
3 774 6938 7933
3 3912 4190 4028
3 4187 4029 4028
3 4028 4190 4187
3 6820 6814 6819
3 5941 8009 5944
3 6535 7560 7561
3 6947 8009 5941
3 7600 3782 788
3 6541 6820 8039
3 788 787 7600
3 7558 8057 5614
3 788 3782 795
3 3701 3697 7997
3 8058 6478 6904
3 6904 8059 8058
3 7997 3965 3701
3 3394 3396 7776
3 7776 3958 3394
3 3648 3647 3879
3 3648 3868 3649
3 6925 7883 6954
3 6925 6927 3212
3 3212 7883 6925
3 3923 3763 3762
3 2362 8046 3762
3 3762 8046 3923
3 8058 8059 7419
3 6540 6643 8060
3 5535 8031 7556
3 8060 6643 8061
3 7694 5896 5895
3 7556 7558 5535
3 8062 5900 5216
3 7556 8031 7559
3 7075 6816 7442
3 7442 3585 7075
3 8063 6231 7734
3 6716 7865 7866
3 7446 8064 3746
3 5876 6686 5875
3 7573 6199 5875
3 6371 8065 6370
3 6965 8064 7446
3 5614 8057 5323
3 6982 3806 3805
3 5323 8057 5351
3 5323 5271 5614
3 8066 7726 6370
3 6370 8065 8066
3 5645 5619 8067
3 3807 3547 3805
3 3805 3547 6982
3 5054 7529 3803
3 3803 3367 5054
3 3239 7529 5054
3 6516 3507 3508
3 3694 7688 7544
3 7544 6359 3694
3 3402 5877 8067
3 6107 6106 6404
3 5832 5833 4962
3 8067 5619 3402
3 3614 4046 3887
3 6107 5961 5962
3 7912 3530 7803
3 6849 3530 7912
3 7923 5428 3714
3 8067 5877 5645
3 5897 8068 6585
3 3714 5428 3716
3 6585 8068 8069
3 3714 3713 7923
3 6715 7865 6716
3 5489 3870 4363
3 4363 3870 2322
3 6151 6223 4166
3 6307 6291 6293
3 5774 7944 5772
3 5772 7944 7454
3 7375 4009 4008
3 4012 5521 4008
3 5427 5383 8070
3 3565 5856 8070
3 7870 7765 8071
3 8070 5383 3565
3 8070 5856 5427
3 6305 6307 6293
3 8072 7637 3272
3 8038 7349 4634
3 3272 3274 8072
3 6291 6307 6279
3 5779 5892 8028
3 3272 7637 3283
3 2370 7093 2890
3 8028 5773 5779
3 3793 3454 3453
3 8073 6802 5968
3 5968 7391 8073
3 7175 6573 6572
3 3466 3791 3453
3 7192 3647 3208
3 5761 6136 3944
3 5761 5756 6210
3 6077 6717 6076
3 5602 6074 6076
3 6076 6717 5602
3 6877 3497 6517
3 6517 3497 6516
3 7959 6035 7932
3 7795 4097 4096
3 7932 6035 4173
3 4096 5860 7795
3 795 3780 3779
3 3779 4103 795
3 6301 6044 6045
3 6574 7944 6572
3 6396 6397 8071
3 3829 3828 3856
3 3829 3852 3831
3 7271 4305 5390
3 5806 5808 8074
3 8074 5892 5806
3 6745 4305 7271
3 3630 3632 4606
3 7908 7840 4626
3 3630 6950 3639
3 4626 7840 4189
3 7109 7437 7067
3 7067 6892 7109
3 3286 3455 7378
3 7378 3284 3286
3 3290 3455 3286
3 7965 7409 8008
3 5862 5253 5794
3 5862 5860 7652
3 6572 7944 7175
3 8008 7409 3707
3 3845 3859 4172
3 7863 7865 6508
3 4172 3846 3845
3 7824 7588 6211
3 6211 6209 7824
3 6508 7865 7877
3 3360 3362 3856
3 4090 4076 4075
3 3484 4086 4075
3 6908 6414 8075
3 6794 8076 6795
3 5703 5893 5702
3 8074 5700 5702
3 6795 8076 8003
3 5702 5893 8074
3 6974 5612 7003
3 7273 763 3258
3 764 763 7273
3 7550 6325 8077
3 4198 3389 3391
3 3391 3936 4198
3 6248 6325 7550
3 8077 6586 7550
3 7000 8078 7002
3 7872 6205 8079
3 5950 5951 5592
3 8071 7765 6396
3 6002 6001 6215
3 7000 3535 4012
3 4012 8078 7000
3 8079 6205 8080
3 8079 6238 7872
3 3385 3863 3251
3 6145 6144 7448
3 3262 3968 3990
3 7010 4004 3581
3 7012 4004 7010
3 3290 7911 2998
3 4144 1815 3707
3 7448 5906 6145
3 5731 8025 8038
3 2998 7911 2366
3 7448 6144 7451
3 8081 6150 4631
3 4631 7644 8081
3 5589 5927 7871
3 2998 2997 3290
3 3274 4169 8072
3 7334 4169 3274
3 3941 6052 5932
3 6913 8000 6912
3 7837 5723 6912
3 6912 8000 7837
3 7378 4438 3284
3 8028 5892 5740
3 3501 3503 3795
3 3501 7986 3506
3 5740 5741 8028
3 3795 7986 3501
3 5877 8066 5645
3 6213 7586 7871
3 4557 8066 5877
3 7036 7288 7445
3 6148 6147 7666
3 7445 3908 7036
3 7637 6513 7638
3 8082 7668 7666
3 8072 4169 4168
3 6040 6789 8051
3 6040 6039 8083
3 6026 7820 6029
3 7666 6147 8082
3 8051 7820 6026
3 4170 7994 4168
3 4168 7994 8072
3 960 7391 5968
3 4150 1815 4144
3 7322 4103 3972
3 8084 5768 5763
3 5434 8046 2362
3 7894 7402 3105
3 5763 5765 8084
3 6416 6414 6908
3 5753 7402 7894
3 7111 7437 7109
3 8085 7255 8057
3 7111 3359 6972
3 7530 3802 3801
3 3803 7529 3801
3 6375 5765 5764
3 7270 7255 8085
3 5436 8046 5434
3 3740 3983 7248
3 7611 6060 8080
3 5551 5539 7509
3 6165 8086 8087
3 3187 3186 7509
3 8087 8086 7727
3 2257 2256 8088
3 8089 8090 3085
3 8088 2256 7989
3 7509 5539 3187
3 4606 3632 5789
3 5789 3632 6914
3 5966 4582 3317
3 4447 3341 3343
3 2594 2596 3343
3 7895 5682 5687
3 7065 3942 3687
3 7182 3364 1271
3 5615 6374 5618
3 5615 5617 6375
3 1271 1270 7182
3 1271 3364 1397
3 6805 3205 6886
3 5963 7743 5966
3 3736 6806 6886
3 5972 7743 5963
3 1178 4586 4587
3 4356 7320 2318
3 2318 6625 4356
3 7732 6618 7733
3 7785 3969 8048
3 1182 4586 1178
3 4587 1179 1178
3 4183 5795 7905
3 8016 8078 4007
3 8091 7641 7935
3 7767 6775 7766
3 7950 6396 7766
3 4007 8078 4012
3 7766 6775 7950
3 4007 4009 8016
3 8092 6371 8093
3 3681 6056 5879
3 5727 5878 5879
3 7280 3933 3932
3 3932 3970 7280
3 4543 8066 4557
3 4543 4545 7726
3 7726 8066 4543
3 3322 3061 7359
3 7192 3061 3322
3 3331 3709 3708
3 4111 4438 6014
3 8094 6618 7732
3 7378 6713 6014
3 7554 4948 4180
3 6014 4438 7378
3 4180 4948 7795
3 5903 8068 5897
3 7720 7904 7604
3 7451 8068 5903
3 3757 3759 7437
3 4447 3751 3341
3 5796 6222 8013
3 8013 6222 4073
3 3452 3454 5654
3 3452 5621 3466
3 8062 5222 5225
3 5225 5900 8062
3 6065 5959 3348
3 6681 5622 7928
3 6971 3635 7107
3 6972 3635 6971
3 1665 1406 4002
3 6011 6010 5914
3 6011 5764 5767
3 4002 1406 3747
3 5914 5764 6011
3 4002 4001 1665
3 7603 7720 7604
3 7261 7020 3750
3 7458 7903 7618
3 3750 7020 3752
3 3807 7683 7392
3 7392 6363 3807
3 7603 6069 7720
3 3750 3751 7261
3 7425 7308 6598
3 6598 6597 7425
3 1931 7714 8034
3 8062 5938 5221
3 7020 3605 7018
3 3769 3768 7501
3 5221 5222 8062
3 3769 7098 974
3 8089 8043 8090
3 8034 7714 8095
3 8071 6397 7870
3 8064 4003 3747
3 6965 4003 8064
3 3747 3746 8064
3 7536 3926 7537
3 6142 3851 7917
3 6142 8035 5760
3 6059 3926 7536
3 7917 8035 6142
3 6583 6521 6587
3 6284 6283 7815
3 7815 7522 6284
3 3559 3561 7055
3 3559 7051 3563
3 4165 5795 7704
3 4135 3911 3910
3 3912 4130 3910
3 5817 6044 7970
3 5807 6504 6098
3 6098 5808 5807
3 7970 5813 5817
3 3677 3976 7895
3 7682 7504 8096
3 5751 5750 3862
3 7699 7700 8096
3 6439 6438 7920
3 8096 7504 7699
3 7809 3632 7537
3 6914 3632 7809
3 5751 7402 5753
3 3815 787 789
3 795 4103 789
3 8096 7700 7682
3 4091 4093 4172
3 6515 2768 7125
3 3349 8089 6078
3 2770 2768 6515
3 7259 7235 7525
3 7193 5824 7525
3 7525 7235 7193
3 7905 5795 4155
3 6520 6587 6521
3 7443 3988 4090
3 6314 6747 6315
3 5960 5959 8084
3 7443 4089 3265
3 6689 8097 6690
3 7596 7134 4153
3 4090 4089 7443
3 6689 6688 6722
3 7501 3319 7497
3 3651 7098 7497
3 6722 8097 6689
3 6327 6144 7922
3 7497 3319 3651
3 7115 3852 3362
3 6342 8025 8098
3 1177 1179 5298
3 4091 5750 4094
3 3448 3440 7077
3 4190 3909 3847
3 8099 8100 6299
3 8099 6045 5820
3 5820 8100 8099
3 6299 6045 8099
3 6090 7672 7673
3 3912 3909 4190
3 7305 3479 3481
3 7673 7478 6090
3 3481 4045 7305
3 6583 6587 7728
3 1792 8101 6371
3 6581 8102 7851
3 5351 5781 5324
3 5783 5271 5324
3 2770 4086 4087
3 4088 2769 4087
3 1818 8101 1792
3 4163 4165 7704
3 4087 2769 2770
3 3368 7023 5753
3 7969 5928 8103
3 6776 6358 8104
3 6012 5767 8103
3 7456 4153 7134
3 7134 6189 7456
3 7458 4153 7456
3 3862 7402 5751
3 5674 723 6356
3 5920 7682 5923
3 8103 5928 6012
3 5778 5626 5780
3 1767 4511 8069
3 7677 6032 5869
3 8103 5767 7969
3 7897 4057 4059
3 5869 5867 7677
3 8105 6152 6366
3 5535 7841 8044
3 8044 8031 5535
3 8044 7841 6744
3 4060 7618 4059
3 7602 7687 3696
3 4059 7618 7897
3 5870 7687 7602
3 3283 7636 7354
3 7354 7636 7148
3 7354 3516 3283
3 8105 6241 6153
3 7652 5860 5852
3 3612 3885 3613
3 1778 4511 1767
3 5852 5853 7652
3 3887 3885 3612
3 6454 7420 7956
3 3258 7230 3373
3 6153 6152 8105
3 7468 6816 6815
3 7306 6139 7405
3 7405 7137 7306
3 6366 6241 8105
3 7468 7042 6990
3 7959 7932 6179
3 6179 6181 7959
3 6179 7932 4122
3 7658 8106 7660
3 6164 7879 5919
3 6815 7042 7468
3 7811 7879 6164
3 7658 6143 6145
3 5744 4545 4544
3 4049 8107 7771
3 7771 4046 4049
3 2374 8107 4049
3 6355 6637 4162
3 4162 5936 6355
3 1817 3704 3706
3 3707 1815 3706
3 3706 1815 1817
3 3497 3499 6516
3 3497 6877 3500
3 5870 7602 5868
3 6145 8106 7658
3 8069 1765 1767
3 5868 7602 3397
3 7857 7733 7971
3 3747 1406 3738
3 6913 7973 8000
3 7857 7972 6666
3 7971 7972 7857
3 7648 7892 6588
3 3738 1406 3739
3 8000 7973 7643
3 7133 7130 7356
3 7971 7982 7721
3 7356 7130 4133
3 7721 7982 5436
3 4499 7696 4437
3 4437 7696 4535
3 7490 7391 7833
3 8104 6358 7547
3 4198 3871 3389
3 7914 4256 4255
3 4255 5061 7914
3 7657 5222 4136
3 2304 3613 3885
3 6366 6365 5680
3 8108 7724 8109
3 3885 3884 2304
3 7077 3798 7070
3 6282 6228 6193
3 7070 3798 3797
3 7539 8110 7541
3 3786 3785 4129
3 4129 4035 3786
3 7946 7712 3956
3 3363 7712 7946
3 7725 8111 8109
3 5923 4044 4043
3 8109 7724 7725
3 7657 4136 2451
3 4043 5888 5923
3 7136 7943 5787
3 5787 6644 7136
3 7135 7943 7136
3 6365 8110 7539
3 7814 3814 3813
3 6903 5129 6828
3 4196 4191 7970
3 5873 7962 8083
3 3813 4256 7814
3 5679 7962 5873
3 8083 5871 5873
3 6694 4169 7274
3 7334 5465 7274
3 8109 8111 8108
3 7274 4169 7334
3 7278 7825 7893
3 3002 7825 7278
3 7893 3933 7278
3 3421 3613 2304
3 4105 4107 7753
3 7753 5813 4105
3 8112 7258 7259
3 8112 3624 3623
3 3623 7258 8112
3 4128 5825 8015
3 5129 6903 8005
3 8005 6903 6905
3 6375 5764 6373
3 5771 5773 8028
3 8113 8114 6403
3 5856 5853 5427
3 8028 6112 5771
3 4879 5878 5880
3 5880 5913 4879
3 958 960 5968
3 5729 5884 6183
3 6373 5764 5914
3 5968 3768 958
3 6183 5728 5729
3 8091 8114 8113
3 4582 4956 4561
3 6499 6519 6521
3 4125 5938 7905
3 3424 3426 6190
3 4631 6150 7909
3 3424 7134 3306
3 7909 6150 5909
3 4719 6010 7998
3 7771 5951 4047
3 4047 4046 7771
3 7998 4700 4719
3 3426 3802 6190
3 4119 4171 5948
3 7795 3891 3890
3 3890 4180 7795
3 7800 5682 5683
3 7736 5888 5889
3 4045 4074 5889
3 5683 5846 7800
3 4135 4483 3914
3 7886 5943 4108
3 3914 3911 4135
3 4108 5943 4499
3 7002 7621 7622
3 6761 8029 7622
3 6496 6519 6499
3 7622 8029 7002
3 6378 7840 7716
3 6007 5995 7716
3 3905 3907 7322
3 7716 7840 6007
3 3905 5241 3908
3 6177 6239 5872
3 5872 5871 6177
3 3454 6377 5654
3 6519 6496 6514
3 3793 6377 3454
3 6594 7256 8032
3 8032 7256 6837
3 7532 6468 6467
3 5829 8115 6467
3 6244 3947 7385
3 6467 8115 7532
3 3661 3947 6244
3 6379 7984 3446
3 7990 8116 8117
3 5995 7984 6379
3 3624 3565 5383
3 5383 3625 3624
3 3573 3570 4107
3 3808 3806 3883
3 8015 5933 4127
3 3808 3882 3809
3 7358 3061 3309
3 4127 4128 8015
3 6183 8047 5730
3 7359 3061 7358
3 5231 7896 5385
3 5730 5728 6183
3 5385 7896 5423
3 5385 5364 5231
3 5705 5878 5727
3 7363 6780 6777
3 7363 6567 3927
3 3927 6780 7363
3 5889 4074 7736
3 4167 4169 6694
3 3745 3064 3746
3 4122 4120 8118
3 7248 3064 3745
3 5832 6180 8118
3 3479 6852 4088
3 4132 3855 4187
3 3499 3507 6516
3 3996 3993 7261
3 8118 4120 5832
3 3659 7906 7290
3 3682 4114 3684
3 3682 3678 4115
3 3996 3688 3690
3 7895 5687 8107
3 787 3814 7600
3 8107 5687 7771
3 8118 6180 4122
3 4100 3794 3503
3 3620 3621 7596
3 727 6711 725
3 7596 3659 3620
3 7335 5514 5608
3 3964 3965 6985
3 3964 3302 3703
3 3736 3663 3665
3 4098 6421 3800
3 3668 3730 3665
3 7781 6421 4098
3 4631 4627 8119
3 8117 8116 6130
3 7418 8059 8120
3 3873 7713 8119
3 8119 4627 3873
3 7875 5888 7876
3 8119 7713 4631
3 7876 5888 7736
3 7923 7940 3840
3 4097 4948 7893
3 3840 3842 7923
3 7795 4948 4097
3 3840 7940 3843
3 5423 3678 3683
3 3684 5364 3683
3 5948 4171 4093
3 3901 3814 7814
3 3937 6214 3919
3 6180 6199 7573
3 3325 3814 3901
3 7814 3900 3901
3 3684 3722 3721
3 3721 5364 3684
3 6075 6136 6119
3 5929 5928 7761
3 5929 3941 5932
3 6210 6120 6119
3 7761 3941 5929
3 5769 5768 6432
3 5769 7969 5767
3 4201 4167 3923
3 6432 7969 5769
3 7175 7944 8121
3 6067 6068 3919
3 3919 6214 6067
3 7997 3894 7324
3 7640 6291 6279
3 5911 5913 7555
3 7324 3894 7325
3 4123 4125 7905
3 7905 4155 4123
3 7461 7522 7815
3 5774 3511 8121
3 7460 7522 7461
3 1272 4131 7132
3 7132 1270 1272
3 7641 6291 7640
3 1397 4131 1272
3 4166 6223 4164
3 5796 4165 4164
3 8121 7944 5774
3 6279 6278 7640
3 6673 5980 5979
3 1923 3402 3446
3 3446 2158 1923
3 4056 4057 7897
3 5436 7982 1805
3 3923 1807 4201
3 1805 7982 1812
3 1805 1807 5436
3 4170 4167 4201
3 5979 6461 6673
3 5932 4114 4113
3 7914 7906 7595
3 7872 6231 8122
3 7846 4078 6169
3 6169 6682 7846
3 4115 5930 4113
3 4113 5930 5932
3 4115 3678 3680
3 3681 4700 3680
3 5934 5933 7473
3 3695 3687 3942
3 7896 6056 5423
3 6013 4110 4111
3 8063 7873 8122
3 6013 5543 4142
3 4142 4110 6013
3 3513 8048 7389
3 7389 3507 3513
3 8122 6231 8063
3 3526 8048 3513
3 7473 3626 3628
3 3629 7062 3628
3 3720 3722 7335
3 3720 5608 3726
3 7335 5608 3720
3 5783 3790 3789
3 3789 5271 5783
3 4090 5891 4076
3 3812 3658 3657
3 4076 5891 7736
3 3985 3062 7248
3 1714 7956 5981
3 8122 7873 7872
3 1721 7956 1714
3 2454 2449 3657
3 8120 8059 7085
3 5782 5900 5783
3 5782 5781 5901
3 6392 8017 6407
3 6118 7916 6075
3 7496 8073 7391
3 8123 7916 6118
3 7391 7490 7496
3 7498 8073 7496
3 3784 7885 7357
3 7357 7885 7359
3 3314 4791 4800
3 4066 5943 7886
3 4800 3312 3314
3 6407 8017 7947
3 5661 3785 3787
3 3466 5621 3787
3 5935 4132 3844
3 3844 3846 5935
3 3685 7688 3694
3 3696 7688 3685
3 7292 4586 7475
3 1182 3652 7475
3 7475 4586 1182
3 7179 7851 8124
3 7384 4034 7383
3 7816 6455 7530
3 7383 4034 4789
3 3739 3572 3571
3 3573 3983 3571
3 7895 8107 3676
3 3676 3677 7895
3 5935 4171 4052
3 3676 8107 2374
3 4147 4146 7416
3 7416 6918 4147
3 5921 5888 7875
3 7875 5922 5921
3 5923 5888 5921
3 7833 3777 3776
3 3778 6254 3776
3 6985 7774 7373
3 7373 7774 7374
3 6936 6935 7258
3 4044 7682 3809
3 7883 4184 6954
3 5923 7682 4044
3 5826 8115 5829
3 5826 5825 8093
3 8093 8115 5826
3 3649 4184 7883
3 6670 4102 3567
3 2364 7911 7915
3 1817 7958 7684
3 4040 6066 5798
3 2366 7911 2364
3 7915 2365 2364
3 3924 3926 6633
3 3924 6780 3927
3 6117 3511 6111
3 6633 6780 3924
3 6111 3511 5774
3 7002 8029 7431
3 7431 8029 6600
3 6098 5799 5801
3 5801 5808 6098
3 3902 3904 7753
3 3902 4107 3570
3 7753 4107 3902
3 4070 5703 3656
3 3656 3658 4070
3 6308 6357 7662
3 7518 6803 7520
3 3656 5703 2454
3 7647 3868 3878
3 1397 3365 4134
3 3879 4056 3878
3 3878 4056 7647
3 4134 4130 1397
3 3735 3730 7375
3 5704 5700 8074
3 8074 5808 5704
3 3735 6806 3736
3 7752 8100 5991
3 3887 4046 4025
3 5991 8100 5820
3 5991 5990 7752
3 3804 7683 3807
3 3809 7683 3804
3 5753 7023 5752
3 4094 5750 5752
3 7384 4035 4034
3 7518 5616 8125
3 7248 3983 3985
3 7123 6286 4023
3 5847 5933 8015
3 7684 7958 4006
3 3989 4947 7554
3 8015 5846 5847
3 8125 6803 7518
3 8124 7851 8102
3 7501 5965 5964
3 7584 7546 8126
3 5964 3319 7501
3 4022 5792 7875
3 4039 7983 6068
3 4041 7983 4039
3 7908 4626 4628
3 4631 7909 4628
3 6068 4040 4039
3 4628 7909 7908
3 5883 6032 7959
3 3988 3987 4090
3 8126 7546 7566
3 7959 5884 5883
3 7608 5741 4068
3 7396 6474 6472
3 7512 3715 7799
3 4068 4069 7608
3 5224 5222 7657
3 5224 7896 5231
3 6867 6992 7799
3 7657 7896 5224
3 5798 6066 6070
3 6071 7703 6070
3 7799 3715 6867
3 6070 7703 5798
3 5593 7949 5602
3 5593 5514 7335
3 7335 7949 5593
3 3909 3911 4101
3 5890 7876 7736
3 7886 4108 4110
3 3892 7876 5890
3 7736 5891 5890
3 5218 5938 8062
3 910 3763 7397
3 4026 4025 4048
3 8062 5216 5218
3 4026 6254 3778
3 7388 8048 3969
3 7389 8048 7388
3 1397 4130 4131
3 6913 6989 6347
3 3969 3968 7388
3 6347 6989 6348
3 6347 7973 6913
3 3584 6989 6913
3 653 6709 7400
3 8001 7952 6245
3 6709 6197 6196
3 4053 7941 4055
3 4053 1398 3843
3 3843 7941 4053
3 5552 5660 6059
3 3955 7712 7385
3 7353 4174 7352
3 3956 7712 3955
3 7352 4174 7512
3 5914 6010 5912
3 4879 5913 5912
3 7385 3949 3955
3 7296 5434 2362
3 6200 6708 6196
3 5435 5434 7296
3 5859 6558 5857
3 7652 5853 5857
3 8100 6233 7452
3 7385 7711 6253
3 6253 7711 3799
3 7452 6233 6103
3 3788 3790 5231
3 5231 5364 3788
3 6944 3732 6947
3 6944 6946 3917
3 3917 3732 6944
3 5831 8092 8093
3 8093 5825 5831
3 5661 8092 5831
3 4604 5824 7193
3 7908 6008 6007
3 6007 7840 7908
3 7608 4069 4072
3 7452 6299 8100
3 7662 6439 6308
3 2454 5703 7960
3 5727 6055 7960
3 4072 7560 7608
3 8055 7885 7600
3 7359 7885 8055
3 7600 3325 8055
3 4033 4035 4129
3 5645 8092 5620
3 4033 5934 4036
3 5620 8092 5661
3 7145 7144 7852
3 7145 4178 7156
3 4129 5934 4033
3 3889 3891 5794
3 5794 4022 3889
3 7852 4178 7145
3 6214 5955 7904
3 4450 7900 4447
3 5798 7703 5797
3 7704 5795 5797
3 5797 7703 7704
3 7272 7900 4450
3 7893 4948 3931
3 3931 3933 7893
3 7965 6977 7409
3 4089 4086 2770
3 4133 4029 4031
3 7983 3920 6068
3 7678 3828 3830
3 5901 3920 7983
3 3831 7589 3830
3 3830 7589 7678
3 6072 6136 6075
3 6072 6074 6053
3 7316 4095 7825
3 7825 4095 7893
3 7123 4023 4024
3 3538 6578 4024
3 2222 3976 3615
3 3816 3818 3986
3 3621 7134 7596
3 3306 7134 3621
3 7473 4077 3626
3 7774 3971 7579
3 7292 4559 4586
3 7512 3713 3715
3 3716 6867 3715
3 7616 7984 5993
3 5993 5992 7616
3 5993 7984 5995
3 7904 6067 6214
3 6089 8041 6071
3 3775 3777 3888
3 6023 6022 7532
3 3775 3884 3778
3 7554 3987 3989
3 5893 5703 4070
3 5893 5892 8074
3 7473 5933 4079
3 7480 8041 6089
3 6954 4186 8042
3 4079 4077 7473
3 5851 6507 7800
3 3812 4069 3658
3 4184 4186 6954
3 7800 5846 5851
3 8078 7621 7002
3 7562 7816 7579
3 8016 7621 8078
3 6328 7816 7562
3 7130 4131 4133
3 3987 5891 4090
3 7132 4131 7130
3 7554 5891 3987
3 7920 6438 5917
3 7403 3860 3916
3 3862 3860 7403
3 5917 5916 7920
3 3916 7207 7403
3 8042 4186 6141
3 6418 6245 7952
3 8127 8128 7925
3 7576 8128 8127
3 2592 2593 7268
3 7268 2593 5319
3 8129 7740 6191
3 7922 7740 8129
3 6440 8130 7910
3 7910 8130 6608
3 6218 6674 6216
3 7803 4023 7521
3 7521 4023 6286
3 7521 7522 7803
3 7811 8131 7750
3 7750 8131 6502
3 7267 6674 6218
3 6583 7728 6697
3 7926 6697 7728
3 7728 7730 7926
3 8132 7615 6135
3 7963 7615 8132
3 3776 6254 7961
3 7961 6254 6256
3 6829 6260 8133
3 8133 6260 4161
3 5738 8134 5887
3 5975 8134 5738
3 5887 5736 5738
3 5925 5835 6483
3 1791 1793 7819
3 1791 7524 1818
3 6483 5835 6787
3 6608 6672 7910
3 7910 6672 6548
3 8135 6296 6772
3 5972 6296 8135
3 7977 8127 8136
3 8136 8127 7925
3 8137 6556 7621
3 6561 6556 8137
3 8068 8138 8139
3 8139 8138 6327
3 8033 8140 8141
3 7441 3601 669
3 669 5240 7441
3 6900 3601 7441
3 8142 4162 6637
3 8142 5574 4160
3 4160 4162 8142
3 6637 5574 8142
3 6636 6048 7737
3 7648 8056 7892
3 7343 7415 7135
3 1906 7675 6449
3 6340 6450 6449
3 7135 7337 7343
3 6449 7675 6340
3 8128 7577 7365
3 7614 7742 7613
3 7576 7577 8128
3 2496 6135 7613
3 7613 7742 2496
3 8141 8140 7884
3 8143 7415 7314
3 8144 6347 6349
3 7973 6347 8144
3 8145 8146 8082
3 6817 6123 6122
3 6610 6609 6690
3 8061 7439 8147
3 6690 7580 6610
3 8147 7439 7979
3 6607 8056 7648
3 6072 6053 6133
3 6133 6136 6072
3 6133 6053 6050
3 8148 8146 8145
3 6405 6733 7285
3 8149 7685 8150
3 8150 7685 7686
3 8151 6352 8152
3 6005 8153 8154
3 8154 8153 8020
3 8155 6679 8156
3 7236 7351 7362
3 7365 8151 7362
3 8156 6679 7582
3 7362 8151 7236
3 8157 6291 7641
3 6292 6291 8157
3 6248 7551 8158
3 8158 7551 8111
3 6445 6439 7662
3 8152 7299 7212
3 6357 7663 7662
3 7212 7299 4394
3 6909 7571 8159
3 8159 7571 7573
3 6512 6022 6024
3 7940 7340 8160
3 8160 7340 7344
3 6581 6575 8161
3 8161 6575 1893
3 6817 6122 7312
3 7962 8162 8163
3 8163 8162 6789
3 8164 6118 6120
3 7187 6791 8053
3 7971 6618 6617
3 6547 7982 6617
3 6617 7982 7971
3 7210 7212 4394
3 8123 6118 8164
3 6310 6354 6653
3 8165 8166 6356
3 7707 8166 8165
3 8167 8168 8169
3 7878 8170 8171
3 6176 8170 7878
3 7144 7980 7852
3 8171 7663 7878
3 5631 8168 8167
3 8172 7346 7687
3 7127 7987 8173
3 7349 7346 8172
3 6382 5664 8174
3 8174 5664 7980
3 8175 7544 7688
3 7547 7544 8175
3 7831 8147 7979
3 8176 8177 6468
3 6825 8147 7831
3 7162 7434 7161
3 7380 7160 7161
3 7669 7706 7670
3 7669 6030 6031
3 6633 6631 7978
3 6031 7706 7669
3 7535 8177 8176
3 7978 6780 6633
3 8019 6351 8178
3 8178 6351 6352
3 8058 7823 6300
3 7419 7823 8058
3 6061 6642 8007
3 8007 6642 7968
3 7796 7797 8179
3 7842 6883 6884
3 3411 6883 7842
3 6884 3517 7842
3 7763 8180 8136
3 8136 8180 7977
3 6790 7820 8051
3 8136 7925 7763
3 7790 8181 6635
3 8051 6789 6790
3 6361 8181 7790
3 6635 6636 7790
3 7372 7387 7368
3 6258 7367 7368
3 7465 8182 7642
3 8179 7797 7955
3 6274 8182 7465
3 4252 6395 7344
3 7429 7424 7381
3 7344 4250 4252
3 7381 7424 7386
3 7381 7376 7429
3 5549 5548 1932
3 5549 6268 5554
3 6801 7789 6295
3 6288 6283 6724
3 8024 7349 8038
3 6288 6723 6195
3 6580 6622 6576
3 8038 8025 8024
3 6576 6622 6577
3 6797 8183 8030
3 6576 6575 6580
3 7535 8183 6797
3 6601 6108 7664
3 7664 6655 6601
3 7664 6108 5962
3 6534 6226 2589
3 2589 1897 6534
3 8184 7758 7996
3 8185 8170 5585
3 8059 7418 7419
3 8171 8170 8185
3 8186 8023 6339
3 7598 8082 7593
3 7593 8082 6147
3 8026 8023 8186
3 8187 8156 8188
3 8188 8156 7582
3 7642 8182 5497
3 5497 8182 5498
3 6235 8111 7551
3 6677 7239 6719
3 6125 6720 6719
3 8189 6273 6275
3 7590 8190 1779
3 6275 3086 8189
3 7670 6247 6246
3 6252 6030 6246
3 6154 8191 7975
3 7975 7689 6154
3 7361 7351 7926
3 7975 8191 7977
3 6582 8190 7590
3 1779 659 7590
3 6652 6188 7938
3 5926 6797 8030
3 5728 5731 8037
3 8037 4636 5728
3 6762 5925 7989
3 8037 5731 8038
3 7635 7634 7433
3 7433 7634 7435
3 8030 5927 5926
3 7315 7401 8143
3 6186 6188 6652
3 4513 6585 8069
3 8143 7314 7315
3 4809 6585 4513
3 6202 6201 6281
3 6202 6446 6204
3 8069 4511 4513
3 7938 6651 6652
3 5255 6396 7950
3 3602 6114 7606
3 7608 7560 7606
3 7950 5256 5255
3 7763 8077 8180
3 5340 6396 5255
3 7676 1905 7934
3 6410 6409 6186
3 6410 6651 6386
3 7209 7308 7436
3 7429 7434 7436
3 6437 8192 6434
3 6219 5982 6434
3 7763 7925 7730
3 6434 8192 6219
3 6413 6415 6630
3 6104 6712 6630
3 7934 6343 7676
3 1906 1905 7676
3 8145 7598 2257
3 1867 1866 7345
3 1932 1931 7739
3 6269 6268 7739
3 8193 3659 7596
3 8193 7595 7906
3 7906 3659 8193
3 7596 7595 8193
3 8194 7816 6328
3 8194 6326 6455
3 6455 7816 8194
3 6730 7367 8195
3 6328 6326 8194
3 8082 7598 8145
3 5973 6506 6798
3 7535 6797 6798
3 6905 6168 8005
3 8196 8047 8075
3 8196 8197 5730
3 5730 8047 8196
3 8075 8197 8196
3 7538 7680 7679
3 7143 7680 7538
3 7679 6787 7538
3 8198 3083 7929
3 6336 6651 7938
3 7897 7618 8199
3 7903 7646 8199
3 8199 7618 7903
3 8199 7646 7897
3 2808 2807 7175
3 2808 8121 3511
3 7175 8121 2808
3 2257 8148 8145
3 7929 3083 7936
3 6090 5958 7672
3 7344 7339 4250
3 6004 6002 8200
3 6819 6632 6635
3 6214 3937 8200
3 8200 6002 6214
3 8200 3937 6004
3 8164 6785 8123
3 8164 6120 6209
3 6209 6785 8164
3 6613 6614 8053
3 6200 6195 6706
3 7996 7758 8001
3 4250 7339 8045
3 6700 7866 8201
3 8053 6791 6613
3 7660 8081 8202
3 8143 7421 7413
3 7644 7646 8202
3 8202 8081 7644
3 7413 7415 8143
3 8202 7646 7660
3 6504 6505 7954
3 7954 6557 6504
3 6353 1763 1768
3 7779 2255 7777
3 6511 8183 6512
3 7767 2551 2550
3 6568 8183 6511
3 2550 6775 7767
3 1932 5548 4225
3 7700 7683 7682
3 7779 6661 6537
3 4225 5548 4353
3 4225 1933 1932
3 8203 5650 6500
3 6149 7945 4810
3 4810 7945 4811
3 6456 7210 4355
3 4355 4354 6456
3 4355 7210 4394
3 6732 7432 7372
3 7652 5857 7651
3 6558 5091 7651
3 7372 6730 6732
3 7651 5857 6558
3 6309 1763 6354
3 7156 7320 7300
3 4394 7299 7300
3 7129 7312 7313
3 6354 6310 6309
3 7141 7312 7129
3 7313 7127 7129
3 6480 6479 6728
3 6480 6727 6482
3 7802 8204 7812
3 6457 6459 8201
3 7801 8204 7802
3 6557 7954 7797
3 6457 8205 6460
3 7797 7954 7955
3 8206 8207 6514
3 8206 6184 6185
3 6185 8207 8206
3 6726 6720 6688
3 6514 6184 8206
3 3518 8208 3602
3 3518 1899 7655
3 7655 8208 3518
3 4137 6194 6264
3 7735 7348 8209
3 8210 5579 2162
3 8209 7348 8026
3 2162 2164 8210
3 8095 8211 8034
3 8201 8205 6457
3 8034 8211 6369
3 8212 6373 5914
3 6724 6216 6674
3 8212 5911 6374
3 6374 6373 8212
3 5914 5911 8212
3 7500 7701 8110
3 6465 6548 6672
3 8110 6365 7500
3 7926 7351 6696
3 8110 7701 7541
3 6820 8181 8039
3 6696 6697 7926
3 7238 6122 6125
3 7238 7239 7313
3 6635 8181 6820
3 5836 6762 7992
3 6736 7285 8195
3 7480 6089 7479
3 6088 6090 7479
3 8195 6735 6736
3 7479 6089 6088
3 1768 7801 6669
3 3929 3928 7951
3 3929 6764 3997
3 7951 6764 3929
3 6512 8183 8176
3 8176 6468 6512
3 8176 8183 7535
3 7564 6103 8213
3 7603 5957 6088
3 6088 6069 7603
3 5622 6169 5623
3 6681 6682 5622
3 6233 6234 8213
3 6682 6169 5622
3 8213 6103 6233
3 8213 6234 7564
3 6659 7299 8152
3 8021 6501 8022
3 7981 7299 6659
3 8021 6408 8149
3 8149 6501 8021
3 7680 2807 2809
3 7143 2807 7680
3 5925 6762 5836
3 6317 6316 6163
3 6796 7160 6482
3 7805 8214 7806
3 6620 6282 7806
3 6704 6701 7759
3 7759 6701 7760
3 8188 5989 8187
3 8188 7582 8215
3 8030 8183 6650
3 8215 5989 8188
3 6650 8183 6568
3 7806 8214 6620
3 7992 5834 5836
3 6724 6674 6676
3 6204 7980 6646
3 6677 6723 6676
3 6777 6779 6783
3 6571 6573 7992
3 7467 7642 7804
3 6571 7951 6574
3 5591 5954 5973
3 7449 5903 5902
3 6643 6540 7968
3 5902 5906 7449
3 7451 5903 7449
3 6250 6249 6640
3 5650 8203 5651
3 723 5674 5651
3 5651 8203 723
3 5973 5589 5591
3 7671 5596 5597
3 5592 5954 5591
3 6362 6809 8039
3 5597 5386 7671
3 6364 6809 6362
3 8086 6165 5919
3 6592 6594 8032
3 8032 8033 6592
3 7485 7709 8012
3 4159 6500 6495
3 8012 7709 8098
3 8012 8197 7485
3 7992 6762 6764
3 6289 6197 7815
3 6903 8059 6904
3 6195 6197 6289
3 7085 8059 6903
3 7815 6283 6289
3 8108 8216 7724
3 6232 6029 7724
3 6628 7869 6523
3 7724 8216 6232
3 6277 6046 7887
3 6344 6278 7887
3 8173 7401 6624
3 7887 6278 6277
3 8217 8033 6836
3 6836 6829 8217
3 8203 6500 4159
3 7189 7434 7162
3 5919 5917 8086
3 7839 3184 5742
3 7162 7187 7189
3 7839 3186 3182
3 6217 5977 6219
3 7548 5916 7549
3 7548 6151 6153
3 6153 5916 7548
3 2255 7779 7459
3 7459 7779 6537
3 7971 7733 6618
3 7459 2260 2255
3 8179 8169 7628
3 7628 7796 8179
3 7955 8169 8179
3 3182 3184 7839
3 7890 7974 6614
3 6178 6149 6158
3 6158 6149 6163
3 6237 6520 8207
3 8207 6185 6237
3 6733 6405 6752
3 6629 6750 6752
3 6158 6160 6178
3 7380 6767 6768
3 6768 7160 7380
3 8130 6440 6445
3 7665 8189 8198
3 6273 8189 7665
3 724 723 8203
3 8198 1905 7665
3 4817 6678 7953
3 8130 7617 6608
3 7836 5723 7837
3 6726 6688 6609
3 5742 5723 7836
3 7773 8218 6276
3 6663 8218 7773
3 6276 1907 7773
3 8204 7801 8036
3 4957 5832 4962
3 4957 4956 6199
3 8036 8035 8204
3 6595 6314 6392
3 6199 5832 4957
3 7565 8219 4946
3 6445 7617 8130
3 8190 6581 7851
3 7507 6506 6507
3 6507 6466 7507
3 7768 8219 7565
3 5922 5885 7503
3 7823 7891 7484
3 7503 5920 5922
3 7419 7891 7823
3 6582 6581 8190
3 6588 7892 6641
3 8220 6534 6535
3 6580 6582 7826
3 5554 3928 3930
3 3997 5548 3930
3 7546 7584 7918
3 8220 6223 6226
3 6226 6534 8220
3 7764 6584 4809
3 4809 7807 7764
3 7440 7439 8221
3 7440 5881 6784
3 8221 5881 7440
3 6686 5876 6685
3 6772 6683 6685
3 6524 6108 6601
3 6575 6581 6580
3 7826 6626 6580
3 6178 6171 7594
3 7594 6171 7592
3 6725 6706 6195
3 6195 6723 6725
3 6726 6706 6725
3 7594 6147 6178
3 5592 5590 7533
3 6704 8031 6702
3 6744 6700 6702
3 7533 5590 6397
3 7533 5950 5592
3 7498 6801 6800
3 1866 7314 7345
3 6658 6123 6817
3 6802 8073 6800
3 6800 8073 7498
3 6817 6656 6658
3 7650 8162 7649
3 7962 6606 7649
3 6608 7617 6604
3 6364 6360 6604
3 7649 8162 7962
3 6675 6674 7267
3 6675 7239 6677
3 6810 6809 6364
3 6810 7617 6812
3 7454 7860 5627
3 4019 6168 4078
3 8005 6168 4019
3 6568 6530 6648
3 5627 7860 5631
3 5588 6019 6138
3 6648 6650 6568
3 6060 6062 6138
3 6535 6223 8220
3 6138 6062 5588
3 7780 5131 5128
3 5128 6173 7780
3 7611 6492 6748
3 8106 8081 7660
3 6668 6669 7804
3 6748 6061 7611
3 8106 6145 6150
3 6150 8081 8106
3 7826 6582 7828
3 5131 8222 6828
3 8215 8097 5988
3 5988 5989 8215
3 5988 8097 5495
3 4138 6356 722
3 722 6356 723
3 7128 6626 7141
3 7128 7127 8173
3 7597 7572 7777
3 7592 7572 7597
3 7701 7500 7702
3 6543 8108 1771
3 4163 7704 7702
3 6828 8222 7085
3 1898 7879 7811
3 3997 4353 5548
3 7702 7500 4163
3 2589 7879 1898
3 6245 6247 8001
3 7811 1899 1898
3 8153 6621 6620
3 6596 6471 6470
3 6473 6595 6470
3 7650 6588 6590
3 7951 3928 7858
3 7858 3928 7859
3 7188 6349 7209
3 7188 7187 8053
3 7858 7860 7951
3 6508 6037 7863
3 6005 6621 8153
3 6194 4137 5632
3 6742 7690 6329
3 6620 8020 8153
3 8127 8191 7576
3 6329 6740 6742
3 6189 6191 7455
3 7741 7458 7455
3 7717 8223 7754
3 6429 3850 7754
3 7754 8223 6429
3 6508 7877 6518
3 8224 5679 5872
3 7977 8191 8127
3 8186 6339 7901
3 8186 8209 8026
3 5680 5679 8224
3 7901 8209 8186
3 8010 8025 5731
3 7499 6152 4166
3 6129 7699 6130
3 6129 6131 7394
3 7414 7943 7135
3 7499 4163 7500
3 7420 7943 7414
3 7135 7415 7414
3 4166 4163 7499
3 6295 6770 6296
3 8225 6538 6518
3 8225 7877 6531
3 6531 6538 8225
3 6518 7877 8225
3 7734 8226 7732
3 7732 8226 8094
3 1768 6669 6424
3 8191 8227 7576
3 6528 6423 6424
3 6154 8227 8191
3 8126 7566 6082
3 8228 8204 8035
3 8035 7917 8228
3 7812 8204 8228
3 7146 7299 7981
3 8126 6755 7584
3 6082 6755 8126
3 7981 7144 7146
3 6698 7638 6498
3 7706 8229 7670
3 6498 7638 6513
3 7707 8229 7706
3 6522 6628 6523
3 6765 7376 6759
3 7615 2158 7616
3 7471 5994 6008
3 6008 5905 7471
3 7472 5994 7471
3 659 8003 7591
3 7828 6582 7591
3 8117 7699 7515
3 8036 6128 6127
3 6130 7699 8117
3 7515 7990 8117
3 6127 5986 8036
3 7256 6594 7254
3 7717 5762 8223
3 6427 6429 8223
3 6760 8029 6761
3 6760 6757 7386
3 7386 8029 6760
3 8223 5762 6427
3 4048 5950 7534
3 7899 7628 7898
3 6754 6084 6096
3 7796 7628 7899
3 8169 7630 7627
3 7534 6255 4048
3 6492 7611 7609
3 7627 7628 8169
3 6533 7560 6535
3 6533 1897 3602
3 7609 6493 6492
3 7674 7936 3083
3 6778 7978 7979
3 7674 6404 6403
3 6780 7978 6778
3 7979 6779 6778
3 6403 7936 7674
3 6096 6097 6754
3 7142 2363 2365
3 7142 7337 7135
3 7661 7617 6445
3 7609 5975 6493
3 7661 7663 6812
3 6812 7617 7661
3 5876 7743 8230
3 6772 6685 8230
3 6458 7848 6418
3 8230 6685 5876
3 6418 6459 6458
3 6487 7439 8061
3 5978 5980 6361
3 8221 7439 6487
3 6048 6636 6634
3 8231 6046 6277
3 6277 7653 8231
3 6634 6049 6048
3 7480 7892 8056
3 6514 8207 6519
3 6755 6084 6754
3 8056 8041 7480
3 6519 8207 6520
3 6342 8098 7708
3 6765 6767 7380
3 7708 8098 7709
3 8214 8019 8020
3 7708 6340 6342
3 7805 8019 8214
3 8020 6620 8214
3 5579 6031 5578
3 8232 3564 5859
3 7177 6774 6807
3 6807 7318 7177
3 7344 6395 8160
3 7967 6827 8006
3 7941 7940 8160
3 7966 6827 7967
3 8208 7655 6117
3 8208 6114 3602
3 8160 6395 7941
3 6117 6114 8208
3 6042 8209 7901
3 5547 6621 5545
3 8232 5856 3565
3 6619 6621 5547
3 6811 6827 7966
3 7735 8209 6042
3 7901 6046 6042
3 7966 6809 6811
3 6086 6085 5536
3 6086 6712 6104
3 6718 6723 6677
3 6718 6720 6726
3 6753 7584 6755
3 6753 6097 6557
3 6019 6221 6137
3 3565 3564 8232
3 8219 6612 4949
3 7769 8233 7772
3 5859 5856 8232
3 4949 4946 8219
3 7890 6614 6047
3 5596 7782 5594
3 7567 8233 7769
3 6047 6049 7890
3 8150 6502 6501
3 6501 8149 8150
3 6459 7760 8201
3 7686 6502 8150
3 8157 7641 8091
3 8157 7868 6292
3 7970 6044 7482
3 8091 7868 8157
3 7236 8151 7211
3 8152 7212 7211
3 7211 8151 8152
3 6266 6265 7693
3 7482 4196 7970
3 7693 6265 5652
3 6414 7476 8075
3 7731 8063 7734
3 7731 7733 6134
3 5628 6505 5626
3 6134 8063 7731
3 6413 7476 6414
3 5574 6637 7654
3 4160 8217 8133
3 7654 6637 6264
3 6451 7351 7236
3 8133 4161 4160
3 6583 6697 6499
3 8017 4811 7947
3 8017 6392 6314
3 8045 7980 5664
3 8234 7835 6263
3 8133 8217 6829
3 7559 7835 8234
3 6555 6757 6551
3 6761 6552 6551
3 6257 7367 6258
3 7782 5596 6657
3 6657 6656 7782
3 7852 8235 7850
3 7710 6044 6301
3 725 6712 5496
3 7339 4175 7850
3 7850 8235 7339
3 7516 5960 8084
3 7516 5765 6654
3 8084 5765 7516
3 7695 5896 7614
3 7614 5992 7695
3 7472 5896 7695
3 7846 6682 8236
3 5881 5864 5865
3 5866 6560 5865
3 8236 6330 7846
3 8080 6060 6137
3 6632 6819 7830
3 7830 6631 6632
3 7830 6819 6825
3 7981 6659 6645
3 6491 6409 6411
3 6386 6735 6411
3 6645 6646 7981
3 8187 8237 8156
3 6330 8236 8237
3 8156 8237 8155
3 8237 8236 8155
3 6307 6290 6279
3 8135 8230 7743
3 7743 5972 8135
3 6772 8230 8135
3 6405 6628 6627
3 6629 6752 6627
3 6306 6290 6307
3 6627 6752 6405
3 6448 1907 1906
3 6448 6450 6663
3 5554 7859 3928
3 6647 6660 6350
3 8222 5131 7781
3 8222 4102 7085
3 6350 6338 6647
3 7781 4102 8222
3 6350 6660 6352
3 8061 8147 8060
3 6137 6221 8080
3 8060 8147 6825
3 8152 6352 6660
3 8010 8012 8098
3 6341 6340 7675
3 6660 6659 8152
3 8238 7898 7626
3 7675 6343 6341
3 7626 7898 7628
3 7626 7623 8238
3 7898 8238 8054
3 8003 659 8054
3 8054 8238 8003
3 6301 6300 7710
3 6629 6602 6773
3 5737 5736 5924
3 8131 6164 6503
3 6773 6750 6629
3 6503 6502 8131
3 7939 7432 8102
3 7811 6164 8131
3 7372 7432 7939
3 6433 5982 5981
3 6121 5495 6722
3 8058 6300 6478
3 6711 6712 725
3 5981 7421 6433
3 6271 6382 6446
3 7570 6180 7573
3 7570 6182 6181
3 6181 6180 7570
3 6452 6451 7236
3 8187 6368 6442
3 6452 7210 6456
3 6123 5495 6121
3 7236 7210 6452
3 726 6450 7709
3 6642 6643 7968
3 6663 6450 726
3 6219 5977 5982
3 2876 3640 8239
3 3642 3293 8239
3 7924 8128 7365
3 8239 3640 3642
3 7925 8128 7924
3 7365 7361 7924
3 8239 3293 2876
3 7992 6573 5834
3 6684 6909 6686
3 6684 6683 6416
3 7804 7642 8240
3 5536 6668 8240
3 8125 5616 7477
3 8240 6668 7804
3 7477 6083 8125
3 6568 6511 6538
3 7477 5616 5618
3 6538 6511 6518
3 6385 6735 6386
3 8241 7524 7861
3 7740 6143 7741
3 7819 7847 7861
3 7861 7847 8241
3 6469 6767 6473
3 6469 6471 6769
3 6673 6360 5980
3 8144 8052 7974
3 6349 8052 8144
3 7974 7973 8144
3 6739 6735 8195
3 7917 5997 8242
3 7812 8228 8242
3 5835 5834 7143
3 8242 8228 7917
3 8101 8115 8093
3 8195 7367 6739
3 1818 8115 8101
3 8093 6371 8101
3 8087 8243 7435
3 6232 8216 8226
3 7727 8243 8087
3 8226 7734 6232
3 7747 8149 6408
3 8226 8216 8094
3 7845 7396 6472
3 7748 8149 7747
3 7845 3209 3211
3 3211 7396 7845
3 4945 7582 6679
3 8155 6678 6679
3 5882 5881 8221
3 5882 6493 5975
3 7749 7686 7656
3 8221 6493 5882
3 7498 7492 7786
3 7786 7492 6310
3 6623 7128 8173
3 6626 7128 6623
3 6342 6339 8023
3 8173 6624 6623
3 6368 8187 5989
3 8023 8025 6342
3 6476 6479 6769
3 6258 7337 6259
3 8185 6827 8171
3 6769 6471 6476
3 8185 5585 8006
3 6495 6500 7810
3 8006 6827 8185
3 7810 6500 6494
3 7751 8100 7752
3 7751 1813 6233
3 6233 8100 7751
3 7342 7337 6258
3 8187 6442 6441
3 8104 7348 7735
3 7735 6776 8104
3 7547 7348 8104
3 6665 7393 7394
3 6330 8237 6441
3 6666 7393 6665
3 7394 6131 6665
3 7532 8115 7531
3 1818 7524 7531
3 7531 8115 1818
3 6441 8237 8187
3 6792 7187 7162
3 5786 6593 3918
3 6791 7187 6792
3 6502 7686 7749
3 7656 7655 7749
3 3918 6593 3937
3 6409 7915 6186
3 3918 3920 5786
3 7255 7254 5351
3 6785 6209 6212
3 1893 7939 8161
3 5351 8057 7255
3 8102 6581 8161
3 8161 7939 8102
3 7945 6149 6148
3 7945 7947 4811
3 5870 4634 8172
3 6407 7947 7745
3 8172 4634 7349
3 8172 7687 5870
3 6785 6530 8123
3 1771 8108 8027
3 3940 6052 3941
3 8111 6235 8027
3 6329 7690 7976
3 7977 8180 7976
3 3940 3944 6050
3 7976 8180 6329
3 6390 6389 6399
3 6050 6052 3940
3 8027 8108 8111
3 6412 7941 6395
3 8168 7630 8169
3 8244 7700 7394
3 8244 7392 7683
3 7683 7700 8244
3 7634 8087 7435
3 6165 8087 7634
3 5586 8245 5588
3 7346 7348 7547
3 7485 8197 7476
3 6039 8245 5586
3 7476 8197 8075
3 7394 7392 8244
3 7828 7591 8076
3 8076 7591 8003
3 8076 6794 7828
3 7758 8184 7762
3 8146 6485 7668
3 7624 6268 6270
3 8148 6485 8146
3 7668 8082 8146
3 5632 6380 6194
3 8098 8025 8010
3 7685 7748 7679
3 8149 7748 7685
3 7746 7668 6485
3 7870 7586 7765
3 7918 661 660
3 7748 7746 6484
3 8072 7994 7995
3 6513 7637 7995
3 7745 7668 7746
3 7995 7637 8072
3 7478 7892 7480
3 5924 5866 5737
3 8205 8241 6460
3 8205 8201 7866
3 6402 7868 8113
3 8192 6437 7987
3 7987 7267 8192
3 8113 6403 6402
3 7483 7891 4198
3 8113 7868 8091
3 7484 7891 7483
3 4198 4196 7483
3 7727 8086 7722
3 5917 6438 7722
3 7722 8086 5917
3 6751 6750 7257
3 7578 7364 6777
3 7578 6559 6558
3 6558 7364 7578
3 7257 7432 6751
3 6670 7418 8120
3 7085 4102 8120
3 8016 5843 8137
3 8120 4102 6670
3 6271 6446 6272
3 7504 7682 5920
3 7504 7515 7699
3 3349 8043 8089
3 3086 6078 8089
3 8089 3085 3086
3 6589 6640 6591
3 6589 6588 6641
3 5610 6301 6298
3 7840 6378 7719
3 7719 6140 7840
3 8168 5631 7859
3 6489 6493 8221
3 8137 5843 6561
3 8137 7621 8016
3 8221 6487 6489
3 7407 7405 7755
3 8077 7763 7729
3 7729 6586 8077
3 6139 6140 7755
3 7755 7405 6139
3 7859 7630 8168
3 7571 8047 6182
3 6909 8047 7571
3 8229 5937 7670
3 8229 7707 5936
3 5936 5937 8229
3 6527 6415 6417
3 6416 6683 6417
3 7572 7592 7599
3 7599 7569 7572
3 6561 6316 6318
3 4812 6552 6318
3 8051 6026 8050
3 6018 6020 8050
3 8050 6026 6018
3 6419 6160 6159
3 6163 6422 6159
3 3350 3352 8112
3 7953 6678 6681
3 1893 6575 1868
3 6577 1866 1868
3 6159 6422 6419
3 7601 8246 8009
3 6698 6451 6453
3 8009 3732 7601
3 6786 8246 7601
3 6453 7638 6698
3 6192 6380 6271
3 8140 8217 5545
3 5545 7884 8140
3 8033 8217 8140
3 7843 6906 3411
3 7843 3517 3516
3 6228 6282 6619
3 8224 5872 6239
3 8224 6366 5680
3 3516 6906 7843
3 8123 6530 6532
3 6239 6366 8224
3 7918 7584 8247
3 7796 7899 8247
3 6531 7916 6532
3 8247 7899 7918
3 6238 8079 6221
3 6532 7916 8123
3 660 7546 7918
3 6221 8079 8080
3 6728 6550 6549
3 6701 6700 8201
3 8138 8068 7451
3 8138 6144 6327
3 7377 7434 7429
3 6465 6727 6549
3 2809 7656 7681
3 7429 7376 7377
3 7681 7656 7686
3 6325 6248 6250
3 8134 6207 5887
3 8134 5975 7609
3 7609 6207 8134
3 6548 8243 7723
3 6316 6422 6163
3 7723 8243 7727
3 7541 8041 7540
3 6607 5678 7540
3 7318 6807 8125
3 8125 6083 7318
3 8167 8169 7955
3 8167 5628 5631
3 7630 7859 7738
3 7955 5628 8167
3 5554 6268 7738
3 7738 7859 5554
3 7568 4018 6661
3 7568 7777 7572
3 8235 7980 8045
3 8177 7507 6466
3 6466 6468 8177
3 7535 7507 8177
3 8045 7339 8235
3 7827 6794 7141
3 7141 6626 7827
3 7828 6794 7827
3 7852 7980 8235
3 8088 5925 8148
3 8148 2257 8088
3 7989 5925 8088
3 8095 6320 6322
3 6322 6442 8095
3 7611 8080 7610
3 6205 6207 7610
3 8201 7760 6701
3 6482 6727 6729
3 7610 8080 6205
3 6204 6446 8174
3 8174 6446 6382
3 8174 7980 6204
3 6312 6310 7492
3 8248 2809 3511
3 8248 6117 7656
3 7656 2809 8248
3 3511 6117 8248
3 6170 8249 6173
3 6170 6160 6419
3 6419 8249 6170
3 6394 8250 6412
3 6495 8250 6394
3 6663 1760 8218
3 7985 6102 6100
3 6100 4815 7985
3 5498 6276 8218
3 7616 5992 7612
3 8218 1760 5498
3 7612 5992 7614
3 8251 4066 6947
3 6680 6678 8155
3 6680 8236 6682
3 8251 5941 5943
3 8155 8236 6680
3 5897 6584 8252
3 6266 5895 8252
3 8252 6584 6266
3 8252 5895 5897
3 5943 4066 8251
3 8011 5730 8197
3 6947 5941 8251
3 2454 7960 2450
3 8241 8205 7864
3 8211 6442 6368
3 6368 6369 8211
3 8095 6442 8211
3 8253 5658 7643
3 8253 7974 7890
3 7890 5658 8253
3 7643 7974 8253
3 7464 5997 6000
3 7451 6144 8138
3 7864 8205 7866
3 7864 7863 8241
3 7742 5896 7694
3 7614 5896 7742
3 1777 1770 6547
3 1777 6543 1771
3 8083 7962 8163
3 6789 6040 8163
3 7588 5984 2549
3 8163 6040 8083
3 2549 2551 7588
3 8243 6550 7435
3 6200 6706 6705
3 6548 6550 8243
3 6447 2365 7915
3 6447 6409 6491
3 6662 7846 6321
3 7915 6409 6447
3 6337 6282 6281
3 6337 6338 7805
3 6321 6333 6662
3 6321 7846 6330
3 8116 7990 7873
3 7705 5579 8210
3 6031 5579 7705
3 7873 8063 8116
3 7411 7421 8143
3 8210 7707 7705
3 8245 6019 5588
3 8143 7401 7411
3 6484 7746 6485
3 6483 8148 5925
3 8245 6039 6020
3 6485 8148 6483
3 6020 6019 8245
3 7648 6606 6607
3 6484 6787 7748
3 6250 6640 6639
3 6641 6740 6639
3 5962 5960 7517
3 8184 4161 6260
3 6654 6655 7517
3 8195 7285 6731
3 6512 6468 6022
3 6731 7285 6733
3 6731 6730 8195
3 6612 7770 6705
3 6022 6468 7532
3 6523 7869 8254
3 6402 6106 8254
3 7870 6397 5590
3 8254 7869 6402
3 5590 5589 7870
3 6705 7770 6200
3 8210 5674 8166
3 6055 2451 2450
3 8166 5674 6356
3 8166 7707 8210
3 2450 7960 6055
3 6155 6157 8227
3 8227 6154 6155
3 8227 6157 7576
3 8255 6107 6404
3 8159 5875 6686
3 6686 6909 8159
3 7573 5875 8159
3 8094 6543 6542
3 7635 8256 7632
3 7632 8256 6503
3 7670 5937 6247
3 3347 3349 6081
3 6432 6064 7991
3 3624 8112 3352
3 6081 6063 3347
3 6603 6360 6673
3 6603 6672 6608
3 6746 6757 6555
3 6746 6747 6759
3 8165 6355 5936
3 6542 6618 8094
3 6356 6355 8165
3 5936 7707 8165
3 6298 6294 5610
3 5961 6107 8255
3 6404 3085 8255
3 3350 8112 7259
3 8061 6643 6488
3 6556 6552 6761
3 6348 7308 8257
3 6488 6487 8061
3 7209 6349 8257
3 7866 6700 6716
3 6698 6498 6497
3 6716 6700 6744
3 6499 6697 6497
3 6813 7312 7141
3 7141 6794 6813
3 6817 7312 6813
3 7833 3776 7961
3 7961 7490 7833
3 5731 5730 8011
3 6728 6479 6486
3 7801 1768 1762
3 8170 6176 6175
3 6175 5585 8170
3 1762 6128 7801
3 5623 6168 7631
3 6904 6478 7631
3 6525 6415 6527
3 6525 6526 6104
3 6560 6559 7574
3 6784 5881 7574
3 7631 6478 5623
3 8257 7308 7209
3 8257 6349 6348
3 5902 5894 7470
3 7470 5905 5902
3 6475 6471 6596
3 6528 6085 6087
3 6003 6592 8141
3 8141 7884 6003
3 8141 6592 8033
3 6104 6526 6087
3 6249 6248 8158
3 6460 8241 7847
3 7819 6553 7847
3 7659 7660 7903
3 7659 7741 6143
3 8111 7725 8158
3 7903 7741 7659
3 8158 7725 6249
3 6540 8060 6814
3 6178 6160 6171
3 6814 8060 6825
3 6647 6201 6203
3 6204 6646 6203
3 6292 6563 6293
3 7470 5894 7472
3 6323 6740 6329
3 6323 6325 6250
3 5536 8240 5497
3 6463 6727 6465
3 5497 8240 7642
3 8258 8151 7365
3 7365 7577 8258
3 6352 8151 8258
3 8259 5871 8083
3 7770 8219 7768
3 8259 6039 6175
3 6612 8219 7770
3 6175 5871 8259
3 7834 6475 8022
3 8022 7635 7834
3 6477 6475 7834
3 8083 6039 8259
3 6763 6762 7989
3 7313 7239 7242
3 6763 4353 3997
3 7267 7987 7242
3 8085 8234 7270
3 6124 6121 6722
3 7559 8234 8085
3 6124 6720 6125
3 6320 6536 6333
3 6786 6041 6043
3 6046 8231 6043
3 6611 6706 6726
3 6043 8231 6786
3 8197 8012 8011
3 6726 6609 6611
3 6064 6432 5768
3 6240 7919 6241
3 6237 1770 1769
3 8203 4159 4158
3 4158 724 8203
3 6132 8116 8063
3 8063 6134 6132
3 6130 8116 6132
3 7635 8022 8256
3 6501 6503 8256
3 8256 8022 6501
3 6715 7877 7865
3 6463 6461 6462
3 7317 6082 7566
3 7566 7178 7317
3 7927 7985 7953
3 8026 7348 7347
3 7349 8024 7347
3 7927 6294 6102
3 7347 8024 8026
3 6722 5495 8097
3 8215 6690 8097
3 6102 7985 7927
3 7989 4353 6763
3 8171 6827 6826
3 8184 6260 6262
3 6262 7762 8184
3 6812 7663 6826
3 6687 6770 6527
3 7466 8242 5997
3 8154 6157 6006
3 7812 8242 7466
3 6826 7663 8171
3 6496 6498 6513
3 6006 6005 8154
3 8020 6157 8154
3 7410 7401 8173
3 7410 7987 6437
3 6687 6683 6772
3 8173 7987 7410
3 5645 8066 8065
3 6371 8092 8065
3 8181 6362 8039
3 8065 8092 5645
3 7820 6790 7821
3 6361 6362 8181
3 7821 6790 6591
3 6647 6338 6201
3 1761 1763 6309
3 4020 4078 6662
3 6297 5972 6802
3 6297 6801 6295
3 6261 6830 6263
3 6261 6260 6829
3 4020 6661 4018
3 6352 8258 8178
3 6662 6661 4020
3 6473 6767 6766
3 6041 6776 7735
3 6759 6747 6766
3 7577 8019 8178
3 7698 6188 7696
3 8178 8258 7577
3 7938 6188 7698
3 8129 6326 7922
3 8129 6191 6455
3 6455 6326 8129
3 6724 6283 6285
3 6285 6216 6724
3 6377 7406 8260
3 8260 6376 6377
3 8260 7406 7407
3 6523 8254 7691
3 6536 6320 7714
3 7714 6320 8095
3 7942 6475 6596
3 6106 6108 7691
3 7691 8254 6106
3 8053 6614 8052
3 8052 6614 7974
3 5387 5386 6368
3 3848 5998 3851
3 6241 6239 6240
3 6081 5998 3848
3 6368 5989 5387
3 6690 8215 7581
3 8022 6475 7942
3 8182 6274 6276
3 7581 7580 6690
3 7581 8215 7582
3 6266 6584 6267
3 5611 5622 5609
3 6276 5498 8182
3 8175 7346 7547
3 6622 6580 6626
3 6622 6624 6577
3 8091 7935 8114
3 7936 6403 8114
3 8114 7935 7936
3 6213 6211 7587
3 7587 6211 7588
3 7587 7586 6213
3 8175 7688 7687
3 7687 7346 8175
3 8238 5594 8002
3 6386 6651 6387
3 8002 5594 7782
3 8002 8003 8238
3 5663 5664 6382
3 6376 8260 7718
3 7718 6378 6376
3 7718 8260 7407
3 7848 6554 6418
3 5611 6294 7928
3 6553 6554 7848
3 8198 7929 7931
3 6263 6830 7957
3 7270 8234 7957
3 7934 1905 7931
3 7957 8234 6263
3 7931 1905 8198
3 8261 6717 6077
3 6062 6061 8007
3 8261 7877 6715
3 6311 6552 4812
3 6634 5662 6049
3 4157 4159 6495
3 1779 8262 7545
3 8241 7863 7523
3 6803 6602 7520
3 7523 7863 6037
3 7523 7524 8241
3 5254 6256 5340
3 5254 5256 6312
3 6803 8125 6807
3 6715 6717 8261
3 7772 7400 6707
3 6049 5662 7890
3 6707 7400 6709
3 6707 6708 7772
3 7796 8247 7585
3 8246 8231 7653
3 7653 8009 8246
3 6786 8231 8246
3 6077 7877 8261
3 7625 6270 5594
3 7585 8247 7584
3 7668 7745 7667
3 7625 8238 7623
3 7557 8085 8057
3 8057 7558 7557
3 7559 8085 7557
3 6759 7376 6756
3 7386 6757 6756
3 5594 8238 7625
3 1922 4544 4557
3 6586 7729 6587
3 8075 8047 6908
3 7938 7698 6331
3 6908 8047 6909
3 7667 7745 7947
3 8217 4160 5546
3 5546 5545 8217
3 5546 4160 5574
3 6331 7698 6332
3 7726 4545 7818
3 6553 7819 7818
3 7818 4545 6553
3 6744 7841 6714
3 3348 5959 8043
3 6714 7841 6717
3 8139 1765 8069
3 6587 7729 7728
3 3849 5757 7717
3 7178 7566 7545
3 8036 7801 6128
3 7756 6234 4150
3 7756 4148 6569
3 3851 5757 3849
3 4150 4148 7756
3 7991 6064 6063
3 5652 5674 2164
3 7545 8262 7178
3 7991 6429 6432
3 5632 724 6381
3 2164 5674 8210
3 4055 7941 7808
3 6381 6380 5632
3 5981 7956 7428
3 6412 7807 7808
3 7428 7956 7420
3 7428 7421 5981
3 7808 7941 6412
3 8030 6650 6649
3 6482 7160 6481
3 6769 6479 6481
3 5937 4161 7996
3 6212 6213 6649
3 7996 4161 8184
3 7757 6569 7567
3 6776 3734 3733
3 8262 8190 7851
3 3733 6358 6776
3 1779 8190 8262
3 5650 5652 6265
3 7757 7564 6234
3 7567 7564 7757
3 7851 7178 8262
3 6329 8180 6324
3 8077 6325 6324
3 6324 8180 8077
3 5961 8255 8090
3 7979 7439 6782
3 6327 1765 8139
3 8069 8068 8139
3 6782 6779 7979
3 6219 8192 6218
3 6290 6306 7653
3 7653 6277 6290
3 8198 8189 3084
3 6236 6586 6520
3 6673 6461 6464
3 3084 8189 3086
3 6520 6237 6236
3 3084 3083 8198
3 6569 6570 8233
3 8233 7567 6569
3 8233 6570 7772
3 8132 6135 5578
3 8132 5845 7963
3 5588 6062 5587
3 5578 5845 8132
3 8006 5585 5587
3 8162 6590 6789
3 5587 6062 8006
3 7650 6590 8162
3 6295 7789 6509
3 6425 6423 6528
3 8090 8255 3085
3 6218 8192 7267
3 8216 6543 8094
3 6085 6668 5536
3 8043 3349 3348
3 6528 6668 6085
3 8084 5959 6065
3 7928 5622 5611
3 8090 8043 5961
3 6065 5768 8084
3 5495 6123 5388
3 8108 6543 8216
3 8250 7810 7807
3 6465 6672 6464
3 7257 7179 8124
3 8102 7432 8124
3 6495 7810 8250
3 8124 7432 7257
3 7807 6412 8250
3 7805 6338 6351
3 6351 8019 7805
3 6390 6399 6401
3 6405 7285 6401
3 8249 6421 7780
3 7780 6173 8249
3 6419 6421 8249
3 7689 5958 6154
3 6509 6770 6295
POINT_DATA 8263
SCALARS UX float 1
LOOKUP_TABLE default
-0.000000
-0.000000
-0.000000
0.000000
0.000000
-0.000000
0.000000
0.000000
-0.000000
0.000000
0.000000
-0.000000
-0.000000
-0.000000
-0.000000
-0.000000
0.000000
0.000000
-0.000000
-0.000000
-0.000000
0.000000
0.000000
0.000000
-0.000000
-0.000000
0.000000
0.000000
-0.000000
-0.000000
0.000000
-0.000000
-0.000000
0.000000
0.000000
-0.000000
0.000000
0.000000
-0.000000
-0.000000
0.000000
-0.000000
-0.000000
-0.000000
0.000000
0.000000
0.000000
0.000000
0.000000
0.000000
0.000000
-0.000000
0.000000
-0.000000
-0.000000
0.000000
-0.000000
-0.000000
0.000000
0.000000
-0.000000
-0.000000
0.000000
0.000000
-0.000000
-0.000000
0.000000
0.000000
0.000000
-0.000000
-0.000000
-0.000000
-0.000000
0.000000
0.000000
0.000000
0.000000
-0.000000
-0.000000
-0.000000
-0.000000
0.000000
0.000000
0.000000
0.000000
-0.000000
-0.000000
-0.000000
-0.000000
-0.000000
0.000000
-0.000000
-0.000000
-0.000000
-0.000000
0.000000
0.000000
-0.000000
0.000000
-0.000000
-0.000000
0.000000
-0.000000
0.000000
0.000000
-0.000000
-0.000000
0.000000
0.000000
0.000000
0.000000
0.000000
0.000000
0.000000
-0.000000
-0.000000
-0.000000
0.000000
-0.000000
-0.000000
0.000000
0.000000
0.000000
-0.000000
0.000000
-0.000000
-0.000000
-0.000000
0.000000
0.000000
0.000000
-0.000000
0.000000
0.000000
0.000000
-0.000000
-0.000000
0.000000
0.000000
0.000000
-0.000000
0.000000
0.000000
-0.000000
-0.000000
-0.000000
0.000000
0.000000
-0.000000
-0.000000
0.000000
0.000000
-0.000000
-0.000000
-0.000000
-0.000000
-0.000000
0.000000
-0.000000
0.000000
0.000000
-0.000000
-0.000000
-0.000000
-0.000000
-0.000000
-0.000000
-0.000000
0.000000
0.000000
0.000000
0.000000
0.000000
0.000000
0.000000
0.000000
0.000000
0.000000
0.000000
0.000000
-0.000000
-0.000000
-0.000000
-0.000000
0.000000
0.000000
0.000000
-0.000000
0.000000
0.000000
-0.000000
-0.000000
0.000000
0.000000
-0.000000
-0.000000
0.000000
0.000000
-0.000000
-0.000000
-0.000000
-0.000000
0.000000
-0.000000
0.000000
-0.000000
0.000000
-0.000000
-0.000000
-0.000000
0.000000
0.000000
0.000000
-0.000000
0.000000
0.000000
-0.000000
-0.000000
-0.000000
0.000000
0.000000
0.000000
0.000000
-0.000000
-0.000000
-0.000000
-0.000000
-0.000000
-0.000000
-0.000000
-0.000000
-0.000000
-0.000000
0.000000
0.000000
0.000000
0.000000
0.000000
0.000000
0.000000
0.000000
0.000000
-0.000000
-0.000000
-0.000000
-0.000000
0.000000
0.000000
0.000000
-0.000000
-0.000000
0.000000
0.000000
0.000000
-0.000000
-0.000000
0.000000
0.000000
-0.000000
0.000000
0.000000
-0.000000
0.000000
0.000000
-0.000000
-0.000000
0.000000
0.000000
-0.000000
-0.000000
-0.000000
0.000000
0.000000
-0.000000
-0.000000
0.000000
0.000000
0.000000
-0.000000
0.000000
-0.000000
-0.000000
-0.000000
0.000000
0.000000
0.000000
-0.000000
0.000000
0.000000
0.000000
0.000000
-0.000000
-0.000000
0.000000
0.000000
0.000000
-0.000000
-0.000000
-0.000000
0.000000
0.000000
0.000000
-0.000000
-0.000000
-0.000000
0.000000
0.000000
0.000000
0.000000
0.000000
0.000000
0.000000
-0.000000
0.000000
0.000000
0.000000
-0.000000
-0.000000
0.000000
0.000000
-0.000000
-0.000000
-0.000000
-0.000000
0.000000
-0.000000
0.000000
0.000000
0.000000
0.000000
-0.000000
0.000000
0.000000
-0.000000
0.000000
-0.000000
-0.000000
0.000000
-0.000000
0.000000
-0.000000
0.000000
-0.000000
-0.000000
0.000000
0.000000
-0.000000
0.000000
-0.000000
-0.000000
0.000000
-0.000000
0.000000
0.000000
0.000000
0.000000
0.000000
-0.000000
0.000000
-0.000000
0.000000
0.000000
-0.000000
-0.000000
0.000000
0.000000
-0.000000
0.000000
-0.000000
-0.000000
-0.000000
-0.000000
0.000000
0.000000
0.000000
-0.000000
0.000000
-0.000000
0.000000
-0.000000
0.000000
-0.000000
0.000000
0.000000
-0.000000
-0.000000
0.000000
0.000000
0.000000
-0.000000
0.000000
0.000000
0.000000
-0.000000
-0.000000
-0.000000
0.000000
-0.000000
-0.000000
0.000000
-0.000000
0.000000
-0.000000
0.000000
0.000000
-0.000000
-0.000000
-0.000000
-0.000000
0.000000
-0.000000
-0.000000
0.000000
-0.000000
0.000000
-0.000000
-0.000000
0.000000
-0.000000
0.000000
0.000000
0.000000
-0.000000
-0.000000
-0.000000
-0.000000
-0.000000
0.000000
-0.000000
-0.000000
0.000000
0.000000
0.000000
-0.000000
-0.000000
-0.000000
-0.000000
0.000000
-0.000000
0.000000
0.000000
-0.000000
-0.000000
0.000000
0.000000
0.000000
-0.000000
-0.000000
-0.000000
0.000000
-0.000000
0.000000
0.000000
-0.000000
0.000000
-0.000000
0.000000
0.000000
0.000000
-0.000000
0.000000
-0.000000
0.000000
-0.000000
-0.000000
0.000000
0.000000
0.000000
0.000000
0.000000
-0.000000
0.000000
0.000000
-0.000000
-0.000000
-0.000000
-0.000000
-0.000000
0.000000
0.000000
0.000000
-0.000000
0.000000
-0.000000
-0.000000
-0.000000
0.000000
-0.000000
0.000000
0.000000
0.000000
-0.000000
-0.000000
0.000000
-0.000000
0.000000
0.000000
-0.000000
-0.000000
0.000000
0.000000
0.000000
-0.000000
0.000000
-0.000000
0.000000
-0.000000
0.000000
-0.000000
-0.000000
-0.000000
-0.000000
0.000000
-0.000000
-0.000000
0.000000
0.000000
-0.000000
-0.000000
0.000000
-0.000000
-0.000000
-0.000000
0.000000
0.000000
-0.000000
-0.000000
-0.000000
-0.000000
-0.000000
0.000000
0.000000
-0.000000
-0.000000
-0.000000
-0.000000
-0.000000
-0.000000
0.000000
-0.000000
-0.000000
-0.000000
-0.000000
0.000000
0.000000
0.000000
0.000000
0.000000
0.000000
0.000000
-0.000000
0.000000
0.000000
0.000000
-0.000000
0.000000
-0.000000
0.000000
-0.000000
-0.000000
-0.000000
0.000000
-0.000000
-0.000000
-0.000000
0.000000
-0.000000
-0.000000
-0.000000
-0.000000
-0.000000
0.000000
-0.000000
-0.000000
0.000000
0.000000
0.000000
0.000000
-0.000000
-0.000000
0.000000
-0.000000
-0.000000
-0.000000
-0.000000
-0.000000
0.000000
0.000000
-0.000000
0.000000
-0.000000
-0.000000
-0.000000
-0.000000
0.000000
0.000000
-0.000000
-0.000000
-0.000000
-0.000000
-0.000000
-0.000000
-0.000000
-0.000000
0.000000
0.000000
-0.000000
0.000000
-0.000000
-0.000000
-0.000000
-0.000000
-0.000000
-0.000000
-0.000000
0.000000
-0.000000
0.000000
-0.000000
0.000000
0.000000
-0.000000
-0.000000
-0.000000
0.000000
-0.000000
0.000000
-0.000000
0.000000
0.000000
0.000000
0.000000
-0.000000
0.000000
-0.000000
-0.000000
-0.000000
-0.000000
0.000000
0.000000
0.000000
0.000000
-0.000000
-0.000000
-0.000000
0.000000
-0.000000
-0.000000
0.000000
0.000000
0.000000
-0.000000
0.000000
-0.000000
0.000000
-0.000000
0.000000
0.000000
0.000000
0.000000
0.000000
0.000000
0.000000
0.000000
0.000000
-0.000000
0.000000
0.000000
0.000000
0.000000
-0.000000
0.000000
-0.000000
-0.000000
0.000000
-0.000000
-0.000000
0.000000
0.000000
-0.000000
0.000000
-0.000000
-0.000000
-0.000000
-0.000000
-0.000000
-0.000000
-0.000000
0.000000
0.000000
0.000000
0.000000
-0.000000
0.000000
0.000000
0.000000
0.000000
-0.000000
0.000000
-0.000000
0.000000
-0.000000
0.000000
-0.000000
0.000000
-0.000000
-0.000000
0.000000
0.000000
-0.000000
-0.000000
0.000000
-0.000000
-0.000000
-0.000000
0.000000
-0.000000
-0.000000
0.000000
0.000000
0.000000
0.000000
0.000000
-0.000000
-0.000000
0.000000
0.000000
-0.000000
0.000000
0.000000
0.000000
0.000000
0.000000
0.000000
-0.000000
-0.000000
-0.000000
0.000000
0.000000
-0.000000
-0.000000
-0.000000
0.000000
-0.000000
-0.000000
0.000000
0.000000
0.000000
-0.000000
-0.000000
0.000000
0.000000
0.000000
-0.000000
-0.000000
-0.000000
-0.000000
0.000000
-0.000000
0.000000
-0.000000
0.000000
0.000000
-0.000000
0.000000
-0.000000
-0.000000
-0.000000
-0.000000
-0.000000
0.000000
0.000000
0.000000
0.000000
-0.000000
0.000000
-0.000000
-0.000000
0.000000
0.000000
0.000000
0.000000
0.000000
-0.000000
-0.000000
0.000000
-0.000000
0.000000
-0.000000
-0.000000
0.000000
0.000000
0.000000
0.000000
0.000000
0.000000
-0.000000
0.000000
0.000000
0.000000
0.000000
0.000000
-0.000000
0.000000
-0.000000
0.000000
-0.000000
-0.000000
-0.000000
0.000000
0.000000
0.000000
-0.000000
0.000000
0.000000
0.000000
-0.000000
-0.000000
-0.000000
0.000000
0.000000
0.000000
0.000000
-0.000000
-0.000000
-0.000000
0.000000
0.000000
0.000000
0.000000
-0.000000
0.000000
0.000000
0.000000
0.000000
0.000000
0.000000
-0.000000
0.000000
-0.000000
-0.000000
-0.000000
0.000000
0.000000
-0.000000
0.000000
0.000000
0.000000
-0.000000
-0.000000
-0.000000
0.000000
0.000000
-0.000000
-0.000000
-0.000000
0.000000
0.000000
0.000000
-0.000000
0.000000
-0.000000
-0.000000
0.000000
-0.000000
0.000000
0.000000
0.000000
0.000000
-0.000000
0.000000
-0.000000
0.000000
0.000000
0.000000
0.000000
-0.000000
-0.000000
0.000000
0.000000
0.000000
0.000000
-0.000000
-0.000000
-0.000000
-0.000000
0.000000
-0.000000
-0.000000
0.000000
-0.000000
0.000000
-0.000000
0.000000
-0.000000
0.000000
-0.000000
-0.000000
0.000000
0.000000
0.000000
0.000000
-0.000000
-0.000000
0.000000
-0.000000
0.000000
0.000000
-0.000000
-0.000000
-0.000000
-0.000000
0.000000
-0.000000
-0.000000
-0.000000
-0.000000
0.000000
-0.000000
-0.000000
-0.000000
0.000000
0.000000
0.000000
-0.000000
-0.000000
-0.000000
0.000000
0.000000
-0.000000
-0.000000
-0.000000
-0.000000
0.000000
0.000000
-0.000000
-0.000000
0.000000
0.000000
0.000000
0.000000
-0.000000
-0.000000
0.000000
-0.000000
-0.000000
-0.000000
-0.000000
-0.000000
0.000000
0.000000
-0.000000
0.000000
0.000000
0.000000
-0.000000
0.000000
-0.000000
0.000000
0.000000
0.000000
0.000000
0.000000
-0.000000
0.000000
-0.000000
0.000000
0.000000
0.000000
0.000000
-0.000000
0.000000
-0.000000
0.000000
0.000000
0.000000
0.000000
0.000000
-0.000000
0.000000
0.000000
-0.000000
0.000000
-0.000000
0.000000
-0.000000
-0.000000
-0.000000
0.000000
0.000000
-0.000000
-0.000000
-0.000000
0.000000
0.000000
0.000000
0.000000
-0.000000
-0.000000
-0.000000
-0.000000
-0.000000
0.000000
-0.000000
-0.000000
0.000000
0.000000
0.000000
0.000000
0.000000
0.000000
-0.000000
0.000000
-0.000000
-0.000000
-0.000000
-0.000000
-0.000000
-0.000000
-0.000000
0.000000
-0.000000
0.000000
0.000000
-0.000000
0.000000
-0.000000
-0.000000
-0.000000
-0.000000
-0.000000
0.000000
-0.000000
0.000000
-0.000000
0.000000
0.000000
0.000000
-0.000000
-0.000000
0.000000
0.000000
-0.000000
-0.000000
0.000000
-0.000000
0.000000
0.000000
-0.000000
-0.000000
0.000000
-0.000000
-0.000000
-0.000000
-0.000000
0.000000
0.000000
0.000000
0.000000
0.000000
-0.000000
-0.000000
0.000000
0.000000
-0.000000
0.000000
-0.000000
-0.000000
0.000000
0.000000
-0.000000
-0.000000
0.000000
0.000000
0.000000
-0.000000
0.000000
0.000000
0.000000
0.000000
-0.000000
-0.000000
0.000000
-0.000000
0.000000
-0.000000
0.000000
0.000000
0.000000
0.000000
0.000000
0.000000
0.000000
0.000000
0.000000
0.000000
0.000000
0.000000
0.000000
-0.000000
0.000000
0.000000
0.000000
0.000000
-0.000000
-0.000000
-0.000000
0.000000
-0.000000
-0.000000
-0.000000
-0.000000
0.000000
-0.000000
-0.000000
-0.000000
-0.000000
-0.000000
0.000000
0.000000
-0.000000
-0.000000
-0.000000
0.000000
-0.000000
0.000000
0.000000
-0.000000
-0.000000
0.000000
0.000000
0.000000
-0.000000
-0.000000
0.000000
0.000000
-0.000000
-0.000000
-0.000000
-0.000000
0.000000
0.000000
0.000000
-0.000000
-0.000000
-0.000000
-0.000000
-0.000000
-0.000000
-0.000000
-0.000000
0.000000
0.000000
0.000000
0.000000
-0.000000
-0.000000
0.000000
0.000000
-0.000000
-0.000000
-0.000000
0.000000
0.000000
-0.000000
0.000000
-0.000000
-0.000000
-0.000000
-0.000000
-0.000000
0.000000
0.000000
0.000000
0.000000
-0.000000
-0.000000
-0.000000
0.000000
0.000000
-0.000000
0.000000
0.000000
0.000000
0.000000
0.000000
0.000000
0.000000
0.000000
0.000000
-0.000000
-0.000000
0.000000
0.000000
0.000000
-0.000000
0.000000
0.000000
-0.000000
-0.000000
0.000000
-0.000000
0.000000
0.000000
0.000000
0.000000
-0.000000
-0.000000
-0.000000
-0.000000
0.000000
-0.000000
0.000000
-0.000000
-0.000000
-0.000000
-0.000000
0.000000
-0.000000
-0.000000
0.000000
-0.000000
0.000000
-0.000000
-0.000000
-0.000000
-0.000000
-0.000000
-0.000000
-0.000000
-0.000000
-0.000000
0.000000
-0.000000
-0.000000
-0.000000
-0.000000
0.000000
0.000000
0.000000
-0.000000
-0.000000
-0.000000
-0.000000
0.000000
-0.000000
0.000000
-0.000000
0.000000
0.000000
-0.000000
0.000000
0.000000
0.000000
0.000000
-0.000000
-0.000000
0.000000
-0.000000
0.000000
0.000000
-0.000000
-0.000000
0.000000
0.000000
-0.000000
0.000000
0.000000
-0.000000
-0.000000
0.000000
0.000000
0.000000
0.000000
-0.000000
0.000000
-0.000000
0.000000
-0.000000
-0.000000
-0.000000
0.000000
-0.000000
-0.000000
-0.000000
-0.000000
0.000000
0.000000
0.000000
0.000000
-0.000000
0.000000
0.000000
0.000000
0.000000
0.000000
-0.000000
-0.000000
-0.000000
-0.000000
-0.000000
-0.000000
-0.000000
-0.000000
-0.000000
-0.000000
-0.000000
-0.000000
-0.000000
0.000000
-0.000000
0.000000
0.000000
0.000000
0.000000
0.000000
-0.000000
-0.000000
0.000000
0.000000
0.000000
0.000000
0.000000
-0.000000
-0.000000
-0.000000
-0.000000
0.000000
0.000000
0.000000
-0.000000
0.000000
0.000000
0.000000
-0.000000
-0.000000
-0.000000
-0.000000
0.000000
0.000000
0.000000
0.000000
0.000000
0.000000
-0.000000
-0.000000
0.000000
-0.000000
-0.000000
0.000000
0.000000
0.000000
0.000000
-0.000000
0.000000
-0.000000
0.000000
-0.000000
-0.000000
-0.000000
-0.000000
-0.000000
-0.000000
0.000000
-0.000000
-0.000000
-0.000000
0.000000
-0.000000
-0.000000
-0.000000
0.000000
0.000000
-0.000000
-0.000000
-0.000000
-0.000000
-0.000000
-0.000000
-0.000000
0.000000
0.000000
-0.000000
-0.000000
-0.000000
0.000000
0.000000
0.000000
0.000000
-0.000000
0.000000
-0.000000
-0.000000
-0.000000
-0.000000
0.000000
0.000000
0.000000
0.000000
0.000000
-0.000000
-0.000000
0.000000
0.000000
0.000000
-0.000000
-0.000000
0.000000
0.000000
0.000000
0.000000
-0.000000
-0.000000
-0.000000
-0.000000
-0.000000
0.000000
0.000000
0.000000
-0.000000
0.000000
0.000000
-0.000000
-0.000000
-0.000000
0.000000
0.000000
0.000000
0.000000
-0.000000
0.000000
0.000000
0.000000
0.000000
-0.000000
0.000000
-0.000000
0.000000
0.000000
0.000000
0.000000
0.000000
0.000000
0.000000
0.000000
0.000000
0.000000
0.000000
-0.000000
-0.000000
0.000000
0.000000
0.000000
0.000000
-0.000000
0.000000
-0.000000
0.000000
0.000000
-0.000000
0.000000
0.000000
-0.000000
0.000000
0.000000
0.000000
-0.000000
-0.000000
0.000000
0.000000
-0.000000
0.000000
-0.000000
0.000000
-0.000000
0.000000
0.000000
0.000000
0.000000
-0.000000
-0.000000
-0.000000
-0.000000
0.000000
-0.000000
-0.000000
0.000000
0.000000
-0.000000
-0.000000
0.000000
0.000000
0.000000
0.000000
0.000000
0.000000
0.000000
-0.000000
-0.000000
-0.000000
-0.000000
-0.000000
0.000000
-0.000000
0.000000
-0.000000
-0.000000
-0.000000
0.000000
0.000000
0.000000
0.000000
0.000000
0.000000
-0.000000
0.000000
0.000000
-0.000000
-0.000000
-0.000000
-0.000000
-0.000000
0.000000
-0.000000
-0.000000
0.000000
0.000000
0.000000
-0.000000
-0.000000
-0.000000
-0.000000
-0.000000
-0.000000
-0.000000
-0.000000
-0.000000
-0.000000
-0.000000
-0.000000
0.000000
0.000000
-0.000000
-0.000000
0.000000
-0.000000
0.000000
0.000000
-0.000000
0.000000
-0.000000
-0.000000
0.000000
0.000000
0.000000
-0.000000
-0.000000
-0.000000
0.000000
0.000000
0.000000
0.000000
-0.000000
-0.000000
0.000000
-0.000000
0.000000
0.000000
-0.000000
0.000000
0.000000
0.000000
-0.000000
-0.000000
-0.000000
0.000000
-0.000000
-0.000000
0.000000
-0.000000
-0.000000
-0.000000
-0.000000
0.000000
0.000000
0.000000
-0.000000
0.000000
-0.000000
0.000000
-0.000000
-0.000000
0.000000
0.000000
0.000000
-0.000000
0.000000
0.000000
0.000000
0.000000
0.000000
-0.000000
0.000000
-0.000000
0.000000
-0.000000
0.000000
-0.000000
0.000000
-0.000000
-0.000000
0.000000
0.000000
0.000000
-0.000000
-0.000000
0.000000
-0.000000
-0.000000
0.000000
-0.000000
-0.000000
-0.000000
-0.000000
-0.000000
0.000000
0.000000
0.000000
-0.000000
0.000000
-0.000000
0.000000
0.000000
-0.000000
0.000000
-0.000000
0.000000
0.000000
0.000000
0.000000
-0.000000
-0.000000
0.000000
0.000000
0.000000
0.000000
0.000000
-0.000000
0.000000
0.000000
0.000000
-0.000000
-0.000000
-0.000000
-0.000000
-0.000000
-0.000000
-0.000000
-0.000000
0.000000
-0.000000
0.000000
-0.000000
0.000000
-0.000000
0.000000
0.000000
0.000000
0.000000
0.000000
0.000000
0.000000
-0.000000
-0.000000
-0.000000
-0.000000
0.000000
-0.000000
-0.000000
0.000000
-0.000000
-0.000000
-0.000000
0.000000
0.000000
0.000000
0.000000
0.000000
0.000000
0.000000
-0.000000
-0.000000
0.000000
-0.000000
-0.000000
0.000000
0.000000
-0.000000
-0.000000
0.000000
0.000000
0.000000
-0.000000
-0.000000
-0.000000
0.000000
0.000000
-0.000000
-0.000000
-0.000000
-0.000000
0.000000
0.000000
0.000000
-0.000000
0.000000
0.000000
0.000000
-0.000000
-0.000000
0.000000
-0.000000
0.000000
0.000000
-0.000000
-0.000000
0.000000
-0.000000
-0.000000
-0.000000
0.000000
-0.000000
0.000000
0.000000
0.000000
-0.000000
-0.000000
-0.000000
0.000000
0.000000
-0.000000
-0.000000
-0.000000
-0.000000
-0.000000
-0.000000
0.000000
0.000000
-0.000000
-0.000000
-0.000000
-0.000000
-0.000000
0.000000
-0.000000
-0.000000
-0.000000
-0.000000
-0.000000
-0.000000
-0.000000
-0.000000
-0.000000
-0.000000
0.000000
-0.000000
0.000000
0.000000
0.000000
0.000000
0.000000
0.000000
0.000000
-0.000000
0.000000
0.000000
0.000000
-0.000000
0.000000
0.000000
-0.000000
-0.000000
-0.000000
-0.000000
-0.000000
0.000000
0.000000
0.000000
0.000000
-0.000000
-0.000000
0.000000
0.000000
0.000000
0.000000
-0.000000
-0.000000
-0.000000
0.000000
-0.000000
0.000000
-0.000000
-0.000000
0.000000
0.000000
-0.000000
0.000000
0.000000
-0.000000
-0.000000
0.000000
0.000000
0.000000
-0.000000
0.000000
0.000000
0.000000
0.000000
0.000000
0.000000
-0.000000
0.000000
-0.000000
0.000000
0.000000
0.000000
-0.000000
-0.000000
-0.000000
-0.000000
-0.000000
0.000000
-0.000000
0.000000
-0.000000
0.000000
0.000000
0.000000
0.000000
0.000000
-0.000000
0.000000
0.000000
0.000000
-0.000000
0.000000
0.000000
0.000000
0.000000
0.000000
0.000000
0.000000
-0.000000
-0.000000
-0.000000
0.000000
-0.000000
0.000000
0.000000
0.000000
-0.000000
-0.000000
-0.000000
-0.000000
-0.000000
-0.000000
0.000000
0.000000
0.000000
-0.000000
0.000000
0.000000
-0.000000
0.000000
0.000000
-0.000000
0.000000
-0.000000
0.000000
0.000000
-0.000000
0.000000
-0.000000
-0.000000
-0.000000
0.000000
0.000000
0.000000
0.000000
0.000000
0.000000
-0.000000
0.000000
0.000000
0.000000
-0.000000
0.000000
-0.000000
-0.000000
-0.000000
-0.000000
-0.000000
0.000000
0.000000
-0.000000
-0.000000
-0.000000
-0.000000
0.000000
0.000000
0.000000
0.000000
-0.000000
-0.000000
-0.000000
-0.000000
-0.000000
-0.000000
0.000000
0.000000
0.000000
0.000000
-0.000000
-0.000000
-0.000000
0.000000
0.000000
-0.000000
0.000000
-0.000000
0.000000
0.000000
-0.000000
-0.000000
0.000000
0.000000
0.000000
0.000000
-0.000000
-0.000000
0.000000
0.000000
0.000000
-0.000000
0.000000
-0.000000
-0.000000
-0.000000
0.000000
-0.000000
-0.000000
-0.000000
0.000000
0.000000
-0.000000
0.000000
0.000000
-0.000000
0.000000
-0.000000
0.000000
0.000000
-0.000000
-0.000000
0.000000
-0.000000
0.000000
-0.000000
0.000000
-0.000000
-0.000000
0.000000
0.000000
0.000000
-0.000000
0.000000
0.000000
-0.000000
0.000000
-0.000000
-0.000000
-0.000000
0.000000
0.000000
-0.000000
-0.000000
-0.000000
-0.000000
0.000000
-0.000000
0.000000
-0.000000
-0.000000
0.000000
-0.000000
0.000000
-0.000000
0.000000
0.000000
-0.000000
-0.000000
0.000000
-0.000000
0.000000
-0.000000
0.000000
-0.000000
-0.000000
0.000000
-0.000000
0.000000
0.000000
-0.000000
-0.000000
0.000000
0.000000
-0.000000
0.000000
0.000000
0.000000
-0.000000
-0.000000
-0.000000
-0.000000
-0.000000
0.000000
-0.000000
-0.000000
0.000000
0.000000
-0.000000
-0.000000
-0.000000
0.000000
-0.000000
-0.000000
0.000000
0.000000
-0.000000
0.000000
0.000000
-0.000000
0.000000
-0.000000
-0.000000
-0.000000
0.000000
0.000000
-0.000000
0.000000
0.000000
0.000000
0.000000
-0.000000
0.000000
0.000000
0.000000
-0.000000
0.000000
0.000000
-0.000000
0.000000
0.000000
-0.000000
-0.000000
-0.000000
0.000000
0.000000
0.000000
0.000000
0.000000
-0.000000
-0.000000
-0.000000
0.000000
0.000000
-0.000000
-0.000000
-0.000000
0.000000
0.000000
-0.000000
-0.000000
0.000000
0.000000
-0.000000
-0.000000
-0.000000
-0.000000
-0.000000
-0.000000
-0.000000
0.000000
0.000000
-0.000000
-0.000000
-0.000000
-0.000000
0.000000
-0.000000
-0.000000
-0.000000
0.000000
0.000000
-0.000000
0.000000
-0.000000
-0.000000
0.000000
0.000000
0.000000
0.000000
0.000000
0.000000
-0.000000
-0.000000
0.000000
0.000000
-0.000000
0.000000
-0.000000
0.000000
0.000000
0.000000
-0.000000
-0.000000
0.000000
0.000000
0.000000
-0.000000
-0.000000
0.000000
0.000000
-0.000000
0.000000
-0.000000
-0.000000
0.000000
0.000000
0.000000
0.000000
0.000000
0.000000
0.000000
0.000000
0.000000
-0.000000
0.000000
-0.000000
0.000000
0.000000
-0.000000
0.000000
-0.000000
0.000000
0.000000
0.000000
0.000000
0.000000
0.000000
0.000000
0.000000
-0.000000
0.000000
-0.000000
0.000000
0.000000
0.000000
0.000000
0.000000
0.000000
0.000000
0.000000
-0.000000
0.000000
0.000000
0.000000
-0.000000
0.000000
0.000000
-0.000000
-0.000000
-0.000000
-0.000000
-0.000000
0.000000
0.000000
-0.000000
-0.000000
-0.000000
-0.000000
0.000000
0.000000
0.000000
0.000000
-0.000000
-0.000000
0.000000
0.000000
0.000000
0.000000
0.000000
-0.000000
-0.000000
-0.000000
-0.000000
-0.000000
-0.000000
-0.000000
-0.000000
0.000000
-0.000000
0.000000
0.000000
0.000000
-0.000000
-0.000000
-0.000000
0.000000
0.000000
0.000000
0.000000
0.000000
0.000000
0.000000
-0.000000
-0.000000
-0.000000
0.000000
-0.000000
0.000000
-0.000000
0.000000
0.000000
0.000000
0.000000
0.000000
-0.000000
-0.000000
-0.000000
0.000000
0.000000
0.000000
-0.000000
-0.000000
-0.000000
-0.000000
-0.000000
0.000000
-0.000000
-0.000000
-0.000000
-0.000000
-0.000000
0.000000
0.000000
0.000000
0.000000
0.000000
-0.000000
-0.000000
-0.000000
-0.000000
0.000000
-0.000000
-0.000000
-0.000000
0.000000
0.000000
0.000000
0.000000
-0.000000
-0.000000
0.000000
0.000000
0.000000
-0.000000
-0.000000
0.000000
0.000000
0.000000
-0.000000
-0.000000
-0.000000
0.000000
-0.000000
0.000000
-0.000000
-0.000000
0.000000
0.000000
-0.000000
0.000000
0.000000
0.000000
0.000000
0.000000
-0.000000
0.000000
0.000000
0.000000
0.000000
0.000000
0.000000
-0.000000
-0.000000
-0.000000
-0.000000
0.000000
-0.000000
0.000000
0.000000
-0.000000
0.000000
0.000000
-0.000000
0.000000
-0.000000
0.000000
-0.000000
0.000000
0.000000
0.000000
-0.000000
-0.000000
0.000000
0.000000
0.000000
-0.000000
-0.000000
0.000000
-0.000000
-0.000000
-0.000000
0.000000
0.000000
-0.000000
-0.000000
0.000000
0.000000
0.000000
0.000000
-0.000000
-0.000000
0.000000
0.000000
0.000000
-0.000000
0.000000
0.000000
0.000000
-0.000000
-0.000000
0.000000
0.000000
0.000000
-0.000000
0.000000
-0.000000
0.000000
-0.000000
0.000000
-0.000000
0.000000
0.000000
-0.000000
0.000000
-0.000000
-0.000000
-0.000000
-0.000000
-0.000000
-0.000000
-0.000000
-0.000000
-0.000000
-0.000000
-0.000000
0.000000
-0.000000
0.000000
0.000000
0.000000
0.000000
-0.000000
-0.000000
0.000000
0.000000
-0.000000
0.000000
-0.000000
0.000000
0.000000
0.000000
-0.000000
0.000000
-0.000000
-0.000000
-0.000000
0.000000
0.000000
0.000000
0.000000
-0.000000
-0.000000
0.000000
-0.000000
-0.000000
0.000000
0.000000
0.000000
0.000000
-0.000000
0.000000
0.000000
-0.000000
-0.000000
-0.000000
-0.000000
0.000000
0.000000
-0.000000
-0.000000
-0.000000
-0.000000
-0.000000
0.000000
0.000000
-0.000000
0.000000
-0.000000
0.000000
0.000000
-0.000000
-0.000000
-0.000000
-0.000000
-0.000000
-0.000000
0.000000
-0.000000
-0.000000
-0.000000
-0.000000
-0.000000
-0.000000
0.000000
0.000000
-0.000000
-0.000000
-0.000000
-0.000000
-0.000000
-0.000000
-0.000000
0.000000
0.000000
-0.000000
0.000000
0.000000
-0.000000
0.000000
0.000000
0.000000
0.000000
0.000000
-0.000000
0.000000
0.000000
-0.000000
-0.000000
0.000000
0.000000
-0.000000
0.000000
-0.000000
0.000000
0.000000
0.000000
0.000000
-0.000000
-0.000000
-0.000000
-0.000000
0.000000
-0.000000
-0.000000
-0.000000
-0.000000
-0.000000
-0.000000
-0.000000
0.000000
0.000000
0.000000
0.000000
0.000000
-0.000000
-0.000000
-0.000000
0.000000
-0.000000
-0.000000
0.000000
0.000000
-0.000000
-0.000000
-0.000000
-0.000000
-0.000000
-0.000000
0.000000
0.000000
-0.000000
0.000000
0.000000
-0.000000
0.000000
-0.000000
0.000000
0.000000
-0.000000
-0.000000
0.000000
-0.000000
0.000000
0.000000
0.000000
-0.000000
-0.000000
0.000000
-0.000000
0.000000
-0.000000
-0.000000
0.000000
-0.000000
-0.000000
-0.000000
0.000000
0.000000
0.000000
-0.000000
0.000000
0.000000
-0.000000
0.000000
0.000000
0.000000
-0.000000
-0.000000
0.000000
-0.000000
0.000000
0.000000
0.000000
-0.000000
-0.000000
0.000000
-0.000000
0.000000
-0.000000
-0.000000
-0.000000
0.000000
-0.000000
0.000000
0.000000
-0.000000
0.000000
0.000000
-0.000000
-0.000000
-0.000000
-0.000000
0.000000
-0.000000
0.000000
-0.000000
0.000000
0.000000
-0.000000
-0.000000
-0.000000
0.000000
-0.000000
0.000000
-0.000000
-0.000000
-0.000000
0.000000
0.000000
-0.000000
-0.000000
-0.000000
0.000000
0.000000
-0.000000
0.000000
0.000000
0.000000
0.000000
-0.000000
-0.000000
-0.000000
-0.000000
0.000000
0.000000
0.000000
-0.000000
-0.000000
0.000000
0.000000
0.000000
0.000000
0.000000
0.000000
0.000000
0.000000
0.000000
0.000000
-0.000000
0.000000
0.000000
0.000000
0.000000
-0.000000
-0.000000
0.000000
-0.000000
0.000000
0.000000
0.000000
0.000000
0.000000
-0.000000
-0.000000
0.000000
-0.000000
0.000000
0.000000
-0.000000
0.000000
0.000000
-0.000000
0.000000
0.000000
0.000000
-0.000000
-0.000000
-0.000000
-0.000000
-0.000000
0.000000
-0.000000
-0.000000
-0.000000
-0.000000
0.000000
0.000000
0.000000
0.000000
-0.000000
0.000000
-0.000000
-0.000000
0.000000
-0.000000
0.000000
-0.000000
-0.000000
-0.000000
0.000000
0.000000
0.000000
0.000000
0.000000
0.000000
-0.000000
0.000000
0.000000
0.000000
0.000000
-0.000000
0.000000
0.000000
0.000000
-0.000000
-0.000000
-0.000000
0.000000
-0.000000
0.000000
-0.000000
-0.000000
-0.000000
0.000000
0.000000
0.000000
-0.000000
0.000000
0.000000
-0.000000
-0.000000
0.000000
0.000000
-0.000000
0.000000
-0.000000
-0.000000
0.000000
-0.000000
-0.000000
-0.000000
0.000000
0.000000
-0.000000
-0.000000
-0.000000
0.000000
-0.000000
-0.000000
0.000000
-0.000000
0.000000
0.000000
-0.000000
0.000000
-0.000000
-0.000000
-0.000000
0.000000
0.000000
-0.000000
-0.000000
-0.000000
0.000000
0.000000
0.000000
0.000000
-0.000000
-0.000000
-0.000000
0.000000
0.000000
0.000000
0.000000
0.000000
0.000000
-0.000000
0.000000
-0.000000
-0.000000
-0.000000
-0.000000
0.000000
-0.000000
-0.000000
0.000000
0.000000
0.000000
-0.000000
-0.000000
0.000000
-0.000000
-0.000000
-0.000000
-0.000000
-0.000000
-0.000000
0.000000
0.000000
-0.000000
0.000000
0.000000
0.000000
-0.000000
0.000000
0.000000
0.000000
-0.000000
0.000000
0.000000
-0.000000
0.000000
0.000000
-0.000000
-0.000000
-0.000000
-0.000000
-0.000000
0.000000
0.000000
0.000000
-0.000000
-0.000000
-0.000000
0.000000
0.000000
0.000000
-0.000000
-0.000000
-0.000000
-0.000000
-0.000000
-0.000000
-0.000000
-0.000000
-0.000000
-0.000000
0.000000
-0.000000
0.000000
-0.000000
-0.000000
-0.000000
-0.000000
0.000000
0.000000
0.000000
-0.000000
0.000000
-0.000000
-0.000000
-0.000000
0.000000
-0.000000
0.000000
0.000000
-0.000000
0.000000
-0.000000
0.000000
-0.000000
-0.000000
-0.000000
0.000000
0.000000
-0.000000
0.000000
-0.000000
-0.000000
-0.000000
-0.000000
0.000000
0.000000
0.000000
-0.000000
-0.000000
-0.000000
0.000000
-0.000000
0.000000
-0.000000
0.000000
-0.000000
0.000000
0.000000
-0.000000
-0.000000
-0.000000
0.000000
0.000000
-0.000000
0.000000
-0.000000
-0.000000
-0.000000
-0.000000
-0.000000
-0.000000
-0.000000
-0.000000
-0.000000
0.000000
-0.000000
-0.000000
0.000000
-0.000000
-0.000000
-0.000000
-0.000000
-0.000000
-0.000000
0.000000
0.000000
-0.000000
-0.000000
0.000000
-0.000000
-0.000000
0.000000
0.000000
0.000000
-0.000000
0.000000
0.000000
-0.000000
-0.000000
-0.000000
0.000000
0.000000
0.000000
-0.000000
0.000000
-0.000000
-0.000000
0.000000
-0.000000
0.000000
-0.000000
-0.000000
-0.000000
0.000000
0.000000
0.000000
0.000000
-0.000000
0.000000
-0.000000
-0.000000
-0.000000
-0.000000
0.000000
-0.000000
-0.000000
0.000000
-0.000000
0.000000
0.000000
0.000000
-0.000000
-0.000000
-0.000000
0.000000
-0.000000
0.000000
-0.000000
-0.000000
-0.000000
0.000000
0.000000
0.000000
-0.000000
-0.000000
-0.000000
0.000000
0.000000
0.000000
-0.000000
-0.000000
-0.000000
-0.000000
0.000000
-0.000000
0.000000
0.000000
0.000000
0.000000
0.000000
0.000000
0.000000
0.000000
-0.000000
0.000000
0.000000
0.000000
-0.000000
-0.000000
-0.000000
-0.000000
-0.000000
-0.000000
0.000000
0.000000
-0.000000
0.000000
-0.000000
-0.000000
-0.000000
-0.000000
0.000000
-0.000000
0.000000
-0.000000
-0.000000
0.000000
0.000000
-0.000000
0.000000
0.000000
0.000000
0.000000
0.000000
0.000000
-0.000000
-0.000000
0.000000
0.000000
-0.000000
0.000000
-0.000000
-0.000000
0.000000
0.000000
0.000000
0.000000
0.000000
0.000000
-0.000000
-0.000000
0.000000
0.000000
0.000000
0.000000
-0.000000
-0.000000
-0.000000
-0.000000
-0.000000
-0.000000
-0.000000
0.000000
-0.000000
-0.000000
0.000000
-0.000000
0.000000
0.000000
-0.000000
-0.000000
0.000000
-0.000000
0.000000
-0.000000
0.000000
0.000000
0.000000
-0.000000
0.000000
0.000000
0.000000
0.000000
0.000000
0.000000
0.000000
0.000000
0.000000
-0.000000
0.000000
-0.000000
-0.000000
0.000000
0.000000
0.000000
-0.000000
0.000000
0.000000
-0.000000
0.000000
0.000000
-0.000000
-0.000000
0.000000
-0.000000
-0.000000
0.000000
0.000000
0.000000
-0.000000
-0.000000
0.000000
-0.000000
-0.000000
-0.000000
-0.000000
0.000000
0.000000
-0.000000
0.000000
-0.000000
-0.000000
-0.000000
-0.000000
0.000000
-0.000000
0.000000
-0.000000
-0.000000
0.000000
0.000000
0.000000
0.000000
0.000000
0.000000
0.000000
-0.000000
-0.000000
0.000000
-0.000000
-0.000000
-0.000000
0.000000
-0.000000
0.000000
-0.000000
0.000000
-0.000000
0.000000
-0.000000
-0.000000
0.000000
0.000000
0.000000
0.000000
0.000000
0.000000
-0.000000
-0.000000
0.000000
-0.000000
0.000000
-0.000000
-0.000000
-0.000000
-0.000000
-0.000000
-0.000000
0.000000
0.000000
0.000000
-0.000000
-0.000000
0.000000
0.000000
-0.000000
-0.000000
0.000000
0.000000
-0.000000
0.000000
0.000000
-0.000000
0.000000
-0.000000
0.000000
0.000000
0.000000
-0.000000
-0.000000
0.000000
-0.000000
-0.000000
0.000000
0.000000
0.000000
-0.000000
0.000000
0.000000
-0.000000
-0.000000
0.000000
0.000000
0.000000
0.000000
-0.000000
-0.000000
-0.000000
-0.000000
-0.000000
-0.000000
-0.000000
-0.000000
-0.000000
-0.000000
-0.000000
0.000000
-0.000000
0.000000
0.000000
0.000000
0.000000
0.000000
0.000000
0.000000
-0.000000
0.000000
0.000000
0.000000
0.000000
-0.000000
-0.000000
-0.000000
-0.000000
-0.000000
0.000000
0.000000
0.000000
0.000000
-0.000000
-0.000000
0.000000
-0.000000
-0.000000
-0.000000
-0.000000
0.000000
0.000000
0.000000
-0.000000
0.000000
0.000000
0.000000
-0.000000
-0.000000
0.000000
-0.000000
-0.000000
-0.000000
-0.000000
-0.000000
-0.000000
-0.000000
0.000000
0.000000
-0.000000
-0.000000
-0.000000
-0.000000
0.000000
0.000000
0.000000
-0.000000
-0.000000
-0.000000
0.000000
-0.000000
-0.000000
0.000000
-0.000000
0.000000
0.000000
0.000000
-0.000000
-0.000000
-0.000000
-0.000000
-0.000000
-0.000000
-0.000000
-0.000000
-0.000000
0.000000
0.000000
0.000000
-0.000000
-0.000000
-0.000000
0.000000
-0.000000
0.000000
-0.000000
0.000000
0.000000
0.000000
0.000000
-0.000000
0.000000
0.000000
0.000000
-0.000000
0.000000
-0.000000
-0.000000
-0.000000
-0.000000
-0.000000
-0.000000
-0.000000
0.000000
0.000000
-0.000000
0.000000
0.000000
0.000000
0.000000
-0.000000
0.000000
0.000000
-0.000000
0.000000
-0.000000
0.000000
-0.000000
0.000000
0.000000
0.000000
-0.000000
0.000000
0.000000
-0.000000
-0.000000
-0.000000
-0.000000
-0.000000
-0.000000
0.000000
-0.000000
-0.000000
0.000000
0.000000
0.000000
-0.000000
-0.000000
0.000000
-0.000000
-0.000000
0.000000
0.000000
-0.000000
-0.000000
-0.000000
-0.000000
-0.000000
-0.000000
-0.000000
0.000000
0.000000
0.000000
0.000000
-0.000000
0.000000
0.000000
0.000000
-0.000000
-0.000000
-0.000000
-0.000000
-0.000000
0.000000
0.000000
0.000000
-0.000000
-0.000000
0.000000
-0.000000
-0.000000
0.000000
-0.000000
-0.000000
-0.000000
-0.000000
-0.000000
0.000000
0.000000
0.000000
-0.000000
0.000000
-0.000000
0.000000
-0.000000
-0.000000
-0.000000
-0.000000
-0.000000
-0.000000
-0.000000
0.000000
0.000000
-0.000000
-0.000000
-0.000000
0.000000
0.000000
0.000000
-0.000000
0.000000
-0.000000
-0.000000
0.000000
-0.000000
0.000000
-0.000000
0.000000
0.000000
-0.000000
0.000000
0.000000
0.000000
0.000000
0.000000
0.000000
-0.000000
-0.000000
0.000000
-0.000000
-0.000000
0.000000
-0.000000
0.000000
0.000000
0.000000
-0.000000
0.000000
-0.000000
0.000000
-0.000000
-0.000000
-0.000000
-0.000000
0.000000
0.000000
0.000000
0.000000
0.000000
-0.000000
0.000000
0.000000
-0.000000
-0.000000
-0.000000
-0.000000
-0.000000
-0.000000
-0.000000
-0.000000
-0.000000
-0.000000
-0.000000
-0.000000
-0.000000
-0.000000
-0.000000
0.000000
0.000000
-0.000000
0.000000
-0.000000
-0.000000
0.000000
-0.000000
0.000000
-0.000000
-0.000000
-0.000000
0.000000
0.000000
-0.000000
-0.000000
-0.000000
-0.000000
-0.000000
0.000000
0.000000
-0.000000
-0.000000
0.000000
-0.000000
-0.000000
0.000000
0.000000
0.000000
0.000000
0.000000
-0.000000
-0.000000
-0.000000
-0.000000
0.000000
0.000000
0.000000
0.000000
-0.000000
-0.000000
0.000000
-0.000000
0.000000
0.000000
0.000000
-0.000000
0.000000
-0.000000
-0.000000
-0.000000
0.000000
0.000000
-0.000000
0.000000
0.000000
0.000000
0.000000
0.000000
-0.000000
-0.000000
0.000000
-0.000000
0.000000
-0.000000
0.000000
0.000000
-0.000000
0.000000
0.000000
0.000000
-0.000000
0.000000
-0.000000
0.000000
0.000000
0.000000
-0.000000
-0.000000
-0.000000
0.000000
0.000000
-0.000000
0.000000
0.000000
0.000000
0.000000
0.000000
-0.000000
-0.000000
0.000000
-0.000000
0.000000
-0.000000
-0.000000
-0.000000
-0.000000
-0.000000
0.000000
-0.000000
-0.000000
0.000000
-0.000000
-0.000000
-0.000000
0.000000
-0.000000
-0.000000
0.000000
-0.000000
0.000000
-0.000000
-0.000000
0.000000
0.000000
-0.000000
-0.000000
-0.000000
0.000000
-0.000000
-0.000000
-0.000000
-0.000000
0.000000
-0.000000
0.000000
0.000000
-0.000000
0.000000
0.000000
0.000000
0.000000
0.000000
-0.000000
-0.000000
-0.000000
-0.000000
-0.000000
-0.000000
-0.000000
-0.000000
0.000000
-0.000000
0.000000
-0.000000
0.000000
0.000000
-0.000000
0.000000
-0.000000
-0.000000
0.000000
-0.000000
-0.000000
-0.000000
0.000000
0.000000
-0.000000
0.000000
-0.000000
-0.000000
-0.000000
-0.000000
0.000000
0.000000
-0.000000
0.000000
-0.000000
-0.000000
0.000000
0.000000
0.000000
0.000000
-0.000000
0.000000
0.000000
0.000000
0.000000
0.000000
-0.000000
-0.000000
-0.000000
-0.000000
-0.000000
-0.000000
-0.000000
-0.000000
-0.000000
0.000000
-0.000000
0.000000
-0.000000
-0.000000
-0.000000
-0.000000
-0.000000
-0.000000
0.000000
-0.000000
0.000000
0.000000
0.000000
0.000000
0.000000
0.000000
0.000000
-0.000000
-0.000000
0.000000
0.000000
-0.000000
-0.000000
-0.000000
0.000000
0.000000
-0.000000
-0.000000
0.000000
0.000000
0.000000
0.000000
-0.000000
0.000000
-0.000000
-0.000000
-0.000000
-0.000000
-0.000000
-0.000000
-0.000000
-0.000000
-0.000000
0.000000
0.000000
0.000000
-0.000000
-0.000000
-0.000000
0.000000
-0.000000
0.000000
0.000000
-0.000000
-0.000000
-0.000000
-0.000000
0.000000
0.000000
-0.000000
-0.000000
0.000000
0.000000
0.000000
-0.000000
-0.000000
0.000000
-0.000000
0.000000
-0.000000
0.000000
0.000000
0.000000
-0.000000
0.000000
-0.000000
-0.000000
0.000000
-0.000000
0.000000
0.000000
0.000000
-0.000000
-0.000000
0.000000
0.000000
0.000000
0.000000
-0.000000
0.000000
-0.000000
0.000000
-0.000000
0.000000
0.000000
0.000000
0.000000
0.000000
-0.000000
0.000000
0.000000
0.000000
0.000000
-0.000000
-0.000000
0.000000
0.000000
0.000000
-0.000000
-0.000000
-0.000000
-0.000000
0.000000
0.000000
0.000000
0.000000
-0.000000
0.000000
0.000000
-0.000000
-0.000000
-0.000000
-0.000000
-0.000000
-0.000000
0.000000
-0.000000
-0.000000
0.000000
0.000000
-0.000000
-0.000000
-0.000000
-0.000000
0.000000
-0.000000
-0.000000
-0.000000
0.000000
0.000000
-0.000000
-0.000000
0.000000
-0.000000
0.000000
-0.000000
-0.000000
0.000000
-0.000000
-0.000000
-0.000000
0.000000
0.000000
0.000000
-0.000000
0.000000
0.000000
0.000000
-0.000000
-0.000000
-0.000000
-0.000000
-0.000000
0.000000
0.000000
-0.000000
-0.000000
-0.000000
0.000000
0.000000
0.000000
-0.000000
-0.000000
-0.000000
-0.000000
0.000000
0.000000
0.000000
0.000000
0.000000
0.000000
-0.000000
-0.000000
0.000000
-0.000000
0.000000
0.000000
0.000000
-0.000000
-0.000000
0.000000
-0.000000
-0.000000
0.000000
-0.000000
0.000000
0.000000
-0.000000
0.000000
-0.000000
-0.000000
-0.000000
0.000000
-0.000000
0.000000
0.000000
-0.000000
-0.000000
0.000000
0.000000
-0.000000
-0.000000
-0.000000
-0.000000
0.000000
0.000000
-0.000000
-0.000000
0.000000
0.000000
0.000000
0.000000
-0.000000
-0.000000
-0.000000
0.000000
-0.000000
0.000000
-0.000000
0.000000
-0.000000
-0.000000
-0.000000
-0.000000
-0.000000
0.000000
0.000000
0.000000
-0.000000
-0.000000
0.000000
0.000000
-0.000000
-0.000000
-0.000000
-0.000000
-0.000000
0.000000
-0.000000
-0.000000
-0.000000
0.000000
-0.000000
0.000000
-0.000000
-0.000000
0.000000
0.000000
0.000000
0.000000
0.000000
-0.000000
0.000000
-0.000000
0.000000
-0.000000
0.000000
0.000000
-0.000000
-0.000000
-0.000000
-0.000000
0.000000
0.000000
0.000000
-0.000000
0.000000
0.000000
0.000000
-0.000000
0.000000
-0.000000
-0.000000
0.000000
0.000000
-0.000000
0.000000
0.000000
0.000000
0.000000
0.000000
0.000000
0.000000
0.000000
-0.000000
0.000000
-0.000000
-0.000000
-0.000000
0.000000
-0.000000
-0.000000
0.000000
-0.000000
0.000000
-0.000000
0.000000
0.000000
0.000000
0.000000
-0.000000
-0.000000
0.000000
-0.000000
-0.000000
-0.000000
-0.000000
-0.000000
0.000000
0.000000
0.000000
-0.000000
-0.000000
0.000000
0.000000
-0.000000
-0.000000
-0.000000
-0.000000
0.000000
-0.000000
0.000000
0.000000
-0.000000
0.000000
0.000000
0.000000
0.000000
-0.000000
0.000000
0.000000
0.000000
0.000000
0.000000
-0.000000
0.000000
0.000000
-0.000000
-0.000000
-0.000000
-0.000000
0.000000
0.000000
0.000000
-0.000000
0.000000
0.000000
0.000000
0.000000
-0.000000
0.000000
0.000000
0.000000
-0.000000
-0.000000
-0.000000
-0.000000
0.000000
0.000000
-0.000000
0.000000
0.000000
0.000000
-0.000000
-0.000000
0.000000
0.000000
0.000000
-0.000000
-0.000000
0.000000
-0.000000
0.000000
-0.000000
-0.000000
-0.000000
-0.000000
0.000000
0.000000
-0.000000
-0.000000
-0.000000
0.000000
-0.000000
0.000000
-0.000000
-0.000000
0.000000
-0.000000
0.000000
0.000000
-0.000000
-0.000000
0.000000
-0.000000
0.000000
-0.000000
-0.000000
-0.000000
-0.000000
-0.000000
0.000000
-0.000000
-0.000000
0.000000
-0.000000
0.000000
-0.000000
-0.000000
-0.000000
0.000000
0.000000
0.000000
-0.000000
0.000000
-0.000000
-0.000000
0.000000
-0.000000
-0.000000
-0.000000
-0.000000
0.000000
-0.000000
-0.000000
0.000000
-0.000000
0.000000
0.000000
0.000000
-0.000000
-0.000000
0.000000
0.000000
-0.000000
0.000000
-0.000000
-0.000000
-0.000000
0.000000
0.000000
0.000000
0.000000
0.000000
0.000000
0.000000
-0.000000
-0.000000
0.000000
-0.000000
-0.000000
0.000000
0.000000
-0.000000
0.000000
0.000000
-0.000000
0.000000
-0.000000
0.000000
-0.000000
-0.000000
0.000000
0.000000
0.000000
0.000000
0.000000
0.000000
0.000000
0.000000
-0.000000
0.000000
0.000000
-0.000000
-0.000000
0.000000
-0.000000
-0.000000
-0.000000
-0.000000
-0.000000
0.000000
-0.000000
0.000000
-0.000000
-0.000000
0.000000
-0.000000
0.000000
-0.000000
0.000000
0.000000
0.000000
0.000000
0.000000
0.000000
-0.000000
0.000000
0.000000
0.000000
0.000000
0.000000
-0.000000
0.000000
-0.000000
-0.000000
-0.000000
0.000000
0.000000
0.000000
0.000000
-0.000000
-0.000000
0.000000
-0.000000
-0.000000
0.000000
0.000000
0.000000
0.000000
0.000000
-0.000000
0.000000
0.000000
0.000000
0.000000
0.000000
0.000000
0.000000
0.000000
0.000000
0.000000
0.000000
0.000000
-0.000000
-0.000000
-0.000000
-0.000000
0.000000
-0.000000
-0.000000
-0.000000
0.000000
0.000000
0.000000
-0.000000
0.000000
-0.000000
-0.000000
-0.000000
-0.000000
0.000000
-0.000000
0.000000
-0.000000
-0.000000
-0.000000
-0.000000
0.000000
-0.000000
-0.000000
0.000000
0.000000
0.000000
-0.000000
0.000000
0.000000
-0.000000
0.000000
0.000000
-0.000000
-0.000000
-0.000000
-0.000000
0.000000
0.000000
0.000000
0.000000
-0.000000
0.000000
0.000000
0.000000
-0.000000
-0.000000
-0.000000
-0.000000
-0.000000
-0.000000
-0.000000
-0.000000
-0.000000
0.000000
-0.000000
-0.000000
0.000000
-0.000000
-0.000000
-0.000000
-0.000000
-0.000000
-0.000000
-0.000000
-0.000000
-0.000000
0.000000
0.000000
-0.000000
0.000000
-0.000000
-0.000000
-0.000000
-0.000000
-0.000000
-0.000000
0.000000
-0.000000
0.000000
-0.000000
-0.000000
-0.000000
-0.000000
0.000000
-0.000000
0.000000
-0.000000
-0.000000
-0.000000
0.000000
-0.000000
-0.000000
-0.000000
0.000000
-0.000000
-0.000000
0.000000
0.000000
-0.000000
0.000000
0.000000
0.000000
-0.000000
0.000000
0.000000
-0.000000
-0.000000
0.000000
-0.000000
-0.000000
-0.000000
-0.000000
0.000000
0.000000
-0.000000
-0.000000
-0.000000
-0.000000
0.000000
0.000000
0.000000
0.000000
0.000000
0.000000
0.000000
-0.000000
0.000000
-0.000000
-0.000000
-0.000000
-0.000000
-0.000000
0.000000
-0.000000
-0.000000
-0.000000
0.000000
-0.000000
0.000000
-0.000000
0.000000
0.000000
0.000000
-0.000000
0.000000
0.000000
0.000000
0.000000
0.000000
0.000000
0.000000
-0.000000
0.000000
0.000000
-0.000000
-0.000000
-0.000000
-0.000000
0.000000
-0.000000
0.000000
0.000000
-0.000000
-0.000000
-0.000000
0.000000
0.000000
0.000000
-0.000000
-0.000000
0.000000
0.000000
-0.000000
-0.000000
0.000000
-0.000000
-0.000000
0.000000
-0.000000
-0.000000
-0.000000
0.000000
-0.000000
0.000000
0.000000
-0.000000
0.000000
-0.000000
0.000000
-0.000000
0.000000
0.000000
0.000000
-0.000000
0.000000
-0.000000
-0.000000
0.000000
0.000000
-0.000000
-0.000000
0.000000
-0.000000
0.000000
0.000000
0.000000
-0.000000
-0.000000
0.000000
-0.000000
-0.000000
0.000000
0.000000
-0.000000
-0.000000
0.000000
-0.000000
-0.000000
0.000000
0.000000
0.000000
0.000000
-0.000000
0.000000
-0.000000
0.000000
0.000000
-0.000000
-0.000000
-0.000000
-0.000000
-0.000000
-0.000000
0.000000
-0.000000
0.000000
-0.000000
-0.000000
0.000000
0.000000
-0.000000
-0.000000
0.000000
0.000000
-0.000000
-0.000000
-0.000000
-0.000000
0.000000
-0.000000
0.000000
-0.000000
0.000000
-0.000000
-0.000000
0.000000
-0.000000
-0.000000
0.000000
0.000000
-0.000000
0.000000
-0.000000
-0.000000
0.000000
-0.000000
0.000000
0.000000
-0.000000
0.000000
0.000000
-0.000000
-0.000000
0.000000
0.000000
0.000000
0.000000
-0.000000
-0.000000
0.000000
0.000000
-0.000000
0.000000
-0.000000
-0.000000
-0.000000
-0.000000
0.000000
-0.000000
-0.000000
-0.000000
0.000000
-0.000000
-0.000000
0.000000
0.000000
-0.000000
0.000000
-0.000000
-0.000000
0.000000
0.000000
-0.000000
-0.000000
0.000000
0.000000
0.000000
-0.000000
0.000000
0.000000
-0.000000
-0.000000
-0.000000
-0.000000
-0.000000
-0.000000
-0.000000
0.000000
-0.000000
0.000000
-0.000000
0.000000
0.000000
-0.000000
0.000000
0.000000
0.000000
0.000000
0.000000
-0.000000
0.000000
0.000000
0.000000
-0.000000
0.000000
-0.000000
0.000000
0.000000
-0.000000
-0.000000
-0.000000
0.000000
-0.000000
-0.000000
-0.000000
0.000000
0.000000
0.000000
-0.000000
0.000000
-0.000000
0.000000
-0.000000
-0.000000
0.000000
0.000000
0.000000
-0.000000
-0.000000
-0.000000
0.000000
0.000000
-0.000000
-0.000000
-0.000000
0.000000
0.000000
-0.000000
-0.000000
-0.000000
-0.000000
-0.000000
0.000000
0.000000
0.000000
0.000000
-0.000000
0.000000
-0.000000
-0.000000
-0.000000
0.000000
-0.000000
-0.000000
-0.000000
-0.000000
-0.000000
0.000000
-0.000000
-0.000000
-0.000000
-0.000000
-0.000000
-0.000000
-0.000000
-0.000000
-0.000000
-0.000000
0.000000
0.000000
0.000000
0.000000
-0.000000
0.000000
0.000000
0.000000
0.000000
0.000000
0.000000
-0.000000
0.000000
0.000000
-0.000000
-0.000000
-0.000000
-0.000000
0.000000
0.000000
-0.000000
0.000000
0.000000
0.000000
-0.000000
-0.000000
-0.000000
0.000000
-0.000000
-0.000000
0.000000
-0.000000
0.000000
-0.000000
-0.000000
-0.000000
0.000000
0.000000
0.000000
0.000000
0.000000
-0.000000
-0.000000
-0.000000
-0.000000
-0.000000
-0.000000
-0.000000
-0.000000
-0.000000
0.000000
0.000000
-0.000000
-0.000000
0.000000
-0.000000
0.000000
0.000000
-0.000000
0.000000
-0.000000
0.000000
-0.000000
0.000000
-0.000000
0.000000
0.000000
-0.000000
0.000000
-0.000000
-0.000000
-0.000000
-0.000000
-0.000000
-0.000000
0.000000
0.000000
0.000000
0.000000
-0.000000
0.000000
0.000000
-0.000000
-0.000000
-0.000000
-0.000000
-0.000000
-0.000000
-0.000000
-0.000000
0.000000
0.000000
-0.000000
-0.000000
-0.000000
-0.000000
-0.000000
-0.000000
0.000000
-0.000000
-0.000000
0.000000
0.000000
-0.000000
-0.000000
-0.000000
-0.000000
-0.000000
-0.000000
0.000000
0.000000
0.000000
0.000000
0.000000
0.000000
-0.000000
0.000000
-0.000000
-0.000000
-0.000000
-0.000000
-0.000000
0.000000
0.000000
-0.000000
-0.000000
0.000000
0.000000
-0.000000
-0.000000
-0.000000
-0.000000
-0.000000
0.000000
-0.000000
0.000000
-0.000000
-0.000000
-0.000000
-0.000000
-0.000000
-0.000000
-0.000000
-0.000000
0.000000
0.000000
-0.000000
0.000000
0.000000
-0.000000
-0.000000
-0.000000
-0.000000
-0.000000
0.000000
0.000000
-0.000000
-0.000000
0.000000
-0.000000
-0.000000
0.000000
0.000000
0.000000
0.000000
0.000000
-0.000000
-0.000000
-0.000000
0.000000
0.000000
-0.000000
-0.000000
0.000000
-0.000000
-0.000000
0.000000
0.000000
-0.000000
0.000000
-0.000000
-0.000000
0.000000
0.000000
-0.000000
0.000000
-0.000000
-0.000000
-0.000000
0.000000
0.000000
-0.000000
-0.000000
0.000000
-0.000000
0.000000
-0.000000
0.000000
-0.000000
0.000000
-0.000000
-0.000000
-0.000000
-0.000000
0.000000
0.000000
-0.000000
-0.000000
-0.000000
-0.000000
0.000000
0.000000
0.000000
-0.000000
0.000000
0.000000
0.000000
-0.000000
0.000000
0.000000
0.000000
-0.000000
0.000000
-0.000000
-0.000000
0.000000
0.000000
0.000000
0.000000
-0.000000
-0.000000
-0.000000
0.000000
-0.000000
-0.000000
0.000000
0.000000
-0.000000
0.000000
-0.000000
0.000000
-0.000000
-0.000000
-0.000000
0.000000
-0.000000
-0.000000
0.000000
0.000000
-0.000000
0.000000
-0.000000
-0.000000
-0.000000
-0.000000
0.000000
-0.000000
-0.000000
-0.000000
0.000000
0.000000
0.000000
-0.000000
0.000000
-0.000000
0.000000
-0.000000
0.000000
0.000000
-0.000000
-0.000000
0.000000
-0.000000
0.000000
-0.000000
-0.000000
-0.000000
-0.000000
0.000000
0.000000
-0.000000
0.000000
-0.000000
-0.000000
0.000000
-0.000000
-0.000000
-0.000000
-0.000000
-0.000000
-0.000000
0.000000
0.000000
0.000000
-0.000000
0.000000
0.000000
0.000000
-0.000000
0.000000
0.000000
0.000000
0.000000
0.000000
0.000000
-0.000000
0.000000
0.000000
0.000000
-0.000000
-0.000000
0.000000
-0.000000
-0.000000
0.000000
0.000000
-0.000000
0.000000
0.000000
0.000000
-0.000000
0.000000
0.000000
-0.000000
0.000000
-0.000000
0.000000
0.000000
0.000000
0.000000
0.000000
0.000000
0.000000
0.000000
-0.000000
0.000000
-0.000000
0.000000
0.000000
-0.000000
-0.000000
-0.000000
-0.000000
0.000000
-0.000000
0.000000
0.000000
0.000000
0.000000
-0.000000
0.000000
0.000000
-0.000000
-0.000000
0.000000
0.000000
-0.000000
-0.000000
0.000000
0.000000
-0.000000
0.000000
0.000000
0.000000
-0.000000
-0.000000
-0.000000
-0.000000
-0.000000
0.000000
0.000000
0.000000
-0.000000
-0.000000
0.000000
-0.000000
-0.000000
0.000000
-0.000000
0.000000
0.000000
0.000000
-0.000000
0.000000
-0.000000
0.000000
0.000000
0.000000
-0.000000
-0.000000
-0.000000
0.000000
-0.000000
0.000000
-0.000000
-0.000000
-0.000000
-0.000000
0.000000
-0.000000
-0.000000
0.000000
-0.000000
0.000000
-0.000000
0.000000
-0.000000
0.000000
-0.000000
-0.000000
0.000000
-0.000000
0.000000
0.000000
0.000000
0.000000
-0.000000
0.000000
0.000000
-0.000000
0.000000
-0.000000
0.000000
0.000000
0.000000
0.000000
0.000000
0.000000
0.000000
-0.000000
0.000000
-0.000000
-0.000000
-0.000000
0.000000
-0.000000
-0.000000
-0.000000
-0.000000
0.000000
0.000000
-0.000000
0.000000
0.000000
0.000000
0.000000
-0.000000
-0.000000
0.000000
0.000000
-0.000000
-0.000000
-0.000000
-0.000000
0.000000
0.000000
-0.000000
0.000000
0.000000
-0.000000
0.000000
-0.000000
0.000000
0.000000
0.000000
-0.000000
0.000000
-0.000000
0.000000
-0.000000
-0.000000
0.000000
-0.000000
-0.000000
0.000000
0.000000
0.000000
0.000000
-0.000000
-0.000000
-0.000000
0.000000
-0.000000
-0.000000
-0.000000
0.000000
0.000000
0.000000
0.000000
-0.000000
-0.000000
0.000000
0.000000
0.000000
0.000000
0.000000
-0.000000
0.000000
0.000000
0.000000
-0.000000
0.000000
0.000000
0.000000
0.000000
-0.000000
-0.000000
0.000000
0.000000
0.000000
-0.000000
-0.000000
0.000000
0.000000
-0.000000
-0.000000
-0.000000
0.000000
-0.000000
0.000000
0.000000
-0.000000
-0.000000
0.000000
0.000000
-0.000000
0.000000
-0.000000
-0.000000
0.000000
0.000000
0.000000
0.000000
0.000000
-0.000000
-0.000000
-0.000000
0.000000
-0.000000
-0.000000
0.000000
-0.000000
-0.000000
0.000000
-0.000000
0.000000
0.000000
-0.000000
-0.000000
-0.000000
-0.000000
0.000000
-0.000000
0.000000
-0.000000
-0.000000
-0.000000
-0.000000
-0.000000
0.000000
-0.000000
0.000000
0.000000
-0.000000
0.000000
0.000000
-0.000000
0.000000
0.000000
0.000000
0.000000
0.000000
-0.000000
0.000000
-0.000000
0.000000
-0.000000
0.000000
-0.000000
0.000000
0.000000
0.000000
0.000000
-0.000000
-0.000000
0.000000
0.000000
0.000000
-0.000000
0.000000
0.000000
-0.000000
-0.000000
-0.000000
-0.000000
-0.000000
-0.000000
-0.000000
0.000000
-0.000000
-0.000000
-0.000000
0.000000
0.000000
0.000000
-0.000000
-0.000000
-0.000000
0.000000
-0.000000
0.000000
0.000000
0.000000
0.000000
0.000000
-0.000000
-0.000000
-0.000000
0.000000
0.000000
0.000000
-0.000000
0.000000
0.000000
-0.000000
0.000000
0.000000
0.000000
0.000000
-0.000000
-0.000000
-0.000000
0.000000
0.000000
-0.000000
0.000000
0.000000
0.000000
-0.000000
0.000000
0.000000
-0.000000
-0.000000
-0.000000
-0.000000
-0.000000
0.000000
0.000000
0.000000
-0.000000
-0.000000
-0.000000
0.000000
-0.000000
-0.000000
0.000000
-0.000000
0.000000
-0.000000
0.000000
-0.000000
-0.000000
-0.000000
-0.000000
0.000000
0.000000
0.000000
-0.000000
-0.000000
0.000000
-0.000000
-0.000000
-0.000000
0.000000
0.000000
0.000000
0.000000
0.000000
0.000000
-0.000000
-0.000000
0.000000
0.000000
-0.000000
0.000000
0.000000
-0.000000
0.000000
-0.000000
-0.000000
-0.000000
-0.000000
0.000000
-0.000000
-0.000000
0.000000
0.000000
0.000000
-0.000000
-0.000000
-0.000000
-0.000000
0.000000
0.000000
-0.000000
-0.000000
-0.000000
0.000000
0.000000
0.000000
0.000000
-0.000000
-0.000000
-0.000000
-0.000000
-0.000000
0.000000
0.000000
-0.000000
0.000000
-0.000000
-0.000000
0.000000
-0.000000
-0.000000
-0.000000
0.000000
0.000000
-0.000000
-0.000000
0.000000
-0.000000
-0.000000
-0.000000
-0.000000
-0.000000
0.000000
0.000000
-0.000000
0.000000
-0.000000
0.000000
-0.000000
0.000000
-0.000000
-0.000000
0.000000
-0.000000
-0.000000
-0.000000
-0.000000
0.000000
0.000000
-0.000000
-0.000000
-0.000000
0.000000
0.000000
0.000000
0.000000
0.000000
-0.000000
0.000000
-0.000000
0.000000
-0.000000
-0.000000
0.000000
-0.000000
-0.000000
0.000000
0.000000
-0.000000
-0.000000
0.000000
0.000000
0.000000
0.000000
-0.000000
-0.000000
0.000000
-0.000000
-0.000000
-0.000000
-0.000000
0.000000
0.000000
-0.000000
0.000000
0.000000
-0.000000
0.000000
-0.000000
0.000000
0.000000
-0.000000
-0.000000
-0.000000
-0.000000
-0.000000
0.000000
0.000000
-0.000000
0.000000
0.000000
0.000000
0.000000
-0.000000
0.000000
-0.000000
0.000000
0.000000
0.000000
-0.000000
0.000000
-0.000000
0.000000
0.000000
-0.000000
0.000000
0.000000
0.000000
-0.000000
0.000000
0.000000
0.000000
-0.000000
0.000000
0.000000
-0.000000
-0.000000
0.000000
0.000000
-0.000000
-0.000000
0.000000
-0.000000
-0.000000
-0.000000
-0.000000
-0.000000
0.000000
-0.000000
-0.000000
0.000000
-0.000000
-0.000000
0.000000
0.000000
-0.000000
-0.000000
-0.000000
0.000000
0.000000
0.000000
0.000000
-0.000000
-0.000000
-0.000000
-0.000000
-0.000000
-0.000000
0.000000
-0.000000
-0.000000
0.000000
0.000000
0.000000
0.000000
-0.000000
0.000000
-0.000000
0.000000
-0.000000
-0.000000
-0.000000
-0.000000
0.000000
-0.000000
-0.000000
-0.000000
-0.000000
0.000000
0.000000
-0.000000
-0.000000
0.000000
-0.000000
0.000000
0.000000
0.000000
-0.000000
0.000000
0.000000
-0.000000
-0.000000
-0.000000
0.000000
0.000000
0.000000
0.000000
-0.000000
0.000000
0.000000
0.000000
0.000000
0.000000
0.000000
-0.000000
-0.000000
-0.000000
0.000000
-0.000000
0.000000
0.000000
-0.000000
0.000000
-0.000000
-0.000000
-0.000000
-0.000000
-0.000000
0.000000
0.000000
-0.000000
0.000000
-0.000000
0.000000
-0.000000
-0.000000
-0.000000
-0.000000
0.000000
-0.000000
-0.000000
-0.000000
-0.000000
-0.000000
0.000000
-0.000000
-0.000000
-0.000000
0.000000
-0.000000
0.000000
0.000000
-0.000000
-0.000000
-0.000000
0.000000
-0.000000
0.000000
-0.000000
-0.000000
-0.000000
-0.000000
0.000000
-0.000000
0.000000
-0.000000
-0.000000
-0.000000
0.000000
0.000000
-0.000000
-0.000000
-0.000000
0.000000
0.000000
-0.000000
-0.000000
-0.000000
-0.000000
-0.000000
-0.000000
0.000000
-0.000000
0.000000
-0.000000
0.000000
-0.000000
-0.000000
-0.000000
-0.000000
0.000000
-0.000000
-0.000000
0.000000
0.000000
-0.000000
-0.000000
0.000000
0.000000
0.000000
0.000000
0.000000
-0.000000
0.000000
0.000000
-0.000000
0.000000
0.000000
-0.000000
0.000000
-0.000000
0.000000
-0.000000
0.000000
-0.000000
-0.000000
-0.000000
-0.000000
0.000000
-0.000000
-0.000000
0.000000
-0.000000
0.000000
0.000000
-0.000000
-0.000000
-0.000000
-0.000000
-0.000000
-0.000000
0.000000
0.000000
0.000000
-0.000000
0.000000
0.000000
-0.000000
-0.000000
-0.000000
-0.000000
0.000000
0.000000
-0.000000
0.000000
-0.000000
-0.000000
-0.000000
-0.000000
-0.000000
-0.000000
-0.000000
0.000000
0.000000
-0.000000
0.000000
-0.000000
0.000000
-0.000000
-0.000000
0.000000
-0.000000
0.000000
0.000000
-0.000000
-0.000000
-0.000000
0.000000
-0.000000
0.000000
0.000000
-0.000000
-0.000000
0.000000
-0.000000
0.000000
-0.000000
-0.000000
0.000000
0.000000
0.000000
0.000000
-0.000000
-0.000000
0.000000
-0.000000
-0.000000
-0.000000
-0.000000
-0.000000
0.000000
0.000000
0.000000
-0.000000
0.000000
-0.000000
-0.000000
-0.000000
0.000000
-0.000000
0.000000
-0.000000
0.000000
-0.000000
0.000000
-0.000000
0.000000
0.000000
0.000000
0.000000
0.000000
0.000000
-0.000000
0.000000
0.000000
0.000000
-0.000000
0.000000
0.000000
0.000000
0.000000
0.000000
0.000000
0.000000
0.000000
-0.000000
-0.000000
-0.000000
-0.000000
0.000000
0.000000
0.000000
0.000000
0.000000
0.000000
-0.000000
0.000000
-0.000000
0.000000
-0.000000
0.000000
-0.000000
0.000000
-0.000000
-0.000000
0.000000
-0.000000
0.000000
0.000000
0.000000
0.000000
-0.000000
0.000000
0.000000
-0.000000
-0.000000
-0.000000
0.000000
-0.000000
-0.000000
0.000000
-0.000000
0.000000
-0.000000
0.000000
0.000000
0.000000
0.000000
-0.000000
-0.000000
-0.000000
0.000000
0.000000
0.000000
0.000000
-0.000000
0.000000
-0.000000
0.000000
0.000000
0.000000
0.000000
0.000000
0.000000
0.000000
0.000000
0.000000
-0.000000
0.000000
0.000000
0.000000
-0.000000
-0.000000
-0.000000
-0.000000
0.000000
0.000000
-0.000000
0.000000
-0.000000
-0.000000
0.000000
-0.000000
-0.000000
0.000000
0.000000
-0.000000
-0.000000
-0.000000
0.000000
0.000000
0.000000
0.000000
0.000000
-0.000000
0.000000
-0.000000
0.000000
0.000000
0.000000
0.000000
0.000000
0.000000
0.000000
0.000000
0.000000
-0.000000
0.000000
0.000000
-0.000000
-0.000000
0.000000
0.000000
0.000000
0.000000
0.000000
0.000000
-0.000000
-0.000000
-0.000000
0.000000
0.000000
-0.000000
0.000000
0.000000
-0.000000
-0.000000
0.000000
-0.000000
0.000000
-0.000000
0.000000
-0.000000
-0.000000
0.000000
0.000000
0.000000
-0.000000
-0.000000
0.000000
-0.000000
-0.000000
0.000000
0.000000
-0.000000
-0.000000
-0.000000
-0.000000
0.000000
0.000000
-0.000000
-0.000000
-0.000000
-0.000000
0.000000
-0.000000
0.000000
0.000000
-0.000000
-0.000000
-0.000000
-0.000000
0.000000
0.000000
-0.000000
-0.000000
0.000000
0.000000
-0.000000
0.000000
0.000000
-0.000000
-0.000000
0.000000
0.000000
0.000000
-0.000000
-0.000000
0.000000
-0.000000
-0.000000
0.000000
0.000000
-0.000000
-0.000000
0.000000
0.000000
-0.000000
-0.000000
0.000000
-0.000000
-0.000000
-0.000000
-0.000000
-0.000000
0.000000
0.000000
0.000000
-0.000000
-0.000000
0.000000
0.000000
0.000000
0.000000
0.000000
-0.000000
-0.000000
-0.000000
0.000000
-0.000000
0.000000
0.000000
0.000000
-0.000000
-0.000000
0.000000
-0.000000
0.000000
0.000000
-0.000000
0.000000
0.000000
-0.000000
0.000000
-0.000000
-0.000000
-0.000000
-0.000000
-0.000000
-0.000000
-0.000000
-0.000000
0.000000
0.000000
0.000000
-0.000000
-0.000000
0.000000
0.000000
-0.000000
-0.000000
0.000000
-0.000000
0.000000
-0.000000
-0.000000
-0.000000
-0.000000
-0.000000
0.000000
-0.000000
-0.000000
0.000000
-0.000000
-0.000000
0.000000
-0.000000
0.000000
0.000000
0.000000
0.000000
-0.000000
0.000000
-0.000000
0.000000
0.000000
0.000000
-0.000000
-0.000000
-0.000000
-0.000000
0.000000
-0.000000
0.000000
0.000000
0.000000
0.000000
0.000000
0.000000
0.000000
-0.000000
-0.000000
-0.000000
-0.000000
0.000000
-0.000000
0.000000
0.000000
0.000000
0.000000
-0.000000
-0.000000
0.000000
0.000000
0.000000
0.000000
-0.000000
-0.000000
0.000000
0.000000
0.000000
0.000000
-0.000000
-0.000000
0.000000
-0.000000
-0.000000
-0.000000
0.000000
-0.000000
0.000000
-0.000000
-0.000000
0.000000
-0.000000
0.000000
0.000000
0.000000
-0.000000
-0.000000
-0.000000
-0.000000
-0.000000
-0.000000
-0.000000
0.000000
0.000000
-0.000000
-0.000000
-0.000000
-0.000000
0.000000
-0.000000
0.000000
0.000000
0.000000
0.000000
0.000000
0.000000
0.000000
-0.000000
-0.000000
-0.000000
-0.000000
-0.000000
-0.000000
-0.000000
0.000000
-0.000000
-0.000000
-0.000000
0.000000
0.000000
-0.000000
0.000000
-0.000000
0.000000
-0.000000
-0.000000
0.000000
0.000000
-0.000000
-0.000000
-0.000000
0.000000
0.000000
0.000000
0.000000
-0.000000
-0.000000
-0.000000
0.000000
-0.000000
0.000000
0.000000
-0.000000
0.000000
0.000000
0.000000
0.000000
-0.000000
0.000000
0.000000
-0.000000
0.000000
-0.000000
-0.000000
0.000000
0.000000
0.000000
-0.000000
0.000000
0.000000
0.000000
0.000000
0.000000
0.000000
0.000000
-0.000000
0.000000
-0.000000
-0.000000
-0.000000
0.000000
0.000000
-0.000000
0.000000
-0.000000
0.000000
-0.000000
0.000000
0.000000
0.000000
-0.000000
0.000000
-0.000000
-0.000000
0.000000
-0.000000
-0.000000
-0.000000
0.000000
-0.000000
0.000000
-0.000000
0.000000
0.000000
-0.000000
0.000000
-0.000000
-0.000000
-0.000000
0.000000
-0.000000
0.000000
-0.000000
0.000000
-0.000000
-0.000000
0.000000
-0.000000
0.000000
-0.000000
-0.000000
-0.000000
0.000000
0.000000
0.000000
0.000000
0.000000
0.000000
-0.000000
-0.000000
0.000000
-0.000000
-0.000000
-0.000000
0.000000
0.000000
-0.000000
0.000000
-0.000000
0.000000
0.000000
0.000000
-0.000000
0.000000
0.000000
0.000000
-0.000000
0.000000
-0.000000
0.000000
0.000000
0.000000
0.000000
0.000000
0.000000
0.000000
-0.000000
0.000000
-0.000000
0.000000
0.000000
0.000000
0.000000
-0.000000
-0.000000
-0.000000
-0.000000
0.000000
-0.000000
0.000000
0.000000
-0.000000
-0.000000
0.000000
0.000000
-0.000000
-0.000000
-0.000000
0.000000
0.000000
0.000000
0.000000
-0.000000
-0.000000
-0.000000
-0.000000
0.000000
-0.000000
0.000000
-0.000000
-0.000000
-0.000000
-0.000000
-0.000000
-0.000000
-0.000000
0.000000
0.000000
-0.000000
0.000000
0.000000
-0.000000
-0.000000
-0.000000
-0.000000
-0.000000
-0.000000
-0.000000
-0.000000
-0.000000
-0.000000
0.000000
-0.000000
-0.000000
-0.000000
0.000000
-0.000000
0.000000
-0.000000
-0.000000
0.000000
0.000000
-0.000000
-0.000000
-0.000000
-0.000000
-0.000000
0.000000
-0.000000
-0.000000
0.000000
-0.000000
0.000000
-0.000000
0.000000
0.000000
-0.000000
-0.000000
0.000000
-0.000000
0.000000
0.000000
0.000000
0.000000
-0.000000
-0.000000
0.000000
0.000000
-0.000000
0.000000
0.000000
-0.000000
-0.000000
0.000000
-0.000000
0.000000
0.000000
0.000000
0.000000
-0.000000
0.000000
0.000000
0.000000
-0.000000
0.000000
-0.000000
-0.000000
-0.000000
-0.000000
0.000000
-0.000000
-0.000000
-0.000000
-0.000000
0.000000
0.000000
0.000000
0.000000
0.000000
0.000000
0.000000
0.000000
-0.000000
-0.000000
0.000000
-0.000000
-0.000000
-0.000000
0.000000
0.000000
-0.000000
0.000000
-0.000000
0.000000
0.000000
-0.000000
-0.000000
0.000000
0.000000
0.000000
0.000000
0.000000
0.000000
-0.000000
0.000000
0.000000
0.000000
-0.000000
-0.000000
0.000000
-0.000000
-0.000000
-0.000000
-0.000000
0.000000
-0.000000
-0.000000
-0.000000
-0.000000
0.000000
-0.000000
-0.000000
-0.000000
-0.000000
-0.000000
0.000000
-0.000000
-0.000000
-0.000000
0.000000
-0.000000
0.000000
0.000000
-0.000000
-0.000000
-0.000000
0.000000
0.000000
0.000000
0.000000
-0.000000
0.000000
0.000000
0.000000
-0.000000
-0.000000
-0.000000
-0.000000
0.000000
-0.000000
-0.000000
0.000000
-0.000000
-0.000000
-0.000000
0.000000
0.000000
0.000000
0.000000
0.000000
-0.000000
-0.000000
0.000000
0.000000
0.000000
-0.000000
0.000000
-0.000000
-0.000000
0.000000
-0.000000
0.000000
-0.000000
0.000000
-0.000000
-0.000000
-0.000000
-0.000000
-0.000000
0.000000
-0.000000
-0.000000
-0.000000
-0.000000
0.000000
-0.000000
-0.000000
0.000000
-0.000000
0.000000
0.000000
0.000000
-0.000000
-0.000000
-0.000000
-0.000000
0.000000
-0.000000
-0.000000
0.000000
0.000000
-0.000000
0.000000
0.000000
0.000000
-0.000000
0.000000
-0.000000
0.000000
0.000000
-0.000000
0.000000
0.000000
-0.000000
-0.000000
0.000000
-0.000000
0.000000
0.000000
0.000000
0.000000
0.000000
-0.000000
-0.000000
-0.000000
0.000000
0.000000
-0.000000
-0.000000
-0.000000
-0.000000
-0.000000
-0.000000
-0.000000
-0.000000
0.000000
0.000000
0.000000
0.000000
-0.000000
-0.000000
-0.000000
-0.000000
0.000000
-0.000000
0.000000
0.000000
0.000000
0.000000
-0.000000
0.000000
0.000000
0.000000
-0.000000
-0.000000
-0.000000
0.000000
0.000000
0.000000
-0.000000
0.000000
0.000000
-0.000000
0.000000
-0.000000
-0.000000
0.000000
0.000000
-0.000000
0.000000
0.000000
0.000000
0.000000
0.000000
-0.000000
-0.000000
-0.000000
0.000000
-0.000000
-0.000000
-0.000000
-0.000000
0.000000
-0.000000
-0.000000
-0.000000
-0.000000
-0.000000
-0.000000
0.000000
0.000000
0.000000
0.000000
0.000000
0.000000
0.000000
-0.000000
-0.000000
0.000000
-0.000000
-0.000000
-0.000000
0.000000
-0.000000
-0.000000
-0.000000
0.000000
0.000000
-0.000000
0.000000
-0.000000
-0.000000
-0.000000
0.000000
0.000000
0.000000
0.000000
-0.000000
-0.000000
0.000000
-0.000000
-0.000000
0.000000
0.000000
0.000000
-0.000000
0.000000
0.000000
0.000000
-0.000000
0.000000
-0.000000
-0.000000
0.000000
0.000000
-0.000000
-0.000000
-0.000000
-0.000000
0.000000
-0.000000
0.000000
0.000000
-0.000000
0.000000
0.000000
0.000000
0.000000
-0.000000
0.000000
0.000000
-0.000000
-0.000000
-0.000000
0.000000
0.000000
-0.000000
0.000000
-0.000000
0.000000
0.000000
0.000000
-0.000000
0.000000
0.000000
-0.000000
0.000000
0.000000
0.000000
0.000000
-0.000000
-0.000000
-0.000000
0.000000
0.000000
-0.000000
0.000000
0.000000
0.000000
-0.000000
-0.000000
0.000000
-0.000000
0.000000
0.000000
-0.000000
-0.000000
0.000000
0.000000
0.000000
-0.000000
-0.000000
0.000000
-0.000000
-0.000000
0.000000
0.000000
-0.000000
-0.000000
-0.000000
-0.000000
-0.000000
-0.000000
-0.000000
0.000000
-0.000000
0.000000
0.000000
-0.000000
-0.000000
0.000000
0.000000
0.000000
0.000000
0.000000
0.000000
0.000000
0.000000
0.000000
-0.000000
0.000000
0.000000
0.000000
-0.000000
0.000000
-0.000000
-0.000000
-0.000000
0.000000
0.000000
-0.000000
0.000000
0.000000
0.000000
-0.000000
-0.000000
-0.000000
0.000000
-0.000000
0.000000
-0.000000
-0.000000
-0.000000
-0.000000
-0.000000
-0.000000
0.000000
-0.000000
-0.000000
0.000000
-0.000000
-0.000000
-0.000000
0.000000
-0.000000
-0.000000
0.000000
-0.000000
0.000000
-0.000000
-0.000000
0.000000
0.000000
0.000000
0.000000
-0.000000
-0.000000
-0.000000
-0.000000
0.000000
0.000000
-0.000000
0.000000
0.000000
0.000000
-0.000000
0.000000
-0.000000
0.000000
-0.000000
-0.000000
-0.000000
0.000000
-0.000000
0.000000
0.000000
-0.000000
0.000000
0.000000
-0.000000
-0.000000
0.000000
0.000000
0.000000
-0.000000
0.000000
-0.000000
0.000000
-0.000000
-0.000000
0.000000
0.000000
0.000000
0.000000
-0.000000
0.000000
0.000000
0.000000
0.000000
-0.000000
-0.000000
-0.000000
0.000000
-0.000000
0.000000
-0.000000
0.000000
0.000000
-0.000000
-0.000000
-0.000000
0.000000
0.000000
-0.000000
0.000000
0.000000
-0.000000
0.000000
-0.000000
0.000000
0.000000
0.000000
0.000000
0.000000
-0.000000
-0.000000
-0.000000
0.000000
0.000000
0.000000
-0.000000
-0.000000
0.000000
-0.000000
0.000000
0.000000
-0.000000
0.000000
0.000000
0.000000
0.000000
-0.000000
0.000000
-0.000000
0.000000
0.000000
-0.000000
0.000000
0.000000
0.000000
0.000000
0.000000
0.000000
0.000000
0.000000
-0.000000
0.000000
0.000000
-0.000000
0.000000
-0.000000
0.000000
-0.000000
-0.000000
-0.000000
0.000000
0.000000
-0.000000
0.000000
-0.000000
-0.000000
-0.000000
-0.000000
0.000000
-0.000000
0.000000
-0.000000
-0.000000
0.000000
0.000000
0.000000
-0.000000
-0.000000
-0.000000
-0.000000
-0.000000
0.000000
-0.000000
-0.000000
-0.000000
0.000000
-0.000000
-0.000000
0.000000
0.000000
-0.000000
-0.000000
-0.000000
-0.000000
-0.000000
-0.000000
0.000000
-0.000000
0.000000
0.000000
-0.000000
-0.000000
0.000000
-0.000000
-0.000000
0.000000
-0.000000
-0.000000
-0.000000
-0.000000
-0.000000
-0.000000
-0.000000
-0.000000
0.000000
0.000000
-0.000000
-0.000000
-0.000000
-0.000000
-0.000000
-0.000000
0.000000
-0.000000
-0.000000
0.000000
0.000000
0.000000
0.000000
0.000000
0.000000
-0.000000
-0.000000
-0.000000
0.000000
0.000000
0.000000
-0.000000
0.000000
0.000000
0.000000
-0.000000
-0.000000
0.000000
0.000000
-0.000000
0.000000
0.000000
0.000000
-0.000000
0.000000
-0.000000
0.000000
0.000000
0.000000
-0.000000
0.000000
-0.000000
-0.000000
0.000000
0.000000
0.000000
-0.000000
0.000000
0.000000
-0.000000
-0.000000
-0.000000
0.000000
0.000000
0.000000
0.000000
-0.000000
-0.000000
0.000000
-0.000000
0.000000
-0.000000
-0.000000
0.000000
-0.000000
0.000000
0.000000
-0.000000
-0.000000
-0.000000
0.000000
-0.000000
0.000000
0.000000
0.000000
-0.000000
-0.000000
-0.000000
0.000000
0.000000
0.000000
0.000000
-0.000000
0.000000
0.000000
-0.000000
-0.000000
-0.000000
0.000000
-0.000000
0.000000
-0.000000
0.000000
0.000000
-0.000000
0.000000
-0.000000
-0.000000
-0.000000
-0.000000
0.000000
-0.000000
-0.000000
-0.000000
0.000000
-0.000000
0.000000
-0.000000
-0.000000
-0.000000
0.000000
-0.000000
0.000000
0.000000
0.000000
0.000000
0.000000
0.000000
0.000000
-0.000000
0.000000
-0.000000
-0.000000
-0.000000
-0.000000
0.000000
-0.000000
-0.000000
0.000000
0.000000
0.000000
-0.000000
0.000000
0.000000
-0.000000
0.000000
-0.000000
-0.000000
-0.000000
0.000000
-0.000000
-0.000000
-0.000000
-0.000000
-0.000000
0.000000
-0.000000
-0.000000
-0.000000
0.000000
-0.000000
-0.000000
0.000000
0.000000
-0.000000
-0.000000
-0.000000
-0.000000
-0.000000
0.000000
0.000000
-0.000000
0.000000
-0.000000
0.000000
0.000000
0.000000
0.000000
0.000000
0.000000
0.000000
0.000000
-0.000000
0.000000
-0.000000
0.000000
0.000000
-0.000000
-0.000000
0.000000
0.000000
-0.000000
0.000000
-0.000000
-0.000000
-0.000000
0.000000
0.000000
-0.000000
-0.000000
-0.000000
0.000000
0.000000
0.000000
0.000000
0.000000
-0.000000
-0.000000
-0.000000
-0.000000
-0.000000
-0.000000
0.000000
-0.000000
0.000000
0.000000
-0.000000
-0.000000
0.000000
-0.000000
-0.000000
-0.000000
-0.000000
-0.000000
0.000000
0.000000
-0.000000
0.000000
-0.000000
-0.000000
0.000000
-0.000000
0.000000
0.000000
0.000000
0.000000
0.000000
-0.000000
0.000000
-0.000000
0.000000
-0.000000
-0.000000
-0.000000
0.000000
0.000000
0.000000
-0.000000
0.000000
0.000000
0.000000
-0.000000
-0.000000
-0.000000
-0.000000
0.000000
0.000000
-0.000000
0.000000
0.000000
-0.000000
0.000000
0.000000
0.000000
0.000000
-0.000000
0.000000
0.000000
0.000000
0.000000
-0.000000
-0.000000
0.000000
-0.000000
-0.000000
0.000000
0.000000
0.000000
0.000000
-0.000000
-0.000000
-0.000000
0.000000
0.000000
0.000000
0.000000
0.000000
-0.000000
-0.000000
-0.000000
0.000000
0.000000
0.000000
0.000000
-0.000000
0.000000
0.000000
-0.000000
-0.000000
-0.000000
0.000000
0.000000
0.000000
0.000000
0.000000
0.000000
0.000000
0.000000
-0.000000
-0.000000
0.000000
0.000000
-0.000000
0.000000
0.000000
0.000000
0.000000
-0.000000
-0.000000
-0.000000
-0.000000
0.000000
0.000000
0.000000
0.000000
0.000000
-0.000000
0.000000
-0.000000
-0.000000
-0.000000
0.000000
0.000000
0.000000
0.000000
-0.000000
-0.000000
0.000000
0.000000
-0.000000
-0.000000
0.000000
0.000000
-0.000000
-0.000000
0.000000
-0.000000
0.000000
0.000000
-0.000000
0.000000
0.000000
0.000000
-0.000000
0.000000
0.000000
0.000000
-0.000000
-0.000000
-0.000000
0.000000
-0.000000
0.000000
0.000000
0.000000
0.000000
0.000000
0.000000
-0.000000
0.000000
-0.000000
-0.000000
-0.000000
-0.000000
-0.000000
0.000000
-0.000000
0.000000
0.000000
0.000000
0.000000
-0.000000
0.000000
-0.000000
-0.000000
0.000000
0.000000
-0.000000
-0.000000
-0.000000
-0.000000
-0.000000
0.000000
-0.000000
-0.000000
-0.000000
-0.000000
-0.000000
-0.000000
-0.000000
0.000000
-0.000000
0.000000
-0.000000
-0.000000
-0.000000
0.000000
0.000000
0.000000
-0.000000
0.000000
0.000000
-0.000000
0.000000
0.000000
0.000000
0.000000
-0.000000
0.000000
0.000000
0.000000
0.000000
-0.000000
-0.000000
-0.000000
0.000000
0.000000
-0.000000
-0.000000
-0.000000
-0.000000
-0.000000
0.000000
-0.000000
0.000000
0.000000
-0.000000
-0.000000
-0.000000
0.000000
0.000000
0.000000
0.000000
-0.000000
-0.000000
-0.000000
-0.000000
0.000000
-0.000000
0.000000
-0.000000
-0.000000
-0.000000
-0.000000
-0.000000
-0.000000
-0.000000
0.000000
0.000000
-0.000000
0.000000
-0.000000
0.000000
0.000000
-0.000000
0.000000
0.000000
-0.000000
-0.000000
0.000000
0.000000
0.000000
0.000000
-0.000000
-0.000000
-0.000000
0.000000
0.000000
-0.000000
0.000000
0.000000
-0.000000
0.000000
0.000000
0.000000
0.000000
-0.000000
0.000000
0.000000
-0.000000
-0.000000
0.000000
-0.000000
-0.000000
-0.000000
-0.000000
-0.000000
-0.000000
-0.000000
0.000000
0.000000
-0.000000
-0.000000
0.000000
0.000000
0.000000
0.000000
-0.000000
-0.000000
0.000000
0.000000
-0.000000
0.000000
-0.000000
-0.000000
0.000000
0.000000
-0.000000
-0.000000
0.000000
-0.000000
0.000000
-0.000000
0.000000
-0.000000
0.000000
-0.000000
-0.000000
0.000000
-0.000000
0.000000
0.000000
0.000000
0.000000
0.000000
0.000000
0.000000
-0.000000
-0.000000
0.000000
0.000000
0.000000
0.000000
-0.000000
0.000000
-0.000000
-0.000000
-0.000000
0.000000
0.000000
0.000000
-0.000000
-0.000000
0.000000
0.000000
-0.000000
0.000000
-0.000000
-0.000000
-0.000000
0.000000
-0.000000
0.000000
0.000000
0.000000
-0.000000
0.000000
0.000000
0.000000
0.000000
0.000000
-0.000000
-0.000000
-0.000000
-0.000000
-0.000000
0.000000
0.000000
0.000000
-0.000000
0.000000
-0.000000
0.000000
-0.000000
-0.000000
0.000000
-0.000000
-0.000000
0.000000
0.000000
0.000000
0.000000
0.000000
0.000000
-0.000000
-0.000000
-0.000000
0.000000
-0.000000
0.000000
-0.000000
0.000000
-0.000000
-0.000000
-0.000000
-0.000000
0.000000
-0.000000
-0.000000
-0.000000
-0.000000
0.000000
-0.000000
0.000000
-0.000000
-0.000000
-0.000000
-0.000000
-0.000000
0.000000
-0.000000
-0.000000
-0.000000
-0.000000
-0.000000
-0.000000
0.000000
0.000000
0.000000
0.000000
-0.000000
0.000000
-0.000000
0.000000
0.000000
-0.000000
0.000000
-0.000000
0.000000
0.000000
0.000000
0.000000
-0.000000
0.000000
0.000000
0.000000
0.000000
-0.000000
0.000000
-0.000000
0.000000
0.000000
-0.000000
0.000000
-0.000000
0.000000
-0.000000
0.000000
-0.000000
-0.000000
-0.000000
0.000000
0.000000
0.000000
-0.000000
-0.000000
-0.000000
0.000000
0.000000
-0.000000
-0.000000
0.000000
-0.000000
0.000000
-0.000000
-0.000000
-0.000000
0.000000
-0.000000
-0.000000
0.000000
-0.000000
-0.000000
0.000000
-0.000000
-0.000000
0.000000
-0.000000
-0.000000
-0.000000
0.000000
-0.000000
0.000000
-0.000000
0.000000
0.000000
0.000000
-0.000000
0.000000
-0.000000
-0.000000
0.000000
0.000000
-0.000000
0.000000
-0.000000
-0.000000
-0.000000
-0.000000
0.000000
-0.000000
-0.000000
-0.000000
0.000000
-0.000000
0.000000
0.000000
-0.000000
-0.000000
-0.000000
-0.000000
-0.000000
-0.000000
-0.000000
-0.000000
0.000000
0.000000
-0.000000
0.000000
0.000000
0.000000
0.000000
0.000000
-0.000000
0.000000
0.000000
-0.000000
-0.000000
0.000000
-0.000000
0.000000
0.000000
0.000000
0.000000
-0.000000
0.000000
0.000000
0.000000
-0.000000
0.000000
0.000000
0.000000
0.000000
-0.000000
0.000000
0.000000
-0.000000
0.000000
0.000000
-0.000000
-0.000000
-0.000000
-0.000000
-0.000000
0.000000
0.000000
-0.000000
0.000000
-0.000000
-0.000000
0.000000
-0.000000
0.000000
0.000000
0.000000
0.000000
0.000000
0.000000
0.000000
0.000000
0.000000
0.000000
0.000000
-0.000000
0.000000
0.000000
-0.000000
-0.000000
-0.000000
0.000000
0.000000
-0.000000
-0.000000
-0.000000
-0.000000
0.000000
-0.000000
0.000000
0.000000
0.000000
-0.000000
-0.000000
-0.000000
0.000000
-0.000000
-0.000000
-0.000000
0.000000
-0.000000
0.000000
-0.000000
-0.000000
0.000000
-0.000000
-0.000000
-0.000000
0.000000
0.000000
-0.000000
0.000000
0.000000
0.000000
-0.000000
-0.000000
-0.000000
-0.000000
-0.000000
-0.000000
-0.000000
0.000000
0.000000
-0.000000
-0.000000
-0.000000
0.000000
0.000000
0.000000
0.000000
0.000000
-0.000000
-0.000000
0.000000
0.000000
-0.000000
-0.000000
0.000000
0.000000
0.000000
-0.000000
-0.000000
0.000000
0.000000
0.000000
0.000000
-0.000000
-0.000000
-0.000000
0.000000
0.000000
0.000000
0.000000
0.000000
0.000000
0.000000
0.000000
0.000000
-0.000000
0.000000
-0.000000
-0.000000
0.000000
0.000000
-0.000000
-0.000000
0.000000
0.000000
0.000000
0.000000
0.000000
0.000000
0.000000
0.000000
0.000000
-0.000000
-0.000000
-0.000000
0.000000
-0.000000
-0.000000
-0.000000
0.000000
-0.000000
0.000000
-0.000000
0.000000
0.000000
-0.000000
-0.000000
-0.000000
-0.000000
-0.000000
-0.000000
0.000000
-0.000000
0.000000
-0.000000
0.000000
0.000000
-0.000000
0.000000
0.000000
-0.000000
-0.000000
0.000000
0.000000
0.000000
-0.000000
-0.000000
-0.000000
0.000000
0.000000
-0.000000
0.000000
-0.000000
-0.000000
0.000000
-0.000000
-0.000000
0.000000
-0.000000
0.000000
0.000000
-0.000000
-0.000000
-0.000000
-0.000000
-0.000000
-0.000000
-0.000000
-0.000000
0.000000
0.000000
0.000000
-0.000000
0.000000
0.000000
0.000000
0.000000
0.000000
0.000000
0.000000
0.000000
0.000000
0.000000
-0.000000
-0.000000
-0.000000
-0.000000
-0.000000
-0.000000
-0.000000
0.000000
-0.000000
-0.000000
-0.000000
0.000000
-0.000000
0.000000
0.000000
-0.000000
-0.000000
-0.000000
0.000000
0.000000
0.000000
0.000000
-0.000000
-0.000000
0.000000
-0.000000
0.000000
-0.000000
-0.000000
-0.000000
0.000000
-0.000000
-0.000000
-0.000000
-0.000000
-0.000000
-0.000000
0.000000
0.000000
0.000000
0.000000
0.000000
-0.000000
-0.000000
-0.000000
-0.000000
0.000000
0.000000
0.000000
0.000000
0.000000
-0.000000
0.000000
-0.000000
-0.000000
0.000000
0.000000
-0.000000
0.000000
0.000000
-0.000000
-0.000000
0.000000
0.000000
-0.000000
0.000000
-0.000000
-0.000000
-0.000000
-0.000000
0.000000
-0.000000
0.000000
0.000000
0.000000
0.000000
-0.000000
0.000000
0.000000
-0.000000
0.000000
0.000000
0.000000
-0.000000
0.000000
-0.000000
0.000000
0.000000
0.000000
-0.000000
-0.000000
-0.000000
-0.000000
0.000000
-0.000000
-0.000000
0.000000
0.000000
0.000000
-0.000000
0.000000
-0.000000
-0.000000
-0.000000
0.000000
0.000000
0.000000
0.000000
0.000000
0.000000
-0.000000
0.000000
-0.000000
0.000000
-0.000000
-0.000000
0.000000
-0.000000
-0.000000
0.000000
-0.000000
-0.000000
0.000000
-0.000000
0.000000
-0.000000
-0.000000
-0.000000
-0.000000
-0.000000
0.000000
0.000000
0.000000
-0.000000
-0.000000
-0.000000
-0.000000
0.000000
0.000000
0.000000
0.000000
-0.000000
-0.000000
-0.000000
0.000000
0.000000
0.000000
0.000000
-0.000000
-0.000000
0.000000
0.000000
0.000000
-0.000000
0.000000
-0.000000
0.000000
-0.000000
0.000000
-0.000000
0.000000
0.000000
0.000000
0.000000
0.000000
0.000000
0.000000
0.000000
0.000000
0.000000
-0.000000
0.000000
-0.000000
-0.000000
-0.000000
-0.000000
-0.000000
-0.000000
0.000000
0.000000
-0.000000
0.000000
0.000000
-0.000000
0.000000
0.000000
0.000000
0.000000
0.000000
-0.000000
-0.000000
0.000000
0.000000
0.000000
-0.000000
0.000000
0.000000
0.000000
-0.000000
-0.000000
0.000000
-0.000000
0.000000
-0.000000
-0.000000
0.000000
0.000000
-0.000000
-0.000000
-0.000000
-0.000000
-0.000000
0.000000
-0.000000
-0.000000
-0.000000
0.000000
-0.000000
0.000000
0.000000
0.000000
0.000000
0.000000
-0.000000
-0.000000
0.000000
-0.000000
0.000000
-0.000000
0.000000
0.000000
0.000000
-0.000000
0.000000
0.000000
-0.000000
0.000000
-0.000000
0.000000
-0.000000
-0.000000
-0.000000
-0.000000
-0.000000
0.000000
-0.000000
-0.000000
0.000000
0.000000
-0.000000
-0.000000
0.000000
-0.000000
0.000000
-0.000000
0.000000
0.000000
0.000000
0.000000
-0.000000
0.000000
0.000000
-0.000000
-0.000000
0.000000
0.000000
-0.000000
0.000000
-0.000000
0.000000
-0.000000
-0.000000
0.000000
0.000000
-0.000000
0.000000
-0.000000
0.000000
-0.000000
0.000000
-0.000000
0.000000
0.000000
-0.000000
0.000000
-0.000000
-0.000000
-0.000000
0.000000
0.000000
0.000000
-0.000000
-0.000000
-0.000000
-0.000000
-0.000000
0.000000
0.000000
0.000000
-0.000000
-0.000000
0.000000
-0.000000
-0.000000
0.000000
-0.000000
0.000000
-0.000000
0.000000
0.000000
-0.000000
0.000000
-0.000000
0.000000
0.000000
-0.000000
-0.000000
0.000000
0.000000
0.000000
-0.000000
0.000000
0.000000
-0.000000
0.000000
-0.000000
0.000000
-0.000000
-0.000000
-0.000000
-0.000000
0.000000
-0.000000
0.000000
0.000000
-0.000000
0.000000
-0.000000
-0.000000
0.000000
0.000000
-0.000000
-0.000000
-0.000000
0.000000
0.000000
-0.000000
0.000000
0.000000
-0.000000
0.000000
0.000000
0.000000
-0.000000
-0.000000
-0.000000
0.000000
0.000000
-0.000000
0.000000
0.000000
0.000000
0.000000
-0.000000
-0.000000
-0.000000
-0.000000
0.000000
-0.000000
-0.000000
0.000000
0.000000
-0.000000
-0.000000
-0.000000
-0.000000
0.000000
-0.000000
0.000000
0.000000
-0.000000
0.000000
-0.000000
0.000000
0.000000
-0.000000
0.000000
-0.000000
-0.000000
-0.000000
-0.000000
-0.000000
-0.000000
0.000000
0.000000
-0.000000
0.000000
0.000000
0.000000
-0.000000
0.000000
-0.000000
-0.000000
0.000000
-0.000000
-0.000000
-0.000000
0.000000
0.000000
0.000000
-0.000000
0.000000
-0.000000
0.000000
-0.000000
0.000000
-0.000000
-0.000000
-0.000000
-0.000000
-0.000000
0.000000
-0.000000
0.000000
0.000000
0.000000
0.000000
0.000000
0.000000
-0.000000
-0.000000
0.000000
-0.000000
0.000000
-0.000000
0.000000
0.000000
-0.000000
-0.000000
0.000000
0.000000
0.000000
-0.000000
0.000000
0.000000
0.000000
0.000000
0.000000
-0.000000
-0.000000
-0.000000
-0.000000
0.000000
0.000000
0.000000
0.000000
-0.000000
0.000000
-0.000000
-0.000000
0.000000
0.000000
-0.000000
-0.000000
0.000000
-0.000000
0.000000
0.000000
0.000000
-0.000000
0.000000
-0.000000
-0.000000
-0.000000
0.000000
0.000000
0.000000
-0.000000
0.000000
0.000000
0.000000
-0.000000
-0.000000
SCALARS UY float 1
LOOKUP_TABLE default
0.000000
-0.000000
-0.000000
-0.000000
-0.000000
-0.000000
0.000000
-0.000000
-0.000000
0.000000
-0.000000
0.000000
0.000000
0.000000
-0.000000
-0.000000
-0.000000
-0.000000
0.000000
0.000000
0.000000
-0.000000
-0.000000
0.000000
0.000000
-0.000000
-0.000000
0.000000
0.000000
-0.000000
-0.000000
0.000000
-0.000000
-0.000000
0.000000
-0.000000
-0.000000
0.000000
-0.000000
0.000000
-0.000000
0.000000
-0.000000
0.000000
0.000000
-0.000000
0.000000
0.000000
0.000000
-0.000000
0.000000
0.000000
-0.000000
0.000000
-0.000000
-0.000000
0.000000
-0.000000
-0.000000
0.000000
0.000000
-0.000000
-0.000000
0.000000
0.000000
-0.000000
-0.000000
-0.000000
0.000000
0.000000
0.000000
-0.000000
-0.000000
-0.000000
0.000000
0.000000
0.000000
0.000000
0.000000
-0.000000
0.000000
-0.000000
0.000000
-0.000000
-0.000000
-0.000000
-0.000000
0.000000
0.000000
0.000000
-0.000000
-0.000000
-0.000000
0.000000
0.000000
-0.000000
0.000000
-0.000000
0.000000
0.000000
0.000000
0.000000
0.000000
-0.000000
0.000000
0.000000
-0.000000
-0.000000
-0.000000
-0.000000
0.000000
0.000000
0.000000
0.000000
0.000000
0.000000
0.000000
0.000000
-0.000000
-0.000000
-0.000000
-0.000000
0.000000
0.000000
0.000000
0.000000
-0.000000
-0.000000
-0.000000
0.000000
0.000000
-0.000000
-0.000000
-0.000000
0.000000
0.000000
-0.000000
-0.000000
0.000000
0.000000
-0.000000
0.000000
0.000000
-0.000000
-0.000000
0.000000
0.000000
-0.000000
-0.000000
-0.000000
-0.000000
-0.000000
-0.000000
-0.000000
-0.000000
0.000000
0.000000
0.000000
0.000000
0.000000
-0.000000
-0.000000
-0.000000
-0.000000
0.000000
0.000000
0.000000
0.000000
0.000000
0.000000
0.000000
0.000000
0.000000
-0.000000
-0.000000
-0.000000
-0.000000
-0.000000
-0.000000
-0.000000
-0.000000
-0.000000
-0.000000
-0.000000
-0.000000
-0.000000
0.000000
-0.000000
-0.000000
0.000000
0.000000
0.000000
0.000000
0.000000
0.000000
0.000000
0.000000
-0.000000
-0.000000
0.000000
-0.000000
-0.000000
-0.000000
-0.000000
0.000000
0.000000
-0.000000
0.000000
-0.000000
0.000000
0.000000
-0.000000
-0.000000
-0.000000
-0.000000
-0.000000
-0.000000
-0.000000
-0.000000
-0.000000
-0.000000
-0.000000
0.000000
-0.000000
-0.000000
-0.000000
-0.000000
-0.000000
-0.000000
-0.000000
0.000000
0.000000
0.000000
0.000000
0.000000
0.000000
0.000000
0.000000
0.000000
-0.000000
-0.000000
-0.000000
-0.000000
0.000000
0.000000
0.000000
0.000000
0.000000
0.000000
-0.000000
-0.000000
0.000000
-0.000000
-0.000000
0.000000
-0.000000
-0.000000
-0.000000
-0.000000
0.000000
0.000000
-0.000000
-0.000000
0.000000
0.000000
-0.000000
-0.000000
0.000000
0.000000
-0.000000
-0.000000
-0.000000
0.000000
0.000000
0.000000
-0.000000
-0.000000
0.000000
0.000000
0.000000
0.000000
-0.000000
-0.000000
-0.000000
-0.000000
0.000000
0.000000
0.000000
0.000000
0.000000
0.000000
-0.000000
-0.000000
0.000000
0.000000
-0.000000
0.000000
0.000000
-0.000000
-0.000000
-0.000000
-0.000000
-0.000000
-0.000000
-0.000000
-0.000000
-0.000000
-0.000000
-0.000000
0.000000
0.000000
0.000000
0.000000
0.000000
-0.000000
-0.000000
-0.000000
-0.000000
-0.000000
0.000000
-0.000000
-0.000000
0.000000
-0.000000
0.000000
-0.000000
0.000000
0.000000
-0.000000
-0.000000
-0.000000
-0.000000
0.000000
0.000000
-0.000000
-0.000000
0.000000
-0.000000
0.000000
0.000000
0.000000
0.000000
0.000000
0.000000
0.000000
0.000000
0.000000
0.000000
0.000000
0.000000
0.000000
-0.000000
-0.000000
-0.000000
0.000000
-0.000000
0.000000
0.000000
0.000000
0.000000
0.000000
0.000000
0.000000
0.000000
0.000000
0.000000
0.000000
0.000000
0.000000
-0.000000
-0.000000
-0.000000
0.000000
0.000000
-0.000000
-0.000000
-0.000000
0.000000
0.000000
-0.000000
-0.000000
0.000000
0.000000
-0.000000
0.000000
0.000000
-0.000000
0.000000
-0.000000
-0.000000
-0.000000
-0.000000
-0.000000
-0.000000
0.000000
-0.000000
0.000000
0.000000
0.000000
0.000000
-0.000000
-0.000000
-0.000000
-0.000000
-0.000000
-0.000000
-0.000000
-0.000000
-0.000000
0.000000
-0.000000
-0.000000
-0.000000
-0.000000
-0.000000
-0.000000
-0.000000
0.000000
0.000000
0.000000
0.000000
0.000000
-0.000000
-0.000000
-0.000000
0.000000
-0.000000
0.000000
0.000000
0.000000
0.000000
-0.000000
0.000000
-0.000000
0.000000
0.000000
0.000000
0.000000
-0.000000
-0.000000
-0.000000
0.000000
0.000000
0.000000
-0.000000
0.000000
0.000000
0.000000
0.000000
0.000000
0.000000
-0.000000
-0.000000
0.000000
0.000000
0.000000
-0.000000
-0.000000
-0.000000
0.000000
-0.000000
-0.000000
-0.000000
0.000000
-0.000000
0.000000
0.000000
0.000000
-0.000000
-0.000000
0.000000
-0.000000
-0.000000
0.000000
0.000000
0.000000
-0.000000
0.000000
0.000000
0.000000
0.000000
-0.000000
0.000000
0.000000
0.000000
0.000000
0.000000
-0.000000
-0.000000
0.000000
-0.000000
-0.000000
0.000000
0.000000
-0.000000
0.000000
0.000000
-0.000000
-0.000000
-0.000000
-0.000000
-0.000000
-0.000000
0.000000
-0.000000
-0.000000
0.000000
0.000000
0.000000
-0.000000
-0.000000
-0.000000
0.000000
-0.000000
0.000000
-0.000000
0.000000
-0.000000
-0.000000
-0.000000
-0.000000
0.000000
0.000000
-0.000000
-0.000000
0.000000
0.000000
0.000000
-0.000000
-0.000000
-0.000000
0.000000
-0.000000
0.000000
0.000000
-0.000000
0.000000
-0.000000
0.000000
-0.000000
-0.000000
-0.000000
-0.000000
-0.000000
-0.000000
-0.000000
-0.000000
-0.000000
-0.000000
-0.000000
0.000000
-0.000000
-0.000000
-0.000000
0.000000
-0.000000
-0.000000
0.000000
-0.000000
0.000000
-0.000000
-0.000000
0.000000
0.000000
0.000000
0.000000
-0.000000
0.000000
0.000000
0.000000
-0.000000
0.000000
0.000000
-0.000000
-0.000000
0.000000
0.000000
-0.000000
0.000000
-0.000000
0.000000
0.000000
-0.000000
-0.000000
-0.000000
0.000000
0.000000
0.000000
-0.000000
-0.000000
-0.000000
0.000000
-0.000000
0.000000
-0.000000
0.000000
0.000000
-0.000000
0.000000
0.000000
0.000000
0.000000
0.000000
-0.000000
-0.000000
-0.000000
-0.000000
-0.000000
-0.000000
0.000000
0.000000
0.000000
-0.000000
-0.000000
-0.000000
0.000000
0.000000
-0.000000
0.000000
0.000000
0.000000
0.000000
0.000000
0.000000
0.000000
-0.000000
-0.000000
-0.000000
0.000000
0.000000
-0.000000
0.000000
0.000000
-0.000000
-0.000000
-0.000000
-0.000000
-0.000000
0.000000
-0.000000
-0.000000
-0.000000
0.000000
-0.000000
-0.000000
0.000000
0.000000
0.000000
0.000000
0.000000
-0.000000
-0.000000
-0.000000
-0.000000
-0.000000
-0.000000
0.000000
0.000000
0.000000
0.000000
0.000000
-0.000000
0.000000
-0.000000
-0.000000
-0.000000
0.000000
0.000000
-0.000000
-0.000000
-0.000000
0.000000
0.000000
-0.000000
-0.000000
-0.000000
-0.000000
-0.000000
-0.000000
-0.000000
0.000000
-0.000000
-0.000000
-0.000000
0.000000
-0.000000
0.000000
0.000000
-0.000000
-0.000000
0.000000
0.000000
-0.000000
-0.000000
-0.000000
-0.000000
-0.000000
-0.000000
-0.000000
-0.000000
-0.000000
-0.000000
0.000000
0.000000
-0.000000
0.000000
-0.000000
0.000000
-0.000000
0.000000
-0.000000
0.000000
-0.000000
-0.000000
0.000000
-0.000000
-0.000000
0.000000
0.000000
-0.000000
-0.000000
0.000000
0.000000
0.000000
0.000000
-0.000000
0.000000
-0.000000
-0.000000
-0.000000
0.000000
-0.000000
0.000000
0.000000
0.000000
-0.000000
-0.000000
-0.000000
0.000000
0.000000
0.000000
-0.000000
-0.000000
-0.000000
-0.000000
-0.000000
-0.000000
-0.000000
0.000000
-0.000000
0.000000
-0.000000
-0.000000
0.000000
-0.000000
-0.000000
-0.000000
-0.000000
0.000000
-0.000000
0.000000
0.000000
0.000000
-0.000000
-0.000000
0.000000
0.000000
0.000000
-0.000000
-0.000000
-0.000000
-0.000000
-0.000000
0.000000
0.000000
0.000000
-0.000000
0.000000
0.000000
-0.000000
-0.000000
-0.000000
-0.000000
-0.000000
-0.000000
-0.000000
0.000000
0.000000
0.000000
0.000000
0.000000
0.000000
-0.000000
0.000000
0.000000
0.000000
-0.000000
0.000000
-0.000000
0.000000
-0.000000
-0.000000
0.000000
0.000000
-0.000000
0.000000
-0.000000
-0.000000
-0.000000
0.000000
0.000000
0.000000
0.000000
0.000000
0.000000
0.000000
-0.000000
-0.000000
-0.000000
-0.000000
-0.000000
0.000000
0.000000
0.000000
0.000000
0.000000
0.000000
0.000000
-0.000000
0.000000
-0.000000
-0.000000
-0.000000
-0.000000
0.000000
-0.000000
-0.000000
-0.000000
-0.000000
-0.000000
-0.000000
-0.000000
0.000000
0.000000
0.000000
0.000000
-0.000000
0.000000
0.000000
-0.000000
-0.000000
0.000000
0.000000
0.000000
0.000000
-0.000000
-0.000000
0.000000
-0.000000
-0.000000
0.000000
0.000000
-0.000000
0.000000
0.000000
-0.000000
-0.000000
-0.000000
0.000000
0.000000
0.000000
-0.000000
0.000000
-0.000000
-0.000000
-0.000000
-0.000000
0.000000
0.000000
0.000000
0.000000
0.000000
-0.000000
-0.000000
0.000000
-0.000000
-0.000000
0.000000
0.000000
0.000000
0.000000
0.000000
-0.000000
0.000000
0.000000
0.000000
0.000000
0.000000
-0.000000
0.000000
-0.000000
0.000000
0.000000
0.000000
-0.000000
-0.000000
0.000000
0.000000
-0.000000
-0.000000
-0.000000
0.000000
0.000000
0.000000
0.000000
-0.000000
-0.000000
0.000000
0.000000
0.000000
0.000000
-0.000000
0.000000
0.000000
0.000000
-0.000000
-0.000000
-0.000000
-0.000000
0.000000
0.000000
0.000000
-0.000000
0.000000
0.000000
0.000000
-0.000000
-0.000000
0.000000
0.000000
-0.000000
-0.000000
-0.000000
0.000000
0.000000
0.000000
0.000000
-0.000000
-0.000000
0.000000
0.000000
-0.000000
0.000000
-0.000000
-0.000000
-0.000000
0.000000
-0.000000
-0.000000
-0.000000
-0.000000
0.000000
0.000000
-0.000000
0.000000
0.000000
0.000000
0.000000
0.000000
0.000000
-0.000000
0.000000
-0.000000
0.000000
-0.000000
0.000000
0.000000
-0.000000
0.000000
-0.000000
0.000000
0.000000
0.000000
0.000000
-0.000000
0.000000
0.000000
0.000000
-0.000000
0.000000
-0.000000
-0.000000
0.000000
0.000000
0.000000
0.000000
0.000000
0.000000
0.000000
0.000000
0.000000
0.000000
0.000000
0.000000
0.000000
-0.000000
-0.000000
-0.000000
-0.000000
0.000000
-0.000000
0.000000
-0.000000
0.000000
0.000000
0.000000
0.000000
0.000000
0.000000
-0.000000
-0.000000
0.000000
0.000000
0.000000
-0.000000
0.000000
0.000000
-0.000000
-0.000000
-0.000000
0.000000
-0.000000
0.000000
0.000000
-0.000000
-0.000000
-0.000000
-0.000000
-0.000000
-0.000000
0.000000
0.000000
0.000000
0.000000
0.000000
0.000000
0.000000
-0.000000
-0.000000
-0.000000
-0.000000
0.000000
0.000000
0.000000
-0.000000
0.000000
0.000000
-0.000000
0.000000
0.000000
-0.000000
-0.000000
0.000000
-0.000000
-0.000000
-0.000000
-0.000000
-0.000000
0.000000
0.000000
0.000000
0.000000
-0.000000
-0.000000
-0.000000
0.000000
-0.000000
0.000000
0.000000
0.000000
0.000000
0.000000
-0.000000
-0.000000
-0.000000
0.000000
-0.000000
-0.000000
-0.000000
0.000000
0.000000
0.000000
0.000000
0.000000
0.000000
0.000000
0.000000
0.000000
-0.000000
-0.000000
-0.000000
0.000000
0.000000
0.000000
-0.000000
-0.000000
0.000000
-0.000000
-0.000000
0.000000
-0.000000
0.000000
0.000000
-0.000000
-0.000000
0.000000
-0.000000
0.000000
-0.000000
0.000000
0.000000
-0.000000
0.000000
0.000000
0.000000
-0.000000
-0.000000
0.000000
-0.000000
0.000000
0.000000
0.000000
0.000000
0.000000
-0.000000
-0.000000
-0.000000
0.000000
0.000000
-0.000000
-0.000000
-0.000000
0.000000
-0.000000
-0.000000
-0.000000
-0.000000
-0.000000
-0.000000
0.000000
0.000000
-0.000000
-0.000000
-0.000000
-0.000000
-0.000000
0.000000
0.000000
0.000000
-0.000000
-0.000000
-0.000000
-0.000000
0.000000
-0.000000
0.000000
-0.000000
0.000000
0.000000
-0.000000
0.000000
-0.000000
-0.000000
-0.000000
0.000000
0.000000
0.000000
-0.000000
0.000000
0.000000
0.000000
0.000000
-0.000000
-0.000000
-0.000000
-0.000000
-0.000000
0.000000
0.000000
0.000000
0.000000
-0.000000
0.000000
0.000000
0.000000
-0.000000
-0.000000
0.000000
-0.000000
-0.000000
-0.000000
-0.000000
-0.000000
-0.000000
-0.000000
-0.000000
-0.000000
-0.000000
-0.000000
-0.000000
-0.000000
-0.000000
0.000000
-0.000000
0.000000
-0.000000
-0.000000
-0.000000
0.000000
-0.000000
0.000000
0.000000
-0.000000
-0.000000
-0.000000
-0.000000
-0.000000
-0.000000
-0.000000
0.000000
0.000000
0.000000
-0.000000
-0.000000
-0.000000
-0.000000
-0.000000
0.000000
0.000000
-0.000000
0.000000
0.000000
-0.000000
0.000000
0.000000
0.000000
0.000000
-0.000000
-0.000000
0.000000
0.000000
0.000000
0.000000
-0.000000
0.000000
-0.000000
-0.000000
0.000000
-0.000000
0.000000
-0.000000
0.000000
-0.000000
0.000000
-0.000000
0.000000
0.000000
0.000000
0.000000
0.000000
0.000000
0.000000
-0.000000
0.000000
-0.000000
0.000000
-0.000000
0.000000
-0.000000
0.000000
-0.000000
-0.000000
0.000000
-0.000000
-0.000000
-0.000000
0.000000
0.000000
0.000000
0.000000
0.000000
0.000000
0.000000
0.000000
0.000000
0.000000
0.000000
-0.000000
-0.000000
0.000000
0.000000
0.000000
0.000000
-0.000000
0.000000
0.000000
0.000000
0.000000
0.000000
-0.000000
0.000000
0.000000
-0.000000
-0.000000
-0.000000
0.000000
0.000000
0.000000
0.000000
0.000000
-0.000000
0.000000
0.000000
0.000000
-0.000000
-0.000000
0.000000
0.000000
-0.000000
0.000000
-0.000000
0.000000
-0.000000
-0.000000
0.000000
-0.000000
-0.000000
-0.000000
-0.000000
0.000000
0.000000
0.000000
0.000000
0.000000
0.000000
0.000000
-0.000000
-0.000000
0.000000
-0.000000
-0.000000
-0.000000
0.000000
0.000000
-0.000000
0.000000
-0.000000
-0.000000
0.000000
0.000000
0.000000
0.000000
0.000000
0.000000
-0.000000
0.000000
-0.000000
0.000000
-0.000000
-0.000000
-0.000000
-0.000000
-0.000000
0.000000
-0.000000
-0.000000
-0.000000
-0.000000
0.000000
-0.000000
0.000000
0.000000
-0.000000
0.000000
0.000000
0.000000
0.000000
0.000000
0.000000
-0.000000
0.000000
-0.000000
-0.000000
0.000000
0.000000
-0.000000
0.000000
-0.000000
-0.000000
-0.000000
-0.000000
-0.000000
0.000000
0.000000
0.000000
-0.000000
0.000000
0.000000
0.000000
-0.000000
0.000000
-0.000000
0.000000
0.000000
-0.000000
0.000000
0.000000
-0.000000
-0.000000
-0.000000
0.000000
0.000000
-0.000000
0.000000
0.000000
0.000000
0.000000
0.000000
0.000000
-0.000000
-0.000000
-0.000000
-0.000000
0.000000
-0.000000
-0.000000
-0.000000
-0.000000
0.000000
-0.000000
0.000000
-0.000000
-0.000000
-0.000000
0.000000
0.000000
-0.000000
-0.000000
-0.000000
-0.000000
-0.000000
-0.000000
-0.000000
0.000000
0.000000
0.000000
0.000000
-0.000000
0.000000
-0.000000
-0.000000
-0.000000
0.000000
-0.000000
0.000000
-0.000000
-0.000000
-0.000000
-0.000000
0.000000
-0.000000
-0.000000
-0.000000
0.000000
0.000000
-0.000000
0.000000
0.000000
-0.000000
0.000000
0.000000
0.000000
-0.000000
0.000000
0.000000
0.000000
-0.000000
0.000000
0.000000
-0.000000
0.000000
-0.000000
0.000000
-0.000000
0.000000
0.000000
0.000000
0.000000
-0.000000
0.000000
0.000000
-0.000000
-0.000000
-0.000000
0.000000
0.000000
0.000000
0.000000
-0.000000
-0.000000
-0.000000
-0.000000
0.000000
-0.000000
-0.000000
-0.000000
0.000000
0.000000
-0.000000
-0.000000
0.000000
-0.000000
0.000000
-0.000000
-0.000000
0.000000
-0.000000
-0.000000
-0.000000
-0.000000
-0.000000
-0.000000
-0.000000
-0.000000
0.000000
-0.000000
-0.000000
-0.000000
-0.000000
-0.000000
0.000000
0.000000
-0.000000
-0.000000
-0.000000
0.000000
0.000000
0.000000
0.000000
0.000000
-0.000000
-0.000000
-0.000000
-0.000000
-0.000000
-0.000000
0.000000
0.000000
0.000000
-0.000000
0.000000
0.000000
-0.000000
-0.000000
0.000000
-0.000000
0.000000
0.000000
0.000000
-0.000000
-0.000000
0.000000
0.000000
-0.000000
0.000000
-0.000000
-0.000000
0.000000
-0.000000
-0.000000
-0.000000
-0.000000
-0.000000
0.000000
0.000000
-0.000000
0.000000
-0.000000
0.000000
-0.000000
-0.000000
0.000000
0.000000
0.000000
0.000000
0.000000
0.000000
0.000000
0.000000
0.000000
0.000000
0.000000
0.000000
-0.000000
0.000000
-0.000000
0.000000
-0.000000
-0.000000
-0.000000
-0.000000
-0.000000
-0.000000
-0.000000
0.000000
0.000000
0.000000
-0.000000
0.000000
0.000000
-0.000000
-0.000000
-0.000000
-0.000000
0.000000
0.000000
0.000000
0.000000
0.000000
0.000000
-0.000000
-0.000000
0.000000
-0.000000
-0.000000
-0.000000
0.000000
0.000000
0.000000
-0.000000
0.000000
-0.000000
-0.000000
-0.000000
0.000000
0.000000
0.000000
-0.000000
-0.000000
-0.000000
-0.000000
0.000000
-0.000000
-0.000000
0.000000
0.000000
-0.000000
-0.000000
0.000000
-0.000000
-0.000000
0.000000
0.000000
0.000000
-0.000000
0.000000
-0.000000
-0.000000
-0.000000
-0.000000
-0.000000
-0.000000
-0.000000
-0.000000
-0.000000
-0.000000
0.000000
0.000000
0.000000
0.000000
-0.000000
0.000000
-0.000000
0.000000
-0.000000
-0.000000
-0.000000
-0.000000
0.000000
0.000000
-0.000000
-0.000000
0.000000
-0.000000
0.000000
-0.000000
-0.000000
0.000000
-0.000000
-0.000000
-0.000000
-0.000000
0.000000
0.000000
0.000000
0.000000
0.000000
0.000000
0.000000
-0.000000
0.000000
0.000000
-0.000000
0.000000
0.000000
0.000000
0.000000
-0.000000
-0.000000
-0.000000
-0.000000
0.000000
-0.000000
-0.000000
0.000000
0.000000
0.000000
0.000000
0.000000
-0.000000
-0.000000
0.000000
-0.000000
-0.000000
-0.000000
0.000000
-0.000000
-0.000000
-0.000000
0.000000
-0.000000
0.000000
0.000000
0.000000
0.000000
0.000000
-0.000000
-0.000000
-0.000000
0.000000
0.000000
0.000000
-0.000000
0.000000
0.000000
-0.000000
0.000000
0.000000
-0.000000
-0.000000
0.000000
-0.000000
-0.000000
0.000000
0.000000
-0.000000
-0.000000
0.000000
0.000000
-0.000000
0.000000
-0.000000
-0.000000
-0.000000
0.000000
0.000000
-0.000000
-0.000000
0.000000
-0.000000
-0.000000
-0.000000
-0.000000
-0.000000
-0.000000
0.000000
-0.000000
0.000000
0.000000
-0.000000
0.000000
-0.000000
-0.000000
0.000000
-0.000000
0.000000
-0.000000
-0.000000
-0.000000
-0.000000
-0.000000
0.000000
-0.000000
0.000000
0.000000
-0.000000
-0.000000
0.000000
0.000000
-0.000000
0.000000
0.000000
-0.000000
-0.000000
0.000000
-0.000000
-0.000000
0.000000
0.000000
0.000000
-0.000000
0.000000
-0.000000
0.000000
0.000000
0.000000
0.000000
0.000000
0.000000
0.000000
-0.000000
0.000000
0.000000
0.000000
-0.000000
0.000000
0.000000
-0.000000
-0.000000
0.000000
0.000000
-0.000000
0.000000
-0.000000
0.000000
-0.000000
-0.000000
0.000000
0.000000
-0.000000
0.000000
0.000000
0.000000
0.000000
0.000000
-0.000000
-0.000000
-0.000000
-0.000000
-0.000000
-0.000000
-0.000000
-0.000000
-0.000000
-0.000000
-0.000000
0.000000
0.000000
-0.000000
-0.000000
-0.000000
-0.000000
0.000000
0.000000
0.000000
-0.000000
0.000000
-0.000000
-0.000000
-0.000000
-0.000000
0.000000
-0.000000
-0.000000
0.000000
0.000000
0.000000
0.000000
-0.000000
-0.000000
-0.000000
0.000000
0.000000
0.000000
-0.000000
0.000000
-0.000000
-0.000000
-0.000000
0.000000
-0.000000
-0.000000
0.000000
-0.000000
-0.000000
0.000000
-0.000000
0.000000
-0.000000
-0.000000
-0.000000
0.000000
0.000000
0.000000
0.000000
0.000000
0.000000
-0.000000
0.000000
-0.000000
-0.000000
-0.000000
0.000000
0.000000
0.000000
-0.000000
-0.000000
0.000000
0.000000
-0.000000
-0.000000
0.000000
0.000000
-0.000000
-0.000000
-0.000000
-0.000000
-0.000000
0.000000
-0.000000
-0.000000
-0.000000
-0.000000
-0.000000
-0.000000
-0.000000
-0.000000
-0.000000
0.000000
0.000000
0.000000
0.000000
0.000000
-0.000000
0.000000
0.000000
-0.000000
-0.000000
-0.000000
0.000000
-0.000000
0.000000
-0.000000
-0.000000
-0.000000
0.000000
0.000000
-0.000000
0.000000
0.000000
0.000000
0.000000
-0.000000
0.000000
0.000000
0.000000
-0.000000
0.000000
0.000000
-0.000000
-0.000000
-0.000000
-0.000000
-0.000000
-0.000000
0.000000
-0.000000
0.000000
-0.000000
-0.000000
-0.000000
-0.000000
-0.000000
-0.000000
0.000000
0.000000
-0.000000
-0.000000
-0.000000
0.000000
0.000000
-0.000000
0.000000
-0.000000
0.000000
-0.000000
-0.000000
0.000000
-0.000000
0.000000
-0.000000
0.000000
-0.000000
-0.000000
-0.000000
-0.000000
0.000000
-0.000000
0.000000
-0.000000
-0.000000
0.000000
0.000000
0.000000
0.000000
0.000000
-0.000000
0.000000
-0.000000
0.000000
0.000000
-0.000000
-0.000000
-0.000000
-0.000000
0.000000
0.000000
0.000000
0.000000
0.000000
-0.000000
0.000000
-0.000000
-0.000000
0.000000
-0.000000
0.000000
-0.000000
-0.000000
0.000000
0.000000
0.000000
-0.000000
0.000000
-0.000000
-0.000000
-0.000000
-0.000000
-0.000000
0.000000
0.000000
-0.000000
0.000000
-0.000000
0.000000
0.000000
-0.000000
-0.000000
-0.000000
-0.000000
-0.000000
-0.000000
0.000000
0.000000
-0.000000
-0.000000
0.000000
0.000000
0.000000
-0.000000
0.000000
0.000000
0.000000
0.000000
0.000000
0.000000
0.000000
0.000000
0.000000
-0.000000
0.000000
0.000000
-0.000000
0.000000
0.000000
0.000000
-0.000000
0.000000
0.000000
0.000000
0.000000
-0.000000
0.000000
0.000000
-0.000000
-0.000000
-0.000000
-0.000000
-0.000000
-0.000000
-0.000000
-0.000000
0.000000
-0.000000
0.000000
0.000000
0.000000
0.000000
0.000000
-0.000000
-0.000000
-0.000000
-0.000000
0.000000
0.000000
0.000000
-0.000000
-0.000000
0.000000
0.000000
0.000000
-0.000000
-0.000000
-0.000000
-0.000000
0.000000
-0.000000
-0.000000
0.000000
0.000000
-0.000000
-0.000000
-0.000000
0.000000
0.000000
0.000000
-0.000000
0.000000
0.000000
0.000000
0.000000
0.000000
-0.000000
-0.000000
0.000000
0.000000
-0.000000
0.000000
0.000000
-0.000000
-0.000000
-0.000000
-0.000000
-0.000000
-0.000000
-0.000000
-0.000000
-0.000000
-0.000000
-0.000000
-0.000000
-0.000000
-0.000000
0.000000
0.000000
0.000000
0.000000
0.000000
0.000000
0.000000
0.000000
-0.000000
-0.000000
-0.000000
0.000000
0.000000
-0.000000
0.000000
-0.000000
-0.000000
-0.000000
-0.000000
-0.000000
-0.000000
-0.000000
-0.000000
-0.000000
0.000000
-0.000000
0.000000
-0.000000
0.000000
0.000000
0.000000
0.000000
0.000000
-0.000000
-0.000000
0.000000
0.000000
0.000000
0.000000
-0.000000
-0.000000
0.000000
0.000000
0.000000
-0.000000
-0.000000
-0.000000
-0.000000
-0.000000
-0.000000
-0.000000
0.000000
0.000000
0.000000
0.000000
0.000000
0.000000
-0.000000
0.000000
-0.000000
0.000000
0.000000
0.000000
0.000000
-0.000000
0.000000
-0.000000
0.000000
0.000000
0.000000
-0.000000
0.000000
0.000000
0.000000
-0.000000
0.000000
-0.000000
-0.000000
0.000000
-0.000000
-0.000000
0.000000
-0.000000
-0.000000
-0.000000
0.000000
-0.000000
-0.000000
-0.000000
-0.000000
-0.000000
-0.000000
0.000000
-0.000000
-0.000000
-0.000000
-0.000000
0.000000
0.000000
-0.000000
-0.000000
0.000000
0.000000
0.000000
-0.000000
-0.000000
-0.000000
-0.000000
-0.000000
-0.000000
0.000000
0.000000
-0.000000
0.000000
0.000000
0.000000
-0.000000
-0.000000
0.000000
-0.000000
-0.000000
-0.000000
-0.000000
-0.000000
-0.000000
-0.000000
-0.000000
0.000000
0.000000
-0.000000
0.000000
-0.000000
0.000000
0.000000
-0.000000
0.000000
-0.000000
-0.000000
0.000000
-0.000000
0.000000
-0.000000
-0.000000
-0.000000
-0.000000
-0.000000
0.000000
-0.000000
-0.000000
0.000000
-0.000000
0.000000
-0.000000
-0.000000
-0.000000
-0.000000
-0.000000
-0.000000
-0.000000
-0.000000
-0.000000
-0.000000
-0.000000
-0.000000
-0.000000
0.000000
0.000000
0.000000
0.000000
-0.000000
-0.000000
0.000000
0.000000
0.000000
-0.000000
0.000000
-0.000000
0.000000
0.000000
-0.000000
0.000000
-0.000000
0.000000
-0.000000
0.000000
-0.000000
-0.000000
-0.000000
0.000000
0.000000
-0.000000
-0.000000
0.000000
-0.000000
0.000000
-0.000000
0.000000
-0.000000
0.000000
0.000000
0.000000
0.000000
-0.000000
-0.000000
-0.000000
-0.000000
-0.000000
-0.000000
0.000000
-0.000000
0.000000
-0.000000
-0.000000
-0.000000
-0.000000
-0.000000
0.000000
-0.000000
0.000000
-0.000000
-0.000000
0.000000
0.000000
-0.000000
-0.000000
-0.000000
-0.000000
-0.000000
0.000000
-0.000000
-0.000000
0.000000
0.000000
0.000000
-0.000000
-0.000000
-0.000000
0.000000
-0.000000
-0.000000
-0.000000
0.000000
-0.000000
0.000000
0.000000
0.000000
0.000000
0.000000
0.000000
0.000000
0.000000
0.000000
0.000000
-0.000000
-0.000000
-0.000000
-0.000000
-0.000000
0.000000
0.000000
-0.000000
0.000000
0.000000
-0.000000
-0.000000
0.000000
0.000000
-0.000000
-0.000000
0.000000
-0.000000
0.000000
0.000000
-0.000000
-0.000000
0.000000
0.000000
-0.000000
0.000000
-0.000000
0.000000
-0.000000
0.000000
0.000000
-0.000000
-0.000000
-0.000000
0.000000
0.000000
-0.000000
0.000000
0.000000
0.000000
0.000000
0.000000
0.000000
0.000000
0.000000
0.000000
0.000000
0.000000
0.000000
-0.000000
-0.000000
-0.000000
0.000000
0.000000
0.000000
0.000000
0.000000
-0.000000
-0.000000
-0.000000
-0.000000
-0.000000
0.000000
0.000000
0.000000
0.000000
0.000000
-0.000000
-0.000000
-0.000000
-0.000000
0.000000
0.000000
-0.000000
0.000000
-0.000000
-0.000000
-0.000000
-0.000000
0.000000
-0.000000
-0.000000
-0.000000
0.000000
-0.000000
0.000000
0.000000
-0.000000
-0.000000
0.000000
-0.000000
-0.000000
-0.000000
0.000000
0.000000
-0.000000
-0.000000
-0.000000
0.000000
-0.000000
0.000000
0.000000
-0.000000
-0.000000
0.000000
0.000000
-0.000000
0.000000
-0.000000
-0.000000
0.000000
-0.000000
0.000000
-0.000000
-0.000000
-0.000000
-0.000000
0.000000
0.000000
0.000000
0.000000
0.000000
0.000000
0.000000
0.000000
-0.000000
0.000000
0.000000
0.000000
-0.000000
0.000000
0.000000
-0.000000
0.000000
0.000000
-0.000000
-0.000000
-0.000000
-0.000000
0.000000
0.000000
0.000000
0.000000
0.000000
0.000000
-0.000000
-0.000000
-0.000000
-0.000000
-0.000000
-0.000000
-0.000000
-0.000000
0.000000
0.000000
-0.000000
0.000000
0.000000
0.000000
0.000000
-0.000000
0.000000
0.000000
-0.000000
-0.000000
-0.000000
0.000000
0.000000
0.000000
-0.000000
-0.000000
-0.000000
-0.000000
-0.000000
0.000000
0.000000
-0.000000
0.000000
0.000000
0.000000
0.000000
0.000000
-0.000000
0.000000
-0.000000
-0.000000
0.000000
-0.000000
-0.000000
0.000000
0.000000
-0.000000
-0.000000
-0.000000
-0.000000
-0.000000
-0.000000
-0.000000
0.000000
0.000000
0.000000
-0.000000
0.000000
-0.000000
0.000000
0.000000
0.000000
-0.000000
0.000000
-0.000000
-0.000000
-0.000000
-0.000000
-0.000000
0.000000
0.000000
-0.000000
-0.000000
0.000000
-0.000000
-0.000000
0.000000
0.000000
-0.000000
0.000000
-0.000000
0.000000
0.000000
0.000000
-0.000000
-0.000000
0.000000
0.000000
-0.000000
0.000000
0.000000
0.000000
0.000000
0.000000
0.000000
0.000000
0.000000
0.000000
-0.000000
-0.000000
-0.000000
-0.000000
0.000000
0.000000
-0.000000
-0.000000
-0.000000
0.000000
-0.000000
0.000000
0.000000
0.000000
-0.000000
-0.000000
-0.000000
-0.000000
0.000000
0.000000
0.000000
0.000000
-0.000000
-0.000000
-0.000000
-0.000000
-0.000000
-0.000000
-0.000000
0.000000
-0.000000
-0.000000
-0.000000
0.000000
0.000000
-0.000000
0.000000
0.000000
0.000000
-0.000000
0.000000
0.000000
0.000000
-0.000000
0.000000
-0.000000
-0.000000
-0.000000
0.000000
-0.000000
-0.000000
0.000000
-0.000000
-0.000000
-0.000000
0.000000
0.000000
-0.000000
0.000000
-0.000000
-0.000000
0.000000
0.000000
0.000000
0.000000
0.000000
0.000000
0.000000
-0.000000
0.000000
0.000000
-0.000000
0.000000
0.000000
-0.000000
0.000000
-0.000000
-0.000000
-0.000000
-0.000000
0.000000
-0.000000
-0.000000
0.000000
-0.000000
0.000000
-0.000000
-0.000000
-0.000000
0.000000
0.000000
-0.000000
0.000000
-0.000000
-0.000000
-0.000000
0.000000
0.000000
-0.000000
-0.000000
-0.000000
-0.000000
-0.000000
0.000000
-0.000000
0.000000
0.000000
0.000000
0.000000
0.000000
0.000000
0.000000
-0.000000
-0.000000
0.000000
0.000000
0.000000
0.000000
0.000000
-0.000000
0.000000
0.000000
0.000000
-0.000000
0.000000
-0.000000
-0.000000
-0.000000
0.000000
-0.000000
-0.000000
0.000000
0.000000
0.000000
0.000000
0.000000
0.000000
-0.000000
-0.000000
0.000000
-0.000000
0.000000
0.000000
0.000000
-0.000000
-0.000000
-0.000000
0.000000
-0.000000
0.000000
0.000000
0.000000
0.000000
0.000000
-0.000000
0.000000
-0.000000
-0.000000
-0.000000
0.000000
-0.000000
-0.000000
-0.000000
-0.000000
-0.000000
0.000000
-0.000000
0.000000
-0.000000
-0.000000
0.000000
0.000000
0.000000
0.000000
-0.000000
-0.000000
-0.000000
0.000000
-0.000000
0.000000
0.000000
-0.000000
-0.000000
0.000000
-0.000000
0.000000
0.000000
-0.000000
-0.000000
0.000000
0.000000
-0.000000
0.000000
-0.000000
0.000000
0.000000
0.000000
0.000000
-0.000000
-0.000000
0.000000
0.000000
-0.000000
-0.000000
-0.000000
0.000000
-0.000000
0.000000
0.000000
-0.000000
0.000000
0.000000
0.000000
0.000000
0.000000
0.000000
0.000000
-0.000000
-0.000000
-0.000000
0.000000
0.000000
0.000000
-0.000000
0.000000
-0.000000
0.000000
0.000000
0.000000
0.000000
-0.000000
0.000000
-0.000000
0.000000
-0.000000
-0.000000
-0.000000
-0.000000
0.000000
0.000000
0.000000
-0.000000
0.000000
-0.000000
-0.000000
-0.000000
-0.000000
-0.000000
-0.000000
0.000000
0.000000
0.000000
0.000000
0.000000
0.000000
-0.000000
0.000000
0.000000
0.000000
0.000000
0.000000
-0.000000
0.000000
-0.000000
-0.000000
-0.000000
-0.000000
0.000000
-0.000000
0.000000
-0.000000
0.000000
0.000000
0.000000
-0.000000
0.000000
0.000000
0.000000
-0.000000
0.000000
0.000000
-0.000000
-0.000000
-0.000000
-0.000000
-0.000000
0.000000
0.000000
-0.000000
0.000000
0.000000
-0.000000
-0.000000
-0.000000
-0.000000
0.000000
-0.000000
-0.000000
0.000000
0.000000
0.000000
-0.000000
0.000000
0.000000
-0.000000
0.000000
0.000000
0.000000
0.000000
0.000000
0.000000
0.000000
0.000000
-0.000000
-0.000000
-0.000000
-0.000000
-0.000000
-0.000000
0.000000
-0.000000
-0.000000
0.000000
0.000000
0.000000
0.000000
0.000000
-0.000000
0.000000
-0.000000
-0.000000
0.000000
0.000000
0.000000
-0.000000
0.000000
0.000000
0.000000
0.000000
0.000000
-0.000000
0.000000
-0.000000
-0.000000
0.000000
0.000000
0.000000
-0.000000
0.000000
0.000000
0.000000
-0.000000
-0.000000
0.000000
0.000000
0.000000
0.000000
-0.000000
0.000000
-0.000000
0.000000
0.000000
-0.000000
0.000000
0.000000
0.000000
0.000000
-0.000000
-0.000000
0.000000
0.000000
0.000000
0.000000
-0.000000
0.000000
-0.000000
-0.000000
0.000000
0.000000
-0.000000
-0.000000
0.000000
-0.000000
0.000000
0.000000
0.000000
0.000000
0.000000
0.000000
0.000000
-0.000000
-0.000000
-0.000000
0.000000
-0.000000
0.000000
-0.000000
-0.000000
0.000000
-0.000000
0.000000
-0.000000
-0.000000
0.000000
0.000000
-0.000000
0.000000
-0.000000
-0.000000
0.000000
-0.000000
0.000000
0.000000
0.000000
-0.000000
0.000000
-0.000000
-0.000000
0.000000
0.000000
0.000000
0.000000
0.000000
0.000000
-0.000000
-0.000000
0.000000
0.000000
-0.000000
-0.000000
-0.000000
-0.000000
-0.000000
0.000000
-0.000000
0.000000
0.000000
0.000000
0.000000
0.000000
0.000000
-0.000000
0.000000
-0.000000
-0.000000
0.000000
-0.000000
0.000000
-0.000000
0.000000
-0.000000
-0.000000
0.000000
-0.000000
-0.000000
-0.000000
-0.000000
-0.000000
0.000000
-0.000000
-0.000000
-0.000000
-0.000000
0.000000
-0.000000
-0.000000
0.000000
-0.000000
0.000000
-0.000000
-0.000000
0.000000
0.000000
0.000000
-0.000000
0.000000
0.000000
-0.000000
-0.000000
-0.000000
-0.000000
0.000000
-0.000000
0.000000
-0.000000
0.000000
-0.000000
-0.000000
-0.000000
-0.000000
-0.000000
-0.000000
-0.000000
-0.000000
-0.000000
-0.000000
0.000000
0.000000
0.000000
0.000000
-0.000000
0.000000
-0.000000
-0.000000
0.000000
0.000000
0.000000
-0.000000
0.000000
-0.000000
0.000000
0.000000
0.000000
-0.000000
0.000000
-0.000000
0.000000
-0.000000
-0.000000
-0.000000
0.000000
0.000000
0.000000
0.000000
-0.000000
-0.000000
0.000000
0.000000
0.000000
-0.000000
0.000000
0.000000
-0.000000
0.000000
-0.000000
-0.000000
0.000000
0.000000
0.000000
0.000000
0.000000
0.000000
0.000000
0.000000
-0.000000
-0.000000
-0.000000
-0.000000
-0.000000
-0.000000
-0.000000
-0.000000
-0.000000
-0.000000
-0.000000
0.000000
0.000000
0.000000
0.000000
-0.000000
0.000000
0.000000
0.000000
-0.000000
-0.000000
-0.000000
0.000000
0.000000
0.000000
0.000000
0.000000
0.000000
-0.000000
0.000000
-0.000000
0.000000
-0.000000
0.000000
0.000000
0.000000
0.000000
0.000000
-0.000000
0.000000
0.000000
-0.000000
-0.000000
0.000000
0.000000
0.000000
-0.000000
-0.000000
-0.000000
-0.000000
0.000000
-0.000000
0.000000
-0.000000
0.000000
0.000000
0.000000
0.000000
0.000000
0.000000
-0.000000
-0.000000
-0.000000
-0.000000
-0.000000
0.000000
-0.000000
0.000000
-0.000000
0.000000
0.000000
0.000000
0.000000
0.000000
-0.000000
-0.000000
-0.000000
0.000000
0.000000
0.000000
0.000000
-0.000000
0.000000
-0.000000
-0.000000
0.000000
-0.000000
-0.000000
-0.000000
0.000000
-0.000000
0.000000
0.000000
0.000000
0.000000
0.000000
-0.000000
0.000000
0.000000
-0.000000
-0.000000
-0.000000
-0.000000
-0.000000
-0.000000
-0.000000
-0.000000
-0.000000
-0.000000
-0.000000
0.000000
-0.000000
-0.000000
0.000000
0.000000
0.000000
-0.000000
-0.000000
-0.000000
-0.000000
0.000000
-0.000000
-0.000000
-0.000000
0.000000
-0.000000
-0.000000
-0.000000
0.000000
-0.000000
0.000000
-0.000000
-0.000000
-0.000000
-0.000000
-0.000000
0.000000
-0.000000
-0.000000
-0.000000
-0.000000
-0.000000
-0.000000
-0.000000
-0.000000
-0.000000
-0.000000
0.000000
-0.000000
-0.000000
0.000000
0.000000
-0.000000
-0.000000
0.000000
-0.000000
-0.000000
0.000000
-0.000000
-0.000000
0.000000
-0.000000
-0.000000
-0.000000
-0.000000
-0.000000
-0.000000
0.000000
0.000000
0.000000
0.000000
0.000000
0.000000
0.000000
0.000000
0.000000
-0.000000
-0.000000
0.000000
0.000000
0.000000
-0.000000
-0.000000
-0.000000
0.000000
-0.000000
-0.000000
-0.000000
0.000000
-0.000000
0.000000
-0.000000
0.000000
-0.000000
-0.000000
-0.000000
-0.000000
-0.000000
0.000000
0.000000
-0.000000
0.000000
-0.000000
0.000000
-0.000000
-0.000000
-0.000000
0.000000
0.000000
0.000000
-0.000000
0.000000
0.000000
-0.000000
0.000000
-0.000000
-0.000000
0.000000
0.000000
-0.000000
-0.000000
-0.000000
-0.000000
0.000000
-0.000000
0.000000
0.000000
-0.000000
0.000000
-0.000000
0.000000
0.000000
0.000000
0.000000
0.000000
-0.000000
-0.000000
0.000000
-0.000000
0.000000
0.000000
0.000000
-0.000000
-0.000000
0.000000
-0.000000
0.000000
-0.000000
-0.000000
0.000000
0.000000
0.000000
-0.000000
0.000000
-0.000000
-0.000000
0.000000
-0.000000
-0.000000
0.000000
-0.000000
0.000000
-0.000000
0.000000
-0.000000
-0.000000
0.000000
0.000000
0.000000
-0.000000
-0.000000
-0.000000
-0.000000
-0.000000
-0.000000
-0.000000
-0.000000
0.000000
-0.000000
-0.000000
-0.000000
0.000000
-0.000000
-0.000000
-0.000000
-0.000000
-0.000000
-0.000000
0.000000
0.000000
-0.000000
0.000000
0.000000
-0.000000
-0.000000
-0.000000
-0.000000
-0.000000
0.000000
0.000000
-0.000000
-0.000000
-0.000000
0.000000
0.000000
-0.000000
-0.000000
-0.000000
-0.000000
-0.000000
-0.000000
-0.000000
-0.000000
-0.000000
-0.000000
0.000000
-0.000000
-0.000000
-0.000000
-0.000000
0.000000
0.000000
0.000000
-0.000000
-0.000000
0.000000
-0.000000
0.000000
-0.000000
0.000000
-0.000000
0.000000
0.000000
-0.000000
-0.000000
0.000000
0.000000
0.000000
-0.000000
-0.000000
0.000000
0.000000
-0.000000
-0.000000
-0.000000
-0.000000
-0.000000
0.000000
0.000000
0.000000
0.000000
-0.000000
-0.000000
-0.000000
-0.000000
0.000000
0.000000
-0.000000
0.000000
-0.000000
0.000000
0.000000
-0.000000
0.000000
-0.000000
-0.000000
-0.000000
0.000000
0.000000
0.000000
0.000000
0.000000
0.000000
0.000000
0.000000
-0.000000
-0.000000
-0.000000
0.000000
0.000000
-0.000000
0.000000
-0.000000
-0.000000
-0.000000
0.000000
-0.000000
-0.000000
-0.000000
0.000000
0.000000
-0.000000
0.000000
-0.000000
0.000000
0.000000
-0.000000
-0.000000
0.000000
0.000000
0.000000
0.000000
-0.000000
0.000000
0.000000
0.000000
-0.000000
-0.000000
0.000000
-0.000000
0.000000
0.000000
0.000000
-0.000000
0.000000
0.000000
0.000000
-0.000000
0.000000
0.000000
-0.000000
0.000000
-0.000000
0.000000
-0.000000
0.000000
-0.000000
0.000000
0.000000
-0.000000
0.000000
0.000000
-0.000000
0.000000
0.000000
0.000000
0.000000
-0.000000
-0.000000
-0.000000
0.000000
0.000000
-0.000000
-0.000000
0.000000
0.000000
-0.000000
-0.000000
0.000000
0.000000
-0.000000
-0.000000
-0.000000
-0.000000
-0.000000
0.000000
-0.000000
0.000000
-0.000000
-0.000000
-0.000000
-0.000000
0.000000
-0.000000
0.000000
-0.000000
-0.000000
0.000000
0.000000
-0.000000
-0.000000
-0.000000
0.000000
0.000000
-0.000000
0.000000
-0.000000
0.000000
-0.000000
-0.000000
0.000000
0.000000
-0.000000
0.000000
-0.000000
-0.000000
0.000000
-0.000000
-0.000000
0.000000
0.000000
0.000000
0.000000
0.000000
-0.000000
0.000000
0.000000
-0.000000
0.000000
-0.000000
0.000000
-0.000000
0.000000
-0.000000
0.000000
0.000000
0.000000
-0.000000
-0.000000
-0.000000
-0.000000
-0.000000
-0.000000
0.000000
0.000000
0.000000
-0.000000
-0.000000
-0.000000
-0.000000
-0.000000
0.000000
-0.000000
-0.000000
0.000000
-0.000000
-0.000000
-0.000000
0.000000
0.000000
0.000000
-0.000000
0.000000
0.000000
-0.000000
0.000000
0.000000
0.000000
0.000000
0.000000
-0.000000
-0.000000
-0.000000
-0.000000
-0.000000
-0.000000
-0.000000
0.000000
-0.000000
-0.000000
-0.000000
0.000000
0.000000
-0.000000
0.000000
0.000000
-0.000000
-0.000000
0.000000
-0.000000
0.000000
0.000000
-0.000000
0.000000
-0.000000
-0.000000
0.000000
0.000000
-0.000000
0.000000
0.000000
0.000000
-0.000000
0.000000
-0.000000
0.000000
-0.000000
0.000000
-0.000000
-0.000000
-0.000000
-0.000000
-0.000000
0.000000
0.000000
0.000000
-0.000000
0.000000
-0.000000
-0.000000
0.000000
0.000000
0.000000
0.000000
-0.000000
0.000000
0.000000
-0.000000
0.000000
-0.000000
-0.000000
-0.000000
0.000000
-0.000000
-0.000000
0.000000
-0.000000
-0.000000
0.000000
0.000000
-0.000000
-0.000000
-0.000000
-0.000000
-0.000000
0.000000
0.000000
0.000000
0.000000
-0.000000
0.000000
0.000000
0.000000
0.000000
-0.000000
-0.000000
0.000000
0.000000
0.000000
-0.000000
0.000000
0.000000
-0.000000
-0.000000
0.000000
-0.000000
-0.000000
-0.000000
-0.000000
-0.000000
-0.000000
0.000000
0.000000
0.000000
-0.000000
0.000000
-0.000000
-0.000000
-0.000000
0.000000
0.000000
-0.000000
0.000000
-0.000000
-0.000000
-0.000000
0.000000
-0.000000
0.000000
0.000000
-0.000000
0.000000
-0.000000
-0.000000
0.000000
0.000000
0.000000
-0.000000
-0.000000
-0.000000
0.000000
-0.000000
0.000000
0.000000
0.000000
-0.000000
-0.000000
0.000000
0.000000
-0.000000
-0.000000
0.000000
0.000000
-0.000000
-0.000000
-0.000000
-0.000000
0.000000
-0.000000
-0.000000
0.000000
0.000000
0.000000
0.000000
0.000000
-0.000000
0.000000
-0.000000
0.000000
-0.000000
-0.000000
0.000000
-0.000000
-0.000000
-0.000000
-0.000000
-0.000000
-0.000000
-0.000000
-0.000000
-0.000000
-0.000000
0.000000
-0.000000
0.000000
-0.000000
0.000000
0.000000
0.000000
-0.000000
0.000000
-0.000000
-0.000000
0.000000
-0.000000
-0.000000
0.000000
0.000000
0.000000
-0.000000
-0.000000
-0.000000
-0.000000
0.000000
-0.000000
-0.000000
-0.000000
-0.000000
-0.000000
-0.000000
0.000000
0.000000
0.000000
0.000000
0.000000
0.000000
-0.000000
-0.000000
0.000000
0.000000
0.000000
0.000000
0.000000
-0.000000
0.000000
-0.000000
0.000000
0.000000
0.000000
-0.000000
-0.000000
-0.000000
-0.000000
-0.000000
-0.000000
-0.000000
-0.000000
0.000000
0.000000
0.000000
-0.000000
-0.000000
0.000000
0.000000
0.000000
0.000000
-0.000000
-0.000000
-0.000000
0.000000
-0.000000
0.000000
-0.000000
0.000000
0.000000
-0.000000
-0.000000
-0.000000
0.000000
-0.000000
-0.000000
0.000000
0.000000
0.000000
-0.000000
-0.000000
-0.000000
-0.000000
-0.000000
0.000000
0.000000
-0.000000
-0.000000
-0.000000
-0.000000
-0.000000
0.000000
-0.000000
-0.000000
-0.000000
-0.000000
-0.000000
0.000000
0.000000
-0.000000
-0.000000
-0.000000
-0.000000
-0.000000
0.000000
-0.000000
-0.000000
0.000000
-0.000000
0.000000
-0.000000
-0.000000
-0.000000
0.000000
-0.000000
0.000000
-0.000000
0.000000
0.000000
0.000000
0.000000
0.000000
0.000000
0.000000
-0.000000
0.000000
0.000000
-0.000000
0.000000
0.000000
-0.000000
0.000000
0.000000
0.000000
0.000000
0.000000
0.000000
-0.000000
-0.000000
0.000000
0.000000
0.000000
-0.000000
-0.000000
0.000000
0.000000
-0.000000
-0.000000
-0.000000
-0.000000
0.000000
0.000000
-0.000000
-0.000000
0.000000
-0.000000
-0.000000
0.000000
-0.000000
-0.000000
0.000000
0.000000
0.000000
0.000000
0.000000
0.000000
-0.000000
-0.000000
-0.000000
-0.000000
0.000000
0.000000
0.000000
0.000000
-0.000000
0.000000
0.000000
0.000000
0.000000
0.000000
-0.000000
-0.000000
0.000000
-0.000000
-0.000000
0.000000
-0.000000
0.000000
-0.000000
-0.000000
0.000000
-0.000000
0.000000
0.000000
0.000000
0.000000
0.000000
0.000000
0.000000
-0.000000
-0.000000
-0.000000
-0.000000
-0.000000
0.000000
-0.000000
-0.000000
0.000000
0.000000
-0.000000
0.000000
0.000000
0.000000
0.000000
0.000000
0.000000
-0.000000
0.000000
0.000000
0.000000
-0.000000
-0.000000
0.000000
0.000000
0.000000
0.000000
0.000000
0.000000
-0.000000
-0.000000
0.000000
0.000000
-0.000000
0.000000
0.000000
0.000000
-0.000000
0.000000
0.000000
0.000000
-0.000000
-0.000000
0.000000
-0.000000
-0.000000
-0.000000
0.000000
0.000000
0.000000
-0.000000
-0.000000
-0.000000
0.000000
0.000000
0.000000
0.000000
-0.000000
0.000000
-0.000000
-0.000000
0.000000
-0.000000
-0.000000
-0.000000
-0.000000
0.000000
0.000000
0.000000
-0.000000
-0.000000
0.000000
0.000000
0.000000
0.000000
-0.000000
-0.000000
-0.000000
-0.000000
0.000000
0.000000
0.000000
0.000000
-0.000000
-0.000000
-0.000000
0.000000
0.000000
-0.000000
-0.000000
0.000000
-0.000000
0.000000
-0.000000
-0.000000
0.000000
-0.000000
-0.000000
-0.000000
-0.000000
-0.000000
-0.000000
-0.000000
-0.000000
-0.000000
-0.000000
-0.000000
-0.000000
-0.000000
-0.000000
-0.000000
-0.000000
-0.000000
0.000000
0.000000
0.000000
-0.000000
-0.000000
-0.000000
0.000000
0.000000
-0.000000
0.000000
-0.000000
-0.000000
0.000000
-0.000000
-0.000000
0.000000
-0.000000
0.000000
0.000000
-0.000000
-0.000000
-0.000000
0.000000
0.000000
0.000000
-0.000000
-0.000000
0.000000
0.000000
-0.000000
-0.000000
0.000000
-0.000000
-0.000000
-0.000000
-0.000000
0.000000
0.000000
-0.000000
-0.000000
-0.000000
-0.000000
0.000000
0.000000
0.000000
0.000000
0.000000
0.000000
-0.000000
-0.000000
-0.000000
0.000000
-0.000000
0.000000
0.000000
0.000000
0.000000
0.000000
-0.000000
0.000000
-0.000000
0.000000
-0.000000
0.000000
0.000000
0.000000
0.000000
0.000000
-0.000000
0.000000
0.000000
0.000000
-0.000000
0.000000
0.000000
0.000000
-0.000000
-0.000000
-0.000000
-0.000000
0.000000
-0.000000
-0.000000
-0.000000
-0.000000
-0.000000
0.000000
0.000000
0.000000
-0.000000
-0.000000
-0.000000
-0.000000
-0.000000
-0.000000
0.000000
0.000000
0.000000
-0.000000
0.000000
-0.000000
-0.000000
0.000000
-0.000000
-0.000000
-0.000000
-0.000000
0.000000
-0.000000
-0.000000
-0.000000
-0.000000
-0.000000
0.000000
0.000000
0.000000
0.000000
0.000000
0.000000
0.000000
0.000000
0.000000
-0.000000
0.000000
0.000000
0.000000
0.000000
-0.000000
-0.000000
0.000000
-0.000000
0.000000
0.000000
-0.000000
-0.000000
-0.000000
0.000000
-0.000000
0.000000
0.000000
0.000000
0.000000
0.000000
0.000000
0.000000
-0.000000
0.000000
-0.000000
-0.000000
-0.000000
0.000000
0.000000
-0.000000
0.000000
-0.000000
0.000000
-0.000000
0.000000
0.000000
0.000000
0.000000
0.000000
0.000000
0.000000
0.000000
0.000000
-0.000000
0.000000
0.000000
0.000000
-0.000000
-0.000000
0.000000
-0.000000
-0.000000
0.000000
-0.000000
0.000000
0.000000
-0.000000
0.000000
0.000000
0.000000
-0.000000
-0.000000
-0.000000
-0.000000
-0.000000
0.000000
0.000000
-0.000000
-0.000000
-0.000000
-0.000000
-0.000000
0.000000
-0.000000
0.000000
-0.000000
-0.000000
0.000000
-0.000000
0.000000
-0.000000
-0.000000
0.000000
-0.000000
0.000000
-0.000000
0.000000
-0.000000
-0.000000
0.000000
-0.000000
-0.000000
-0.000000
-0.000000
0.000000
-0.000000
0.000000
0.000000
-0.000000
-0.000000
-0.000000
-0.000000
-0.000000
-0.000000
-0.000000
-0.000000
-0.000000
-0.000000
-0.000000
-0.000000
0.000000
-0.000000
0.000000
0.000000
-0.000000
-0.000000
-0.000000
0.000000
-0.000000
0.000000
0.000000
-0.000000
0.000000
0.000000
0.000000
-0.000000
-0.000000
0.000000
-0.000000
-0.000000
0.000000
0.000000
-0.000000
-0.000000
0.000000
0.000000
0.000000
-0.000000
-0.000000
-0.000000
-0.000000
0.000000
-0.000000
-0.000000
-0.000000
-0.000000
0.000000
-0.000000
0.000000
-0.000000
-0.000000
0.000000
-0.000000
-0.000000
-0.000000
0.000000
0.000000
-0.000000
-0.000000
-0.000000
-0.000000
0.000000
-0.000000
-0.000000
0.000000
-0.000000
-0.000000
-0.000000
-0.000000
-0.000000
-0.000000
-0.000000
0.000000
-0.000000
-0.000000
-0.000000
-0.000000
0.000000
-0.000000
0.000000
-0.000000
-0.000000
-0.000000
0.000000
-0.000000
-0.000000
-0.000000
-0.000000
0.000000
0.000000
0.000000
-0.000000
-0.000000
-0.000000
-0.000000
-0.000000
0.000000
-0.000000
0.000000
-0.000000
0.000000
0.000000
0.000000
0.000000
0.000000
0.000000
0.000000
0.000000
0.000000
0.000000
0.000000
-0.000000
-0.000000
-0.000000
-0.000000
-0.000000
-0.000000
0.000000
0.000000
-0.000000
0.000000
0.000000
0.000000
0.000000
0.000000
0.000000
-0.000000
0.000000
0.000000
0.000000
-0.000000
-0.000000
-0.000000
0.000000
0.000000
0.000000
-0.000000
-0.000000
-0.000000
-0.000000
-0.000000
-0.000000
-0.000000
-0.000000
0.000000
-0.000000
-0.000000
0.000000
-0.000000
0.000000
0.000000
0.000000
-0.000000
-0.000000
-0.000000
-0.000000
0.000000
-0.000000
0.000000
0.000000
0.000000
0.000000
-0.000000
-0.000000
0.000000
0.000000
0.000000
0.000000
0.000000
0.000000
-0.000000
0.000000
-0.000000
0.000000
0.000000
-0.000000
0.000000
0.000000
0.000000
0.000000
0.000000
-0.000000
-0.000000
0.000000
-0.000000
-0.000000
0.000000
0.000000
0.000000
0.000000
0.000000
-0.000000
-0.000000
-0.000000
-0.000000
0.000000
-0.000000
0.000000
0.000000
0.000000
0.000000
-0.000000
0.000000
0.000000
0.000000
-0.000000
-0.000000
0.000000
-0.000000
-0.000000
0.000000
-0.000000
0.000000
0.000000
-0.000000
-0.000000
-0.000000
0.000000
0.000000
0.000000
0.000000
-0.000000
0.000000
0.000000
-0.000000
-0.000000
0.000000
-0.000000
0.000000
-0.000000
0.000000
-0.000000
0.000000
-0.000000
0.000000
0.000000
0.000000
-0.000000
-0.000000
0.000000
-0.000000
-0.000000
-0.000000
-0.000000
-0.000000
-0.000000
-0.000000
-0.000000
-0.000000
0.000000
-0.000000
0.000000
-0.000000
-0.000000
0.000000
0.000000
-0.000000
0.000000
0.000000
0.000000
0.000000
-0.000000
0.000000
0.000000
-0.000000
0.000000
0.000000
0.000000
0.000000
-0.000000
-0.000000
0.000000
0.000000
0.000000
0.000000
-0.000000
0.000000
0.000000
0.000000
0.000000
-0.000000
-0.000000
-0.000000
0.000000
0.000000
-0.000000
-0.000000
-0.000000
-0.000000
0.000000
0.000000
-0.000000
-0.000000
-0.000000
0.000000
0.000000
0.000000
0.000000
0.000000
0.000000
-0.000000
-0.000000
-0.000000
0.000000
-0.000000
0.000000
-0.000000
-0.000000
0.000000
0.000000
0.000000
0.000000
-0.000000
-0.000000
-0.000000
-0.000000
0.000000
-0.000000
0.000000
-0.000000
0.000000
0.000000
0.000000
0.000000
-0.000000
-0.000000
0.000000
0.000000
0.000000
0.000000
-0.000000
-0.000000
-0.000000
-0.000000
0.000000
-0.000000
-0.000000
0.000000
-0.000000
0.000000
-0.000000
-0.000000
-0.000000
-0.000000
0.000000
-0.000000
-0.000000
-0.000000
-0.000000
0.000000
-0.000000
-0.000000
0.000000
0.000000
-0.000000
-0.000000
0.000000
-0.000000
-0.000000
0.000000
-0.000000
-0.000000
0.000000
0.000000
0.000000
0.000000
0.000000
-0.000000
0.000000
-0.000000
0.000000
0.000000
0.000000
0.000000
0.000000
0.000000
-0.000000
0.000000
0.000000
-0.000000
0.000000
-0.000000
0.000000
-0.000000
0.000000
0.000000
0.000000
-0.000000
-0.000000
0.000000
-0.000000
0.000000
-0.000000
-0.000000
-0.000000
0.000000
0.000000
0.000000
-0.000000
0.000000
-0.000000
0.000000
-0.000000
-0.000000
-0.000000
-0.000000
-0.000000
-0.000000
-0.000000
-0.000000
-0.000000
0.000000
-0.000000
-0.000000
-0.000000
-0.000000
-0.000000
-0.000000
-0.000000
0.000000
-0.000000
0.000000
-0.000000
0.000000
0.000000
-0.000000
-0.000000
-0.000000
-0.000000
0.000000
-0.000000
-0.000000
0.000000
0.000000
0.000000
0.000000
0.000000
0.000000
-0.000000
-0.000000
-0.000000
0.000000
0.000000
-0.000000
0.000000
0.000000
0.000000
0.000000
0.000000
0.000000
-0.000000
-0.000000
-0.000000
-0.000000
0.000000
-0.000000
0.000000
0.000000
0.000000
-0.000000
0.000000
0.000000
0.000000
0.000000
-0.000000
0.000000
-0.000000
0.000000
0.000000
-0.000000
-0.000000
-0.000000
0.000000
-0.000000
-0.000000
-0.000000
-0.000000
0.000000
-0.000000
0.000000
-0.000000
0.000000
-0.000000
0.000000
-0.000000
-0.000000
-0.000000
0.000000
0.000000
0.000000
0.000000
0.000000
-0.000000
0.000000
0.000000
-0.000000
-0.000000
-0.000000
0.000000
-0.000000
-0.000000
0.000000
0.000000
-0.000000
0.000000
0.000000
-0.000000
-0.000000
-0.000000
-0.000000
-0.000000
0.000000
-0.000000
-0.000000
-0.000000
-0.000000
0.000000
-0.000000
0.000000
0.000000
-0.000000
0.000000
0.000000
0.000000
0.000000
0.000000
0.000000
0.000000
0.000000
-0.000000
-0.000000
-0.000000
-0.000000
-0.000000
0.000000
0.000000
0.000000
0.000000
0.000000
0.000000
-0.000000
-0.000000
-0.000000
0.000000
-0.000000
-0.000000
0.000000
0.000000
-0.000000
0.000000
-0.000000
-0.000000
0.000000
-0.000000
0.000000
0.000000
0.000000
0.000000
-0.000000
0.000000
0.000000
0.000000
0.000000
-0.000000
0.000000
-0.000000
0.000000
0.000000
0.000000
0.000000
-0.000000
-0.000000
0.000000
0.000000
-0.000000
0.000000
0.000000
0.000000
0.000000
-0.000000
-0.000000
0.000000
0.000000
-0.000000
0.000000
-0.000000
-0.000000
-0.000000
0.000000
-0.000000
-0.000000
0.000000
0.000000
-0.000000
0.000000
-0.000000
0.000000
0.000000
0.000000
-0.000000
0.000000
0.000000
0.000000
0.000000
0.000000
0.000000
-0.000000
0.000000
0.000000
0.000000
-0.000000
0.000000
-0.000000
0.000000
-0.000000
0.000000
-0.000000
0.000000
-0.000000
0.000000
0.000000
0.000000
0.000000
-0.000000
-0.000000
-0.000000
-0.000000
-0.000000
-0.000000
-0.000000
-0.000000
-0.000000
-0.000000
0.000000
0.000000
0.000000
0.000000
-0.000000
-0.000000
-0.000000
-0.000000
-0.000000
0.000000
0.000000
0.000000
0.000000
-0.000000
0.000000
0.000000
0.000000
-0.000000
0.000000
-0.000000
-0.000000
0.000000
-0.000000
-0.000000
0.000000
0.000000
-0.000000
0.000000
0.000000
0.000000
-0.000000
-0.000000
0.000000
-0.000000
-0.000000
-0.000000
-0.000000
0.000000
0.000000
0.000000
-0.000000
0.000000
0.000000
0.000000
-0.000000
-0.000000
-0.000000
-0.000000
0.000000
-0.000000
0.000000
0.000000
0.000000
-0.000000
0.000000
0.000000
-0.000000
0.000000
0.000000
-0.000000
-0.000000
-0.000000
-0.000000
-0.000000
0.000000
0.000000
0.000000
-0.000000
0.000000
0.000000
0.000000
0.000000
0.000000
0.000000
0.000000
0.000000
-0.000000
0.000000
0.000000
0.000000
0.000000
-0.000000
-0.000000
0.000000
0.000000
-0.000000
-0.000000
-0.000000
-0.000000
-0.000000
-0.000000
-0.000000
0.000000
-0.000000
0.000000
0.000000
0.000000
-0.000000
0.000000
0.000000
0.000000
0.000000
0.000000
0.000000
-0.000000
0.000000
-0.000000
0.000000
-0.000000
0.000000
0.000000
-0.000000
-0.000000
0.000000
0.000000
0.000000
-0.000000
-0.000000
-0.000000
0.000000
-0.000000
-0.000000
-0.000000
-0.000000
0.000000
-0.000000
-0.000000
-0.000000
-0.000000
0.000000
0.000000
0.000000
0.000000
0.000000
0.000000
0.000000
-0.000000
-0.000000
0.000000
0.000000
-0.000000
-0.000000
-0.000000
-0.000000
-0.000000
-0.000000
-0.000000
-0.000000
0.000000
0.000000
0.000000
-0.000000
-0.000000
0.000000
-0.000000
0.000000
0.000000
-0.000000
0.000000
-0.000000
0.000000
0.000000
0.000000
-0.000000
0.000000
-0.000000
-0.000000
0.000000
0.000000
-0.000000
-0.000000
0.000000
0.000000
-0.000000
-0.000000
-0.000000
0.000000
0.000000
0.000000
-0.000000
0.000000
0.000000
-0.000000
0.000000
0.000000
-0.000000
-0.000000
0.000000
-0.000000
-0.000000
-0.000000
-0.000000
0.000000
-0.000000
-0.000000
0.000000
0.000000
0.000000
0.000000
0.000000
-0.000000
-0.000000
0.000000
0.000000
0.000000
-0.000000
-0.000000
0.000000
-0.000000
-0.000000
0.000000
-0.000000
0.000000
-0.000000
-0.000000
0.000000
0.000000
-0.000000
-0.000000
-0.000000
-0.000000
0.000000
-0.000000
-0.000000
0.000000
-0.000000
-0.000000
-0.000000
-0.000000
-0.000000
-0.000000
0.000000
-0.000000
-0.000000
-0.000000
-0.000000
0.000000
0.000000
0.000000
-0.000000
0.000000
-0.000000
-0.000000
-0.000000
0.000000
-0.000000
-0.000000
-0.000000
0.000000
-0.000000
-0.000000
-0.000000
-0.000000
-0.000000
0.000000
-0.000000
-0.000000
-0.000000
-0.000000
-0.000000
-0.000000
-0.000000
0.000000
-0.000000
0.000000
-0.000000
0.000000
-0.000000
0.000000
-0.000000
-0.000000
-0.000000
-0.000000
-0.000000
0.000000
-0.000000
-0.000000
0.000000
-0.000000
0.000000
-0.000000
0.000000
-0.000000
-0.000000
0.000000
0.000000
-0.000000
-0.000000
0.000000
0.000000
-0.000000
-0.000000
0.000000
0.000000
0.000000
0.000000
0.000000
0.000000
0.000000
-0.000000
-0.000000
-0.000000
-0.000000
-0.000000
0.000000
0.000000
-0.000000
-0.000000
-0.000000
-0.000000
-0.000000
-0.000000
-0.000000
-0.000000
-0.000000
0.000000
-0.000000
-0.000000
-0.000000
0.000000
-0.000000
-0.000000
0.000000
0.000000
-0.000000
-0.000000
-0.000000
-0.000000
-0.000000
-0.000000
-0.000000
-0.000000
-0.000000
-0.000000
0.000000
0.000000
-0.000000
-0.000000
0.000000
-0.000000
-0.000000
0.000000
0.000000
0.000000
0.000000
-0.000000
-0.000000
-0.000000
0.000000
-0.000000
0.000000
-0.000000
0.000000
0.000000
-0.000000
-0.000000
-0.000000
-0.000000
-0.000000
0.000000
-0.000000
0.000000
0.000000
-0.000000
-0.000000
-0.000000
0.000000
0.000000
0.000000
-0.000000
-0.000000
0.000000
-0.000000
-0.000000
0.000000
-0.000000
-0.000000
-0.000000
0.000000
0.000000
-0.000000
-0.000000
-0.000000
-0.000000
0.000000
-0.000000
-0.000000
-0.000000
-0.000000
0.000000
-0.000000
0.000000
-0.000000
-0.000000
0.000000
-0.000000
-0.000000
0.000000
-0.000000
0.000000
0.000000
-0.000000
0.000000
-0.000000
-0.000000
0.000000
0.000000
0.000000
-0.000000
-0.000000
0.000000
-0.000000
-0.000000
0.000000
-0.000000
0.000000
-0.000000
-0.000000
0.000000
0.000000
-0.000000
0.000000
-0.000000
0.000000
0.000000
0.000000
-0.000000
-0.000000
-0.000000
0.000000
0.000000
0.000000
0.000000
0.000000
-0.000000
-0.000000
-0.000000
0.000000
-0.000000
0.000000
-0.000000
-0.000000
-0.000000
-0.000000
0.000000
0.000000
-0.000000
0.000000
-0.000000
0.000000
-0.000000
0.000000
0.000000
0.000000
-0.000000
0.000000
0.000000
0.000000
0.000000
-0.000000
-0.000000
-0.000000
0.000000
-0.000000
-0.000000
-0.000000
-0.000000
0.000000
-0.000000
-0.000000
-0.000000
0.000000
0.000000
0.000000
0.000000
-0.000000
-0.000000
0.000000
0.000000
0.000000
0.000000
0.000000
-0.000000
0.000000
0.000000
-0.000000
-0.000000
-0.000000
-0.000000
0.000000
-0.000000
-0.000000
-0.000000
0.000000
0.000000
0.000000
0.000000
-0.000000
-0.000000
0.000000
0.000000
0.000000
-0.000000
-0.000000
0.000000
0.000000
0.000000
-0.000000
-0.000000
-0.000000
-0.000000
0.000000
0.000000
0.000000
0.000000
-0.000000
0.000000
-0.000000
-0.000000
0.000000
0.000000
-0.000000
-0.000000
-0.000000
0.000000
0.000000
0.000000
-0.000000
0.000000
-0.000000
0.000000
0.000000
0.000000
-0.000000
0.000000
0.000000
-0.000000
0.000000
-0.000000
-0.000000
-0.000000
-0.000000
-0.000000
-0.000000
0.000000
0.000000
0.000000
-0.000000
0.000000
0.000000
-0.000000
-0.000000
-0.000000
-0.000000
-0.000000
-0.000000
0.000000
0.000000
-0.000000
0.000000
0.000000
-0.000000
0.000000
-0.000000
-0.000000
-0.000000
0.000000
-0.000000
-0.000000
-0.000000
-0.000000
-0.000000
-0.000000
-0.000000
-0.000000
-0.000000
0.000000
0.000000
-0.000000
-0.000000
-0.000000
0.000000
-0.000000
-0.000000
-0.000000
0.000000
-0.000000
-0.000000
-0.000000
-0.000000
-0.000000
0.000000
0.000000
-0.000000
0.000000
0.000000
0.000000
-0.000000
-0.000000
0.000000
0.000000
-0.000000
0.000000
-0.000000
-0.000000
-0.000000
-0.000000
-0.000000
-0.000000
0.000000
-0.000000
-0.000000
-0.000000
-0.000000
-0.000000
-0.000000
0.000000
-0.000000
-0.000000
0.000000
-0.000000
-0.000000
-0.000000
-0.000000
0.000000
0.000000
-0.000000
0.000000
-0.000000
0.000000
0.000000
-0.000000
-0.000000
0.000000
-0.000000
-0.000000
0.000000
0.000000
-0.000000
0.000000
-0.000000
0.000000
-0.000000
-0.000000
0.000000
0.000000
-0.000000
-0.000000
-0.000000
0.000000
-0.000000
-0.000000
0.000000
0.000000
0.000000
0.000000
-0.000000
-0.000000
-0.000000
-0.000000
0.000000
0.000000
0.000000
-0.000000
0.000000
0.000000
-0.000000
-0.000000
0.000000
-0.000000
-0.000000
-0.000000
-0.000000
-0.000000
-0.000000
0.000000
-0.000000
0.000000
0.000000
0.000000
-0.000000
-0.000000
-0.000000
0.000000
-0.000000
0.000000
0.000000
-0.000000
0.000000
0.000000
-0.000000
-0.000000
0.000000
-0.000000
-0.000000
0.000000
0.000000
-0.000000
-0.000000
0.000000
0.000000
0.000000
0.000000
0.000000
0.000000
-0.000000
-0.000000
-0.000000
-0.000000
0.000000
-0.000000
-0.000000
0.000000
0.000000
0.000000
-0.000000
0.000000
0.000000
0.000000
0.000000
-0.000000
0.000000
0.000000
-0.000000
0.000000
-0.000000
-0.000000
-0.000000
-0.000000
0.000000
0.000000
0.000000
-0.000000
0.000000
0.000000
-0.000000
-0.000000
0.000000
0.000000
-0.000000
0.000000
-0.000000
-0.000000
0.000000
0.000000
-0.000000
-0.000000
0.000000
0.000000
-0.000000
0.000000
0.000000
-0.000000
0.000000
-0.000000
-0.000000
-0.000000
-0.000000
-0.000000
0.000000
-0.000000
0.000000
0.000000
-0.000000
0.000000
-0.000000
0.000000
-0.000000
-0.000000
0.000000
0.000000
0.000000
0.000000
-0.000000
-0.000000
-0.000000
0.000000
-0.000000
-0.000000
0.000000
-0.000000
0.000000
0.000000
-0.000000
0.000000
0.000000
-0.000000
0.000000
-0.000000
-0.000000
-0.000000
-0.000000
0.000000
0.000000
-0.000000
0.000000
-0.000000
0.000000
0.000000
-0.000000
-0.000000
-0.000000
0.000000
0.000000
-0.000000
-0.000000
-0.000000
0.000000
-0.000000
-0.000000
0.000000
0.000000
0.000000
-0.000000
-0.000000
0.000000
0.000000
0.000000
0.000000
-0.000000
0.000000
-0.000000
0.000000
-0.000000
-0.000000
0.000000
-0.000000
-0.000000
0.000000
0.000000
0.000000
0.000000
0.000000
0.000000
-0.000000
0.000000
-0.000000
0.000000
0.000000
0.000000
0.000000
0.000000
-0.000000
-0.000000
0.000000
0.000000
0.000000
-0.000000
0.000000
-0.000000
0.000000
0.000000
0.000000
-0.000000
0.000000
-0.000000
-0.000000
0.000000
0.000000
-0.000000
0.000000
0.000000
0.000000
-0.000000
0.000000
-0.000000
0.000000
0.000000
0.000000
0.000000
0.000000
-0.000000
0.000000
-0.000000
-0.000000
-0.000000
-0.000000
0.000000
-0.000000
-0.000000
0.000000
-0.000000
0.000000
0.000000
-0.000000
-0.000000
-0.000000
0.000000
-0.000000
0.000000
-0.000000
0.000000
0.000000
-0.000000
-0.000000
-0.000000
-0.000000
-0.000000
0.000000
0.000000
-0.000000
-0.000000
-0.000000
-0.000000
-0.000000
-0.000000
0.000000
-0.000000
-0.000000
-0.000000
-0.000000
0.000000
0.000000
-0.000000
0.000000
0.000000
0.000000
0.000000
-0.000000
0.000000
0.000000
0.000000
-0.000000
-0.000000
0.000000
-0.000000
0.000000
0.000000
0.000000
-0.000000
0.000000
-0.000000
0.000000
-0.000000
0.000000
0.000000
-0.000000
0.000000
-0.000000
-0.000000
0.000000
0.000000
0.000000
0.000000
-0.000000
0.000000
-0.000000
-0.000000
0.000000
0.000000
0.000000
-0.000000
-0.000000
0.000000
0.000000
0.000000
-0.000000
0.000000
-0.000000
0.000000
-0.000000
0.000000
-0.000000
-0.000000
0.000000
-0.000000
0.000000
0.000000
0.000000
-0.000000
0.000000
-0.000000
-0.000000
0.000000
0.000000
0.000000
0.000000
-0.000000
-0.000000
0.000000
-0.000000
-0.000000
0.000000
0.000000
0.000000
0.000000
-0.000000
0.000000
-0.000000
-0.000000
0.000000
0.000000
0.000000
0.000000
0.000000
0.000000
0.000000
-0.000000
0.000000
0.000000
0.000000
-0.000000
0.000000
-0.000000
-0.000000
0.000000
0.000000
-0.000000
0.000000
0.000000
0.000000
0.000000
-0.000000
-0.000000
0.000000
0.000000
-0.000000
-0.000000
-0.000000
0.000000
0.000000
0.000000
-0.000000
-0.000000
0.000000
0.000000
-0.000000
-0.000000
0.000000
-0.000000
-0.000000
0.000000
-0.000000
-0.000000
-0.000000
-0.000000
0.000000
-0.000000
0.000000
0.000000
0.000000
0.000000
0.000000
0.000000
-0.000000
0.000000
0.000000
-0.000000
0.000000
0.000000
0.000000
-0.000000
0.000000
0.000000
0.000000
-0.000000
-0.000000
0.000000
0.000000
-0.000000
-0.000000
-0.000000
0.000000
-0.000000
0.000000
-0.000000
0.000000
-0.000000
-0.000000
0.000000
0.000000
-0.000000
-0.000000
-0.000000
-0.000000
-0.000000
0.000000
0.000000
0.000000
-0.000000
-0.000000
0.000000
-0.000000
0.000000
-0.000000
-0.000000
-0.000000
-0.000000
0.000000
0.000000
-0.000000
-0.000000
-0.000000
-0.000000
-0.000000
-0.000000
-0.000000
0.000000
-0.000000
-0.000000
0.000000
0.000000
0.000000
0.000000
0.000000
0.000000
0.000000
0.000000
0.000000
-0.000000
0.000000
0.000000
-0.000000
-0.000000
0.000000
0.000000
0.000000
0.000000
-0.000000
-0.000000
0.000000
-0.000000
-0.000000
0.000000
-0.000000
0.000000
0.000000
0.000000
0.000000
0.000000
-0.000000
0.000000
0.000000
-0.000000
0.000000
-0.000000
-0.000000
0.000000
0.000000
-0.000000
-0.000000
0.000000
0.000000
0.000000
-0.000000
0.000000
-0.000000
0.000000
-0.000000
0.000000
0.000000
-0.000000
-0.000000
-0.000000
0.000000
-0.000000
0.000000
-0.000000
-0.000000
-0.000000
-0.000000
-0.000000
-0.000000
-0.000000
0.000000
0.000000
-0.000000
-0.000000
-0.000000
0.000000
0.000000
0.000000
0.000000
-0.000000
0.000000
-0.000000
0.000000
0.000000
-0.000000
-0.000000
-0.000000
-0.000000
0.000000
-0.000000
0.000000
0.000000
0.000000
-0.000000
-0.000000
0.000000
0.000000
0.000000
0.000000
-0.000000
-0.000000
0.000000
0.000000
0.000000
0.000000
-0.000000
0.000000
-0.000000
-0.000000
-0.000000
-0.000000
0.000000
-0.000000
-0.000000
-0.000000
0.000000
-0.000000
0.000000
-0.000000
-0.000000
0.000000
0.000000
0.000000
-0.000000
0.000000
0.000000
-0.000000
-0.000000
0.000000
-0.000000
-0.000000
0.000000
0.000000
-0.000000
-0.000000
-0.000000
0.000000
0.000000
-0.000000
0.000000
-0.000000
-0.000000
-0.000000
-0.000000
0.000000
-0.000000
-0.000000
0.000000
-0.000000
0.000000
0.000000
0.000000
0.000000
-0.000000
0.000000
-0.000000
-0.000000
-0.000000
-0.000000
0.000000
-0.000000
-0.000000
0.000000
-0.000000
-0.000000
-0.000000
-0.000000
0.000000
-0.000000
-0.000000
-0.000000
-0.000000
-0.000000
0.000000
-0.000000
-0.000000
-0.000000
0.000000
-0.000000
0.000000
0.000000
-0.000000
0.000000
0.000000
-0.000000
0.000000
0.000000
0.000000
0.000000
-0.000000
-0.000000
0.000000
-0.000000
-0.000000
-0.000000
0.000000
0.000000
-0.000000
-0.000000
-0.000000
-0.000000
-0.000000
-0.000000
0.000000
0.000000
0.000000
0.000000
0.000000
-0.000000
0.000000
0.000000
0.000000
0.000000
0.000000
-0.000000
-0.000000
0.000000
-0.000000
0.000000
0.000000
0.000000
-0.000000
0.000000
-0.000000
0.000000
0.000000
-0.000000
-0.000000
-0.000000
-0.000000
-0.000000
-0.000000
-0.000000
-0.000000
0.000000
-0.000000
-0.000000
0.000000
0.000000
0.000000
-0.000000
-0.000000
0.000000
-0.000000
0.000000
0.000000
-0.000000
0.000000
0.000000
0.000000
0.000000
-0.000000
0.000000
-0.000000
-0.000000
-0.000000
0.000000
0.000000
-0.000000
-0.000000
-0.000000
0.000000
-0.000000
0.000000
-0.000000
0.000000
-0.000000
0.000000
0.000000
0.000000
-0.000000
-0.000000
0.000000
-0.000000
0.000000
-0.000000
-0.000000
0.000000
-0.000000
-0.000000
-0.000000
-0.000000
0.000000
0.000000
0.000000
-0.000000
0.000000
0.000000
-0.000000
-0.000000
0.000000
0.000000
-0.000000
-0.000000
-0.000000
0.000000
-0.000000
-0.000000
0.000000
0.000000
-0.000000
-0.000000
0.000000
-0.000000
-0.000000
0.000000
-0.000000
0.000000
0.000000
-0.000000
-0.000000
-0.000000
0.000000
0.000000
0.000000
0.000000
-0.000000
-0.000000
0.000000
0.000000
-0.000000
-0.000000
-0.000000
0.000000
-0.000000
0.000000
-0.000000
-0.000000
-0.000000
-0.000000
0.000000
0.000000
-0.000000
-0.000000
-0.000000
0.000000
-0.000000
-0.000000
-0.000000
0.000000
0.000000
-0.000000
-0.000000
0.000000
0.000000
-0.000000
-0.000000
0.000000
-0.000000
-0.000000
0.000000
0.000000
-0.000000
0.000000
-0.000000
-0.000000
0.000000
0.000000
-0.000000
-0.000000
0.000000
-0.000000
-0.000000
0.000000
0.000000
-0.000000
-0.000000
-0.000000
0.000000
-0.000000
-0.000000
0.000000
-0.000000
0.000000
-0.000000
-0.000000
-0.000000
0.000000
-0.000000
-0.000000
-0.000000
0.000000
-0.000000
-0.000000
0.000000
-0.000000
-0.000000
-0.000000
0.000000
-0.000000
-0.000000
-0.000000
0.000000
-0.000000
0.000000
0.000000
-0.000000
0.000000
-0.000000
-0.000000
0.000000
0.000000
0.000000
0.000000
0.000000
0.000000
-0.000000
-0.000000
0.000000
-0.000000
-0.000000
-0.000000
-0.000000
0.000000
-0.000000
-0.000000
-0.000000
-0.000000
-0.000000
-0.000000
-0.000000
0.000000
0.000000
-0.000000
-0.000000
-0.000000
0.000000
0.000000
0.000000
0.000000
0.000000
0.000000
0.000000
0.000000
-0.000000
0.000000
0.000000
0.000000
0.000000
-0.000000
-0.000000
0.000000
-0.000000
-0.000000
0.000000
-0.000000
-0.000000
-0.000000
-0.000000
-0.000000
0.000000
-0.000000
0.000000
0.000000
-0.000000
-0.000000
0.000000
-0.000000
0.000000
-0.000000
0.000000
0.000000
0.000000
-0.000000
-0.000000
-0.000000
0.000000
-0.000000
-0.000000
-0.000000
-0.000000
-0.000000
0.000000
0.000000
-0.000000
0.000000
0.000000
0.000000
-0.000000
-0.000000
0.000000
-0.000000
0.000000
-0.000000
-0.000000
0.000000
0.000000
-0.000000
0.000000
0.000000
-0.000000
-0.000000
0.000000
-0.000000
-0.000000
0.000000
-0.000000
0.000000
-0.000000
-0.000000
0.000000
0.000000
-0.000000
0.000000
-0.000000
-0.000000
0.000000
-0.000000
0.000000
-0.000000
-0.000000
-0.000000
-0.000000
-0.000000
-0.000000
0.000000
-0.000000
0.000000
-0.000000
-0.000000
0.000000
-0.000000
-0.000000
-0.000000
-0.000000
0.000000
0.000000
0.000000
0.000000
-0.000000
0.000000
0.000000
0.000000
-0.000000
0.000000
-0.000000
0.000000
-0.000000
-0.000000
-0.000000
0.000000
0.000000
-0.000000
-0.000000
0.000000
-0.000000
-0.000000
0.000000
0.000000
-0.000000
0.000000
-0.000000
-0.000000
-0.000000
-0.000000
0.000000
-0.000000
0.000000
0.000000
0.000000
0.000000
-0.000000
-0.000000
0.000000
0.000000
0.000000
-0.000000
0.000000
-0.000000
-0.000000
0.000000
-0.000000
-0.000000
-0.000000
-0.000000
-0.000000
-0.000000
-0.000000
-0.000000
-0.000000
0.000000
-0.000000
0.000000
0.000000
0.000000
-0.000000
0.000000
-0.000000
-0.000000
0.000000
-0.000000
0.000000
0.000000
-0.000000
0.000000
0.000000
0.000000
0.000000
-0.000000
-0.000000
-0.000000
0.000000
0.000000
0.000000
-0.000000
0.000000
0.000000
0.000000
0.000000
0.000000
0.000000
-0.000000
0.000000
0.000000
-0.000000
-0.000000
0.000000
-0.000000
-0.000000
-0.000000
-0.000000
0.000000
0.000000
0.000000
-0.000000
0.000000
-0.000000
-0.000000
0.000000
-0.000000
0.000000
0.000000
-0.000000
0.000000
-0.000000
-0.000000
0.000000
-0.000000
0.000000
0.000000
-0.000000
-0.000000
0.000000
-0.000000
-0.000000
-0.000000
-0.000000
-0.000000
0.000000
-0.000000
-0.000000
0.000000
-0.000000
-0.000000
0.000000
-0.000000
-0.000000
-0.000000
0.000000
-0.000000
0.000000
-0.000000
0.000000
0.000000
0.000000
-0.000000
-0.000000
-0.000000
-0.000000
0.000000
0.000000
0.000000
-0.000000
-0.000000
0.000000
0.000000
-0.000000
0.000000
0.000000
0.000000
0.000000
-0.000000
-0.000000
0.000000
-0.000000
-0.000000
-0.000000
-0.000000
-0.000000
-0.000000
-0.000000
-0.000000
-0.000000
0.000000
0.000000
0.000000
0.000000
-0.000000
-0.000000
0.000000
-0.000000
0.000000
0.000000
0.000000
0.000000
-0.000000
0.000000
-0.000000
-0.000000
-0.000000
-0.000000
-0.000000
-0.000000
0.000000
0.000000
0.000000
0.000000
-0.000000
-0.000000
0.000000
0.000000
-0.000000
0.000000
-0.000000
-0.000000
-0.000000
-0.000000
0.000000
-0.000000
0.000000
-0.000000
-0.000000
0.000000
0.000000
-0.000000
0.000000
-0.000000
0.000000
-0.000000
-0.000000
-0.000000
0.000000
0.000000
0.000000
-0.000000
-0.000000
-0.000000
0.000000
0.000000
0.000000
0.000000
-0.000000
-0.000000
-0.000000
-0.000000
-0.000000
0.000000
-0.000000
-0.000000
-0.000000
-0.000000
0.000000
0.000000
0.000000
-0.000000
-0.000000
0.000000
0.000000
-0.000000
-0.000000
0.000000
-0.000000
-0.000000
0.000000
-0.000000
-0.000000
-0.000000
0.000000
-0.000000
-0.000000
-0.000000
-0.000000
-0.000000
-0.000000
-0.000000
-0.000000
0.000000
-0.000000
-0.000000
-0.000000
0.000000
-0.000000
0.000000
0.000000
-0.000000
0.000000
0.000000
0.000000
-0.000000
-0.000000
0.000000
-0.000000
-0.000000
-0.000000
-0.000000
-0.000000
-0.000000
-0.000000
0.000000
0.000000
-0.000000
-0.000000
-0.000000
0.000000
-0.000000
0.000000
-0.000000
-0.000000
-0.000000
-0.000000
-0.000000
-0.000000
-0.000000
-0.000000
0.000000
0.000000
0.000000
0.000000
-0.000000
0.000000
0.000000
-0.000000
-0.000000
-0.000000
-0.000000
-0.000000
0.000000
-0.000000
-0.000000
0.000000
-0.000000
-0.000000
-0.000000
0.000000
0.000000
-0.000000
-0.000000
-0.000000
0.000000
0.000000
-0.000000
-0.000000
-0.000000
-0.000000
-0.000000
-0.000000
-0.000000
-0.000000
0.000000
-0.000000
0.000000
-0.000000
0.000000
-0.000000
0.000000
-0.000000
-0.000000
0.000000
-0.000000
-0.000000
0.000000
0.000000
-0.000000
0.000000
-0.000000
-0.000000
-0.000000
0.000000
0.000000
-0.000000
-0.000000
0.000000
-0.000000
0.000000
0.000000
-0.000000
-0.000000
-0.000000
-0.000000
-0.000000
0.000000
0.000000
0.000000
0.000000
-0.000000
0.000000
-0.000000
0.000000
-0.000000
0.000000
-0.000000
0.000000
-0.000000
0.000000
-0.000000
-0.000000
-0.000000
-0.000000
-0.000000
-0.000000
-0.000000
0.000000
-0.000000
0.000000
-0.000000
-0.000000
-0.000000
-0.000000
-0.000000
-0.000000
-0.000000
-0.000000
-0.000000
0.000000
-0.000000
-0.000000
-0.000000
-0.000000
-0.000000
-0.000000
0.000000
0.000000
0.000000
-0.000000
-0.000000
0.000000
0.000000
0.000000
-0.000000
-0.000000
0.000000
-0.000000
0.000000
-0.000000
0.000000
0.000000
-0.000000
0.000000
0.000000
-0.000000
-0.000000
-0.000000
-0.000000
-0.000000
0.000000
-0.000000
-0.000000
-0.000000
0.000000
0.000000
0.000000
-0.000000
0.000000
-0.000000
-0.000000
-0.000000
-0.000000
-0.000000
-0.000000
0.000000
0.000000
0.000000
0.000000
-0.000000
-0.000000
0.000000
-0.000000
-0.000000
0.000000
-0.000000
-0.000000
-0.000000
0.000000
0.000000
-0.000000
-0.000000
-0.000000
0.000000
-0.000000
0.000000
0.000000
0.000000
0.000000
-0.000000
-0.000000
0.000000
-0.000000
-0.000000
-0.000000
-0.000000
0.000000
-0.000000
-0.000000
0.000000
-0.000000
0.000000
-0.000000
0.000000
0.000000
0.000000
-0.000000
-0.000000
0.000000
-0.000000
-0.000000
-0.000000
0.000000
-0.000000
-0.000000
-0.000000
0.000000
0.000000
0.000000
0.000000
0.000000
-0.000000
-0.000000
0.000000
0.000000
0.000000
0.000000
0.000000
0.000000
0.000000
0.000000
0.000000
0.000000
0.000000
-0.000000
0.000000
-0.000000
-0.000000
-0.000000
-0.000000
-0.000000
0.000000
0.000000
0.000000
-0.000000
-0.000000
-0.000000
-0.000000
0.000000
-0.000000
-0.000000
-0.000000
-0.000000
0.000000
0.000000
-0.000000
-0.000000
-0.000000
0.000000
-0.000000
0.000000
-0.000000
-0.000000
-0.000000
0.000000
0.000000
0.000000
-0.000000
-0.000000
0.000000
0.000000
-0.000000
0.000000
-0.000000
-0.000000
-0.000000
0.000000
0.000000
-0.000000
0.000000
-0.000000
-0.000000
-0.000000
0.000000
0.000000
0.000000
0.000000
-0.000000
0.000000
-0.000000
-0.000000
0.000000
-0.000000
-0.000000
0.000000
0.000000
0.000000
-0.000000
-0.000000
0.000000
0.000000
-0.000000
-0.000000
0.000000
-0.000000
-0.000000
-0.000000
0.000000
0.000000
-0.000000
0.000000
0.000000
-0.000000
0.000000
0.000000
0.000000
-0.000000
-0.000000
0.000000
0.000000
0.000000
-0.000000
0.000000
-0.000000
0.000000
-0.000000
-0.000000
0.000000
0.000000
-0.000000
-0.000000
0.000000
-0.000000
-0.000000
0.000000
0.000000
0.000000
0.000000
-0.000000
0.000000
-0.000000
-0.000000
-0.000000
-0.000000
0.000000
0.000000
-0.000000
0.000000
-0.000000
0.000000
-0.000000
0.000000
-0.000000
0.000000
0.000000
0.000000
-0.000000
0.000000
-0.000000
-0.000000
0.000000
0.000000
0.000000
0.000000
0.000000
-0.000000
-0.000000
0.000000
0.000000
0.000000
0.000000
0.000000
0.000000
0.000000
-0.000000
-0.000000
0.000000
-0.000000
-0.000000
-0.000000
-0.000000
-0.000000
0.000000
0.000000
-0.000000
0.000000
-0.000000
0.000000
-0.000000
0.000000
0.000000
0.000000
0.000000
0.000000
0.000000
-0.000000
-0.000000
0.000000
0.000000
0.000000
-0.000000
0.000000
0.000000
0.000000
-0.000000
0.000000
-0.000000
0.000000
0.000000
-0.000000
-0.000000
-0.000000
0.000000
-0.000000
-0.000000
0.000000
-0.000000
0.000000
0.000000
-0.000000
-0.000000
-0.000000
0.000000
0.000000
-0.000000
-0.000000
0.000000
-0.000000
-0.000000
0.000000
-0.000000
-0.000000
0.000000
0.000000
0.000000
0.000000
0.000000
-0.000000
0.000000
0.000000
-0.000000
-0.000000
-0.000000
-0.000000
-0.000000
-0.000000
0.000000
-0.000000
0.000000
0.000000
0.000000
0.000000
0.000000
-0.000000
-0.000000
-0.000000
-0.000000
0.000000
-0.000000
0.000000
0.000000
-0.000000
0.000000
0.000000
0.000000
0.000000
0.000000
0.000000
-0.000000
0.000000
-0.000000
-0.000000
0.000000
0.000000
0.000000
0.000000
-0.000000
0.000000
-0.000000
0.000000
-0.000000
-0.000000
-0.000000
-0.000000
-0.000000
0.000000
0.000000
-0.000000
-0.000000
-0.000000
-0.000000
0.000000
0.000000
0.000000
-0.000000
-0.000000
-0.000000
0.000000
0.000000
0.000000
0.000000
0.000000
-0.000000
-0.000000
-0.000000
0.000000
0.000000
0.000000
-0.000000
-0.000000
0.000000
0.000000
0.000000
-0.000000
0.000000
0.000000
-0.000000
-0.000000
0.000000
-0.000000
-0.000000
0.000000
-0.000000
0.000000
0.000000
-0.000000
-0.000000
0.000000
0.000000
0.000000
0.000000
0.000000
-0.000000
-0.000000
-0.000000
-0.000000
-0.000000
0.000000
0.000000
0.000000
-0.000000
0.000000
0.000000
0.000000
0.000000
0.000000
0.000000
0.000000
0.000000
0.000000
-0.000000
0.000000
0.000000
-0.000000
0.000000
0.000000
-0.000000
0.000000
0.000000
0.000000
0.000000
0.000000
-0.000000
0.000000
-0.000000
0.000000
-0.000000
-0.000000
0.000000
0.000000
0.000000
0.000000
-0.000000
-0.000000
0.000000
-0.000000
-0.000000
0.000000
0.000000
0.000000
0.000000
0.000000
0.000000
0.000000
-0.000000
0.000000
0.000000
0.000000
-0.000000
-0.000000
-0.000000
0.000000
0.000000
0.000000
0.000000
0.000000
-0.000000
-0.000000
0.000000
0.000000
0.000000
-0.000000
-0.000000
-0.000000
0.000000
0.000000
0.000000
0.000000
0.000000
0.000000
0.000000
-0.000000
0.000000
0.000000
0.000000
0.000000
-0.000000
-0.000000
0.000000
0.000000
0.000000
0.000000
-0.000000
-0.000000
0.000000
0.000000
-0.000000
0.000000
-0.000000
-0.000000
0.000000
-0.000000
0.000000
-0.000000
0.000000
-0.000000
0.000000
-0.000000
-0.000000
0.000000
0.000000
-0.000000
-0.000000
-0.000000
0.000000
-0.000000
-0.000000
-0.000000
-0.000000
-0.000000
-0.000000
-0.000000
-0.000000
-0.000000
0.000000
0.000000
0.000000
0.000000
0.000000
-0.000000
-0.000000
-0.000000
-0.000000
-0.000000
0.000000
-0.000000
0.000000
0.000000
-0.000000
-0.000000
0.000000
0.000000
-0.000000
0.000000
0.000000
-0.000000
-0.000000
-0.000000
0.000000
-0.000000
-0.000000
-0.000000
0.000000
0.000000
0.000000
0.000000
0.000000
-0.000000
0.000000
0.000000
-0.000000
-0.000000
-0.000000
-0.000000
-0.000000
0.000000
0.000000
-0.000000
0.000000
-0.000000
-0.000000
-0.000000
0.000000
0.000000
-0.000000
0.000000
-0.000000
-0.000000
0.000000
0.000000
-0.000000
0.000000
-0.000000
0.000000
0.000000
-0.000000
-0.000000
0.000000
0.000000
-0.000000
0.000000
0.000000
0.000000
-0.000000
0.000000
-0.000000
0.000000
0.000000
-0.000000
-0.000000
-0.000000
-0.000000
-0.000000
-0.000000
0.000000
0.000000
0.000000
0.000000
0.000000
-0.000000
-0.000000
-0.000000
-0.000000
-0.000000
0.000000
-0.000000
0.000000
-0.000000
0.000000
0.000000
-0.000000
-0.000000
-0.000000
-0.000000
-0.000000
-0.000000
0.000000
-0.000000
0.000000
-0.000000
-0.000000
-0.000000
0.000000
-0.000000
-0.000000
0.000000
0.000000
0.000000
0.000000
0.000000
-0.000000
-0.000000
-0.000000
-0.000000
0.000000
-0.000000
0.000000
0.000000
0.000000
-0.000000
0.000000
0.000000
-0.000000
0.000000
-0.000000
0.000000
-0.000000
0.000000
0.000000
-0.000000
-0.000000
0.000000
0.000000
-0.000000
-0.000000
0.000000
-0.000000
0.000000
0.000000
0.000000
0.000000
0.000000
-0.000000
-0.000000
-0.000000
0.000000
-0.000000
0.000000
0.000000
0.000000
-0.000000
-0.000000
-0.000000
0.000000
-0.000000
0.000000
0.000000
0.000000
0.000000
0.000000
-0.000000
-0.000000
-0.000000
-0.000000
0.000000
0.000000
0.000000
0.000000
0.000000
-0.000000
0.000000
-0.000000
0.000000
-0.000000
0.000000
0.000000
-0.000000
0.000000
0.000000
0.000000
0.000000
0.000000
-0.000000
0.000000
0.000000
-0.000000
-0.000000
0.000000
0.000000
0.000000
-0.000000
0.000000
0.000000
-0.000000
0.000000
0.000000
0.000000
-0.000000
0.000000
-0.000000
-0.000000
-0.000000
-0.000000
-0.000000
0.000000
0.000000
0.000000
-0.000000
0.000000
0.000000
-0.000000
0.000000
-0.000000
-0.000000
-0.000000
-0.000000
0.000000
0.000000
-0.000000
-0.000000
-0.000000
0.000000
-0.000000
-0.000000
-0.000000
-0.000000
-0.000000
-0.000000
0.000000
0.000000
-0.000000
0.000000
0.000000
0.000000
0.000000
-0.000000
0.000000
-0.000000
-0.000000
-0.000000
-0.000000
0.000000
0.000000
0.000000
-0.000000
-0.000000
0.000000
-0.000000
0.000000
-0.000000
0.000000
0.000000
0.000000
-0.000000
-0.000000
0.000000
-0.000000
-0.000000
0.000000
-0.000000
-0.000000
0.000000
-0.000000
0.000000
-0.000000
-0.000000
0.000000
0.000000
-0.000000
-0.000000
0.000000
0.000000
0.000000
0.000000
-0.000000
0.000000
-0.000000
-0.000000
0.000000
0.000000
-0.000000
-0.000000
-0.000000
0.000000
-0.000000
-0.000000
0.000000
-0.000000
-0.000000
0.000000
-0.000000
0.000000
0.000000
-0.000000
-0.000000
-0.000000
-0.000000
-0.000000
0.000000
-0.000000
0.000000
-0.000000
0.000000
-0.000000
0.000000
0.000000
-0.000000
-0.000000
0.000000
-0.000000
-0.000000
0.000000
-0.000000
-0.000000
-0.000000
-0.000000
0.000000
0.000000
0.000000
-0.000000
0.000000
0.000000
0.000000
0.000000
0.000000
0.000000
0.000000
-0.000000
0.000000
-0.000000
-0.000000
0.000000
0.000000
-0.000000
0.000000
-0.000000
0.000000
0.000000
0.000000
-0.000000
-0.000000
-0.000000
-0.000000
0.000000
0.000000
-0.000000
-0.000000
-0.000000
-0.000000
-0.000000
0.000000
-0.000000
0.000000
0.000000
-0.000000
0.000000
-0.000000
-0.000000
0.000000
0.000000
0.000000
0.000000
0.000000
-0.000000
-0.000000
-0.000000
-0.000000
0.000000
-0.000000
-0.000000
0.000000
-0.000000
0.000000
-0.000000
0.000000
0.000000
0.000000
-0.000000
-0.000000
0.000000
0.000000
-0.000000
-0.000000
-0.000000
0.000000
0.000000
-0.000000
-0.000000
-0.000000
-0.000000
-0.000000
-0.000000
-0.000000
0.000000
0.000000
-0.000000
0.000000
-0.000000
0.000000
0.000000
0.000000
-0.000000
-0.000000
-0.000000
0.000000
-0.000000
-0.000000
-0.000000
-0.000000
0.000000
-0.000000
0.000000
0.000000
0.000000
-0.000000
0.000000
-0.000000
-0.000000
-0.000000
0.000000
0.000000
0.000000
-0.000000
-0.000000
-0.000000
-0.000000
-0.000000
-0.000000
-0.000000
0.000000
-0.000000
0.000000
-0.000000
-0.000000
-0.000000
0.000000
-0.000000
-0.000000
0.000000
-0.000000
0.000000
0.000000
0.000000
0.000000
0.000000
-0.000000
-0.000000
-0.000000
0.000000
-0.000000
0.000000
0.000000
0.000000
-0.000000
-0.000000
0.000000
-0.000000
-0.000000
0.000000
0.000000
-0.000000
0.000000
-0.000000
0.000000
0.000000
0.000000
0.000000
0.000000
-0.000000
-0.000000
0.000000
-0.000000
-0.000000
0.000000
0.000000
0.000000
-0.000000
0.000000
-0.000000
0.000000
0.000000
0.000000
0.000000
0.000000
0.000000
0.000000
0.000000
0.000000
0.000000
0.000000
0.000000
0.000000
0.000000
-0.000000
0.000000
0.000000
-0.000000
-0.000000
0.000000
-0.000000
-0.000000
0.000000
0.000000
0.000000
-0.000000
0.000000
-0.000000
-0.000000
0.000000
-0.000000
0.000000
-0.000000
0.000000
-0.000000
0.000000
-0.000000
-0.000000
0.000000
-0.000000
-0.000000
0.000000
-0.000000
-0.000000
-0.000000
-0.000000
-0.000000
-0.000000
0.000000
-0.000000
-0.000000
0.000000
-0.000000
-0.000000
-0.000000
-0.000000
0.000000
-0.000000
0.000000
0.000000
-0.000000
0.000000
0.000000
0.000000
-0.000000
-0.000000
-0.000000
-0.000000
0.000000
-0.000000
-0.000000
-0.000000
-0.000000
0.000000
0.000000
-0.000000
-0.000000
0.000000
0.000000
-0.000000
0.000000
-0.000000
-0.000000
0.000000
-0.000000
0.000000
0.000000
0.000000
-0.000000
-0.000000
-0.000000
-0.000000
-0.000000
-0.000000
-0.000000
-0.000000
-0.000000
0.000000
-0.000000
-0.000000
-0.000000
0.000000
0.000000
-0.000000
-0.000000
-0.000000
0.000000
-0.000000
-0.000000
0.000000
0.000000
0.000000
-0.000000
-0.000000
-0.000000
0.000000
-0.000000
0.000000
-0.000000
-0.000000
0.000000
0.000000
-0.000000
-0.000000
0.000000
0.000000
-0.000000
0.000000
0.000000
-0.000000
CELL_DATA 16204
TENSORS STRESS float
0.004630 0.004727 0.000000
0.004727 0.019016 0.000000
0.000000 0.000000 0.000000
-0.001232 0.001265 0.000000
0.001265 0.004129 0.000000
0.000000 0.000000 0.000000
0.005605 0.004785 0.000000
0.004785 0.007978 0.000000
0.000000 0.000000 0.000000
0.001778 0.002330 0.000000
0.002330 0.006488 0.000000
0.000000 0.000000 0.000000
0.002464 0.000025 0.000000
0.000025 0.007947 0.000000
0.000000 0.000000 0.000000
0.004914 0.001784 0.000000
0.001784 0.013343 0.000000
0.000000 0.000000 0.000000
-0.002761 0.001327 0.000000
0.001327 -0.009399 0.000000
0.000000 0.000000 0.000000
-0.000543 0.005967 0.000000
0.005967 0.006939 0.000000
0.000000 0.000000 0.000000
0.005900 -0.002181 0.000000
-0.002181 -0.007851 0.000000
0.000000 0.000000 0.000000
0.001875 -0.003408 0.000000
-0.003408 -0.009790 0.000000
0.000000 0.000000 0.000000
-0.012816 -0.002480 0.000000
-0.002480 -0.001555 0.000000
0.000000 0.000000 0.000000
-0.011344 -0.002722 0.000000
-0.002722 -0.001300 0.000000
0.000000 0.000000 0.000000
-0.015141 -0.003179 0.000000
-0.003179 0.004335 0.000000
0.000000 0.000000 0.000000
-0.004289 0.003161 0.000000
0.003161 0.016216 0.000000
0.000000 0.000000 0.000000
0.008877 0.003938 0.000000
0.003938 0.008599 0.000000
0.000000 0.000000 0.000000
-0.001699 0.007749 0.000000
0.007749 0.002808 0.000000
0.000000 0.000000 0.000000
0.002570 -0.000404 0.000000
-0.000404 0.009184 0.000000
0.000000 0.000000 0.000000
0.003941 0.000659 0.000000
0.000659 0.008646 0.000000
0.000000 0.000000 0.000000
0.008111 0.002655 0.000000
0.002655 0.001676 0.000000
0.000000 0.000000 0.000000
-0.014345 -0.000348 0.000000
-0.000348 0.007507 0.000000
0.000000 0.000000 0.000000
0.004240 -0.001912 0.000000
-0.001912 0.000444 0.000000
0.000000 0.000000 0.000000
0.007299 -0.005675 0.000000
-0.005675 -0.001332 0.000000
0.000000 0.000000 0.000000
0.015409 -0.004899 0.000000
-0.004899 -0.004686 0.000000
0.000000 0.000000 0.000000
-0.007551 -0.004307 0.000000
-0.004307 -0.006538 0.000000
0.000000 0.000000 0.000000
0.016147 -0.000165 0.000000
-0.000165 -0.006297 0.000000
0.000000 0.000000 0.000000
-0.002960 -0.000731 0.000000
-0.000731 0.000712 0.000000
0.000000 0.000000 0.000000
0.003995 0.008423 0.000000
0.008423 0.013825 0.000000
0.000000 0.000000 0.000000
-0.002094 0.006453 0.000000
0.006453 0.006604 0.000000
0.000000 0.000000 0.000000
-0.000113 0.001577 0.000000
0.001577 0.008544 0.000000
0.000000 0.000000 0.000000
-0.011779 0.003895 0.000000
0.003895 0.016074 0.000000
0.000000 0.000000 0.000000
-0.012748 0.008295 0.000000
0.008295 -0.004754 0.000000
0.000000 0.000000 0.000000
-0.003168 -0.016682 0.000000
-0.016682 0.006213 0.000000
0.000000 0.000000 0.000000
-0.012461 0.007280 0.000000
0.007280 -0.008431 0.000000
0.000000 0.000000 0.000000
-0.012051 0.006731 0.000000
0.006731 -0.006361 0.000000
0.000000 0.000000 0.000000
-0.000201 -0.006680 0.000000
-0.006680 0.004912 0.000000
0.000000 0.000000 0.000000
0.007181 0.001900 0.000000
0.001900 0.014763 0.000000
0.000000 0.000000 0.000000
-0.003002 -0.001695 0.000000
-0.001695 0.009513 0.000000
0.000000 0.000000 0.000000
0.004907 -0.008423 0.000000
-0.008423 0.012537 0.000000
0.000000 0.000000 0.000000
-0.010331 -0.004888 0.000000
-0.004888 0.006689 0.000000
0.000000 0.000000 0.000000
-0.017022 -0.003374 0.000000
-0.003374 -0.000397 0.000000
0.000000 0.000000 0.000000
-0.009995 0.001501 0.000000
0.001501 0.005885 0.000000
0.000000 0.000000 0.000000
0.000886 0.006421 0.000000
0.006421 0.007326 0.000000
0.000000 0.000000 0.000000
-0.003862 -0.003832 0.000000
-0.003832 -0.001502 0.000000
0.000000 0.000000 0.000000
0.005014 -0.003469 0.000000
-0.003469 -0.000262 0.000000
0.000000 0.000000 0.000000
-0.009131 0.005734 0.000000
0.005734 -0.000900 0.000000
0.000000 0.000000 0.000000
0.004850 -0.002531 0.000000
-0.002531 0.032569 0.000000
0.000000 0.000000 0.000000
-0.000284 0.020651 0.000000
0.020651 -0.004387 0.000000
0.000000 0.000000 0.000000
0.016352 0.008786 0.000000
0.008786 0.003751 0.000000
0.000000 0.000000 0.000000
-0.004701 -0.003544 0.000000
-0.003544 -0.000512 0.000000
0.000000 0.000000 0.000000
-0.005660 -0.008482 0.000000
-0.008482 0.010551 0.000000
0.000000 0.000000 0.000000
0.018099 0.025282 0.000000
0.025282 -0.018910 0.000000
0.000000 0.000000 0.000000
-0.006353 0.002493 0.000000
0.002493 0.007149 0.000000
0.000000 0.000000 0.000000
0.004026 -0.003397 0.000000
-0.003397 0.015342 0.000000
0.000000 0.000000 0.000000
-0.000699 -0.002729 0.000000
-0.002729 -0.004414 0.000000
0.000000 0.000000 0.000000
-0.007778 -0.003692 0.000000
-0.003692 0.001796 0.000000
0.000000 0.000000 0.000000
-0.018963 -0.006233 0.000000
-0.006233 -0.013951 0.000000
0.000000 0.000000 0.000000
-0.002043 0.003447 0.000000
0.003447 -0.007585 0.000000
0.000000 0.000000 0.000000
0.009662 -0.014996 0.000000
-0.014996 0.017925 0.000000
0.000000 0.000000 0.000000
0.006591 -0.005508 0.000000
-0.005508 0.006444 0.000000
0.000000 0.000000 0.000000
0.003557 -0.003936 0.000000
-0.003936 -0.001008 0.000000
0.000000 0.000000 0.000000
-0.001014 -0.010958 0.000000
-0.010958 -0.004915 0.000000
0.000000 0.000000 0.000000
-0.009731 -0.003115 0.000000
-0.003115 -0.003991 0.000000
0.000000 0.000000 0.000000
0.002899 -0.002649 0.000000
-0.002649 0.007747 0.000000
0.000000 0.000000 0.000000
-0.018679 0.003043 0.000000
0.003043 -0.013875 0.000000
0.000000 0.000000 0.000000
0.009646 0.001795 0.000000
0.001795 0.007396 0.000000
0.000000 0.000000 0.000000
0.001418 0.004366 0.000000
0.004366 -0.004005 0.000000
0.000000 0.000000 0.000000
-0.012149 0.008162 0.000000
0.008162 -0.008692 0.000000
0.000000 0.000000 0.000000
-0.007831 0.005912 0.000000
0.005912 -0.006395 0.000000
0.000000 0.000000 0.000000
0.009259 -0.002428 0.000000
-0.002428 0.009079 0.000000
0.000000 0.000000 0.000000
-0.021726 0.002930 0.000000
0.002930 0.004520 0.000000
0.000000 0.000000 0.000000
0.004129 0.008865 0.000000
0.008865 0.012922 0.000000
0.000000 0.000000 0.000000
0.007338 0.006767 0.000000
0.006767 0.015387 0.000000
0.000000 0.000000 0.000000
0.015446 -0.012318 0.000000
-0.012318 0.036741 0.000000
0.000000 0.000000 0.000000
0.017373 -0.006544 0.000000
-0.006544 0.017987 0.000000
0.000000 0.000000 0.000000
-0.008063 -0.005988 0.000000
-0.005988 0.031851 0.000000
0.000000 0.000000 0.000000
0.000186 0.000528 0.000000
0.000528 -0.002254 0.000000
0.000000 0.000000 0.000000
-0.002676 0.003528 0.000000
0.003528 0.018831 0.000000
0.000000 0.000000 0.000000
-0.008834 -0.007519 0.000000
-0.007519 -0.038748 0.000000
0.000000 0.000000 0.000000
0.003670 0.003606 0.000000
0.003606 -0.013727 0.000000
0.000000 0.000000 0.000000
-0.001923 -0.000234 0.000000
-0.000234 0.000860 0.000000
0.000000 0.000000 0.000000
0.002158 0.002589 0.000000
0.002589 0.002126 0.000000
0.000000 0.000000 0.000000
-0.023571 -0.014113 0.000000
-0.014113 -0.007580 0.000000
0.000000 0.000000 0.000000
0.012190 -0.005488 0.000000
-0.005488 -0.038585 0.000000
0.000000 0.000000 0.000000
-0.002409 -0.005529 0.000000
-0.005529 -0.007888 0.000000
0.000000 0.000000 0.000000
0.011089 0.027590 0.000000
0.027590 0.009145 0.000000
0.000000 0.000000 0.000000
0.005269 -0.003749 0.000000
-0.003749 0.003843 0.000000
0.000000 0.000000 0.000000
0.003812 0.019865 0.000000
0.019865 -0.015402 0.000000
0.000000 0.000000 0.000000
-0.010088 -0.002605 0.000000
-0.002605 -0.011763 0.000000
0.000000 0.000000 0.000000
-0.013386 -0.009270 0.000000
-0.009270 0.006417 0.000000
0.000000 0.000000 0.000000
-0.011560 0.006226 0.000000
0.006226 0.006098 0.000000
0.000000 0.000000 0.000000
-0.007496 -0.002502 0.000000
-0.002502 0.012145 0.000000
0.000000 0.000000 0.000000
-0.001465 -0.015078 0.000000
-0.015078 -0.007094 0.000000
0.000000 0.000000 0.000000
-0.002148 -0.014745 0.000000
-0.014745 -0.004750 0.000000
0.000000 0.000000 0.000000
0.004451 -0.007650 0.000000
-0.007650 0.000710 0.000000
0.000000 0.000000 0.000000
0.009847 -0.000796 0.000000
-0.000796 0.001345 0.000000
0.000000 0.000000 0.000000
0.020093 0.000470 0.000000
0.000470 0.015220 0.000000
0.000000 0.000000 0.000000
-0.001001 0.002912 0.000000
0.002912 -0.006540 0.000000
0.000000 0.000000 0.000000
-0.003743 -0.001568 0.000000
-0.001568 0.006917 0.000000
0.000000 0.000000 0.000000
0.006105 0.000582 0.000000
0.000582 0.011153 0.000000
0.000000 0.000000 0.000000
-0.006705 -0.003324 0.000000
-0.003324 0.003811 0.000000
0.000000 0.000000 0.000000
-0.002774 0.006308 0.000000
0.006308 0.006730 0.000000
0.000000 0.000000 0.000000
-0.011210 0.008171 0.000000
0.008171 -0.008524 0.000000
0.000000 0.000000 0.000000
0.002057 -0.001404 0.000000
-0.001404 0.007377 0.000000
0.000000 0.000000 0.000000
-0.002628 0.001618 0.000000
0.001618 -0.004780 0.000000
0.000000 0.000000 0.000000
-0.014702 0.002047 0.000000
0.002047 -0.016652 0.000000
0.000000 0.000000 0.000000
0.000174 -0.007924 0.000000
-0.007924 0.010717 0.000000
0.000000 0.000000 0.000000
0.010977 0.006595 0.000000
0.006595 0.019490 0.000000
0.000000 0.000000 0.000000
-0.008872 0.007636 0.000000
0.007636 -0.000682 0.000000
0.000000 0.000000 0.000000
0.001499 0.001705 0.000000
0.001705 -0.018855 0.000000
0.000000 0.000000 0.000000
0.000489 0.000904 0.000000
0.000904 -0.019863 0.000000
0.000000 0.000000 0.000000
0.002872 -0.001713 0.000000
-0.001713 -0.000246 0.000000
0.000000 0.000000 0.000000
-0.000208 -0.000584 0.000000
-0.000584 -0.002361 0.000000
0.000000 0.000000 0.000000
-0.001964 0.001219 0.000000
0.001219 -0.006683 0.000000
0.000000 0.000000 0.000000
-0.005391 -0.004196 0.000000
-0.004196 -0.021307 0.000000
0.000000 0.000000 0.000000
0.001034 -0.002866 0.000000
-0.002866 -0.001824 0.000000
0.000000 0.000000 0.000000
0.027233 0.009341 0.000000
0.009341 -0.005103 0.000000
0.000000 0.000000 0.000000
-0.001712 -0.003845 0.000000
-0.003845 -0.003324 0.000000
0.000000 0.000000 0.000000
-0.006222 0.004880 0.000000
0.004880 -0.000922 0.000000
0.000000 0.000000 0.000000
-0.019566 0.010021 0.000000
0.010021 -0.008017 0.000000
0.000000 0.000000 0.000000
-0.005968 0.005226 0.000000
0.005226 -0.005079 0.000000
0.000000 0.000000 0.000000
0.018488 0.000448 0.000000
0.000448 0.007709 0.000000
0.000000 0.000000 0.000000
0.004312 0.003186 0.000000
0.003186 0.002705 0.000000
0.000000 0.000000 0.000000
-0.002743 0.000529 0.000000
0.000529 0.008744 0.000000
0.000000 0.000000 0.000000
0.013229 0.003725 0.000000
0.003725 0.012040 0.000000
0.000000 0.000000 0.000000
0.011165 0.004351 0.000000
0.004351 0.000750 0.000000
0.000000 0.000000 0.000000
0.001763 0.006297 0.000000
0.006297 0.011711 0.000000
0.000000 0.000000 0.000000
-0.006249 0.001728 0.000000
0.001728 0.010445 0.000000
0.000000 0.000000 0.000000
-0.024593 -0.001138 0.000000
-0.001138 -0.000908 0.000000
0.000000 0.000000 0.000000
0.001878 0.001831 0.000000
0.001831 0.007319 0.000000
0.000000 0.000000 0.000000
0.000736 0.002187 0.000000
0.002187 0.013867 0.000000
0.000000 0.000000 0.000000
0.005316 0.002088 0.000000
0.002088 0.003321 0.000000
0.000000 0.000000 0.000000
0.002484 0.005907 0.000000
0.005907 0.001259 0.000000
0.000000 0.000000 0.000000
-0.002574 0.011340 0.000000
0.011340 -0.000390 0.000000
0.000000 0.000000 0.000000
0.000598 -0.001784 0.000000
-0.001784 -0.006274 0.000000
0.000000 0.000000 0.000000
0.004990 -0.010344 0.000000
-0.010344 -0.019795 0.000000
0.000000 0.000000 0.000000
-0.013600 0.001742 0.000000
0.001742 -0.000831 0.000000
0.000000 0.000000 0.000000
-0.004753 -0.001757 0.000000
-0.001757 -0.003552 0.000000
0.000000 0.000000 0.000000
0.010602 -0.002824 0.000000
-0.002824 0.001767 0.000000
0.000000 0.000000 0.000000
0.007143 -0.000529 0.000000
-0.000529 0.007703 0.000000
0.000000 0.000000 0.000000
0.003021 -0.000476 0.000000
-0.000476 0.009497 0.000000
0.000000 0.000000 0.000000
-0.003737 0.000811 0.000000
0.000811 -0.014721 0.000000
0.000000 0.000000 0.000000
0.006958 -0.003539 0.000000
-0.003539 -0.002315 0.000000
0.000000 0.000000 0.000000
-0.000547 0.001672 0.000000
0.001672 -0.016059 0.000000
0.000000 0.000000 0.000000
-0.008653 -0.005523 0.000000
-0.005523 0.000543 0.000000
0.000000 0.000000 0.000000
0.000755 0.003127 0.000000
0.003127 -0.011171 0.000000
0.000000 0.000000 0.000000
-0.000641 -0.012403 0.000000
-0.012403 0.004510 0.000000
0.000000 0.000000 0.000000
0.002516 -0.000603 0.000000
-0.000603 0.014331 0.000000
0.000000 0.000000 0.000000
-0.009892 -0.006596 0.000000
-0.006596 -0.024013 0.000000
0.000000 0.000000 0.000000
0.027956 0.006809 0.000000
0.006809 0.022424 0.000000
0.000000 0.000000 0.000000
-0.008854 -0.002371 0.000000
-0.002371 0.001509 0.000000
0.000000 0.000000 0.000000
-0.006296 0.002301 0.000000
0.002301 0.006099 0.000000
0.000000 0.000000 0.000000
0.013831 -0.004371 0.000000
-0.004371 -0.000868 0.000000
0.000000 0.000000 0.000000
0.016526 0.003153 0.000000
0.003153 0.005996 0.000000
0.000000 0.000000 0.000000
-0.008786 -0.018627 0.000000
-0.018627 0.003049 0.000000
0.000000 0.000000 0.000000
0.004162 0.003386 0.000000
0.003386 -0.017773 0.000000
0.000000 0.000000 0.000000
-0.002325 -0.007923 0.000000
-0.007923 -0.011687 0.000000
0.000000 0.000000 0.000000
0.022013 -0.003095 0.000000
-0.003095 0.012216 0.000000
0.000000 0.000000 0.000000
0.002826 -0.001139 0.000000
-0.001139 0.001893 0.000000
0.000000 0.000000 0.000000
0.007263 0.007648 0.000000
0.007648 0.016436 0.000000
0.000000 0.000000 0.000000
0.006113 -0.008259 0.000000
-0.008259 0.004154 0.000000
0.000000 0.000000 0.000000
-0.002868 0.003338 0.000000
0.003338 -0.011668 0.000000
0.000000 0.000000 0.000000
0.014494 -0.002102 0.000000
-0.002102 0.011981 0.000000
0.000000 0.000000 0.000000
0.002385 0.003769 0.000000
0.003769 0.010933 0.000000
0.000000 0.000000 0.000000
0.010839 0.009875 0.000000
0.009875 0.006203 0.000000
0.000000 0.000000 0.000000
0.000817 0.008539 0.000000
0.008539 0.000037 0.000000
0.000000 0.000000 0.000000
0.005209 0.003411 0.000000
0.003411 -0.010133 0.000000
0.000000 0.000000 0.000000
0.010508 0.008466 0.000000
0.008466 0.006424 0.000000
0.000000 0.000000 0.000000
0.012984 -0.001661 0.000000
-0.001661 -0.004389 0.000000
0.000000 0.000000 0.000000
0.016255 -0.001389 0.000000
-0.001389 -0.006943 0.000000
0.000000 0.000000 0.000000
-0.005777 0.009561 0.000000
0.009561 0.008165 0.000000
0.000000 0.000000 0.000000
0.037234 0.008420 0.000000
0.008420 0.003161 0.000000
0.000000 0.000000 0.000000
-0.007125 -0.010795 0.000000
-0.010795 0.015399 0.000000
0.000000 0.000000 0.000000
0.017259 0.011209 0.000000
0.011209 0.021989 0.000000
0.000000 0.000000 0.000000
0.008529 0.004944 0.000000
0.004944 0.014168 0.000000
0.000000 0.000000 0.000000
-0.015651 0.001081 0.000000
0.001081 -0.035990 0.000000
0.000000 0.000000 0.000000
-0.013775 -0.013268 0.000000
-0.013268 0.002766 0.000000
0.000000 0.000000 0.000000
0.021479 -0.000948 0.000000
-0.000948 -0.003338 0.000000
0.000000 0.000000 0.000000
0.018957 -0.002084 0.000000
-0.002084 -0.005039 0.000000
0.000000 0.000000 0.000000
0.011540 -0.007423 0.000000
-0.007423 0.004825 0.000000
0.000000 0.000000 0.000000
0.002129 -0.003823 0.000000
-0.003823 0.000891 0.000000
0.000000 0.000000 0.000000
-0.011077 0.006504 0.000000
0.006504 -0.018059 0.000000
0.000000 0.000000 0.000000
0.004783 -0.005000 0.000000
-0.005000 0.005680 0.000000
0.000000 0.000000 0.000000
0.000714 -0.000262 0.000000
-0.000262 0.003749 0.000000
0.000000 0.000000 0.000000
-0.001509 0.001441 0.000000
0.001441 0.002459 0.000000
0.000000 0.000000 0.000000
0.007125 0.007034 0.000000
0.007034 -0.005568 0.000000
0.000000 0.000000 0.000000
0.009074 0.005396 0.000000
0.005396 0.010722 0.000000
0.000000 0.000000 0.000000
-0.002480 0.003477 0.000000
0.003477 -0.014547 0.000000
0.000000 0.000000 0.000000
-0.019626 0.003794 0.000000
0.003794 0.000844 0.000000
0.000000 0.000000 0.000000
-0.001996 0.004927 0.000000
0.004927 -0.002470 0.000000
0.000000 0.000000 0.000000
-0.006453 0.000855 0.000000
0.000855 -0.020257 0.000000
0.000000 0.000000 0.000000
0.000960 0.001484 0.000000
0.001484 -0.002023 0.000000
0.000000 0.000000 0.000000
0.016988 -0.015935 0.000000
-0.015935 0.005031 0.000000
0.000000 0.000000 0.000000
0.024051 -0.019255 0.000000
-0.019255 0.025371 0.000000
0.000000 0.000000 0.000000
-0.005606 0.003447 0.000000
0.003447 0.002945 0.000000
0.000000 0.000000 0.000000
0.017589 0.014090 0.000000
0.014090 -0.001358 0.000000
0.000000 0.000000 0.000000
-0.005818 0.005241 0.000000
0.005241 -0.026104 0.000000
0.000000 0.000000 0.000000
0.013115 0.003447 0.000000
0.003447 -0.001139 0.000000
0.000000 0.000000 0.000000
-0.001440 0.000241 0.000000
0.000241 -0.011212 0.000000
0.000000 0.000000 0.000000
-0.001067 0.004431 0.000000
0.004431 -0.009634 0.000000
0.000000 0.000000 0.000000
-0.003603 0.010418 0.000000
0.010418 -0.008311 0.000000
0.000000 0.000000 0.000000
0.000301 0.007967 0.000000
0.007967 0.000859 0.000000
0.000000 0.000000 0.000000
-0.009175 -0.002713 0.000000
-0.002713 -0.017984 0.000000
0.000000 0.000000 0.000000
-0.018264 0.003854 0.000000
0.003854 0.001252 0.000000
0.000000 0.000000 0.000000
-0.006777 -0.003438 0.000000
-0.003438 -0.026846 0.000000
0.000000 0.000000 0.000000
-0.000576 0.003210 0.000000
0.003210 0.005292 0.000000
0.000000 0.000000 0.000000
-0.009585 -0.006196 0.000000
-0.006196 -0.033727 0.000000
0.000000 0.000000 0.000000
-0.018042 0.001774 0.000000
0.001774 -0.006756 0.000000
0.000000 0.000000 0.000000
-0.012707 -0.001761 0.000000
-0.001761 0.012494 0.000000
0.000000 0.000000 0.000000
-0.008723 -0.004206 0.000000
-0.004206 0.015756 0.000000
0.000000 0.000000 0.000000
0.000922 -0.009122 0.000000
-0.009122 0.011912 0.000000
0.000000 0.000000 0.000000
0.026362 0.011528 0.000000
0.011528 0.022412 0.000000
0.000000 0.000000 0.000000
0.000116 -0.005698 0.000000
-0.005698 -0.011809 0.000000
0.000000 0.000000 0.000000
-0.009195 -0.004618 0.000000
-0.004618 -0.008370 0.000000
0.000000 0.000000 0.000000
-0.016125 -0.002434 0.000000
-0.002434 -0.008156 0.000000
0.000000 0.000000 0.000000
-0.004074 0.002869 0.000000
0.002869 -0.000748 0.000000
0.000000 0.000000 0.000000
-0.012885 -0.004519 0.000000
-0.004519 -0.019345 0.000000
0.000000 0.000000 0.000000
0.002899 -0.005602 0.000000
-0.005602 -0.008512 0.000000
0.000000 0.000000 0.000000
-0.004854 0.002375 0.000000
0.002375 0.005858 0.000000
0.000000 0.000000 0.000000
0.005879 -0.006933 0.000000
-0.006933 -0.007449 0.000000
0.000000 0.000000 0.000000
0.002669 0.001988 0.000000
0.001988 -0.004521 0.000000
0.000000 0.000000 0.000000
-0.008247 -0.000118 0.000000
-0.000118 0.012823 0.000000
0.000000 0.000000 0.000000
-0.019138 0.004925 0.000000
0.004925 0.007025 0.000000
0.000000 0.000000 0.000000
-0.005012 0.003524 0.000000
0.003524 0.005531 0.000000
0.000000 0.000000 0.000000
0.002366 0.001123 0.000000
0.001123 -0.012892 0.000000
0.000000 0.000000 0.000000
0.004722 0.002281 0.000000
0.002281 0.008665 0.000000
0.000000 0.000000 0.000000
-0.016319 -0.003357 0.000000
-0.003357 -0.005342 0.000000
0.000000 0.000000 0.000000
0.002348 0.004435 0.000000
0.004435 0.011617 0.000000
0.000000 0.000000 0.000000
-0.014516 -0.001638 0.000000
-0.001638 -0.003260 0.000000
0.000000 0.000000 0.000000
-0.005016 -0.000053 0.000000
-0.000053 -0.015130 0.000000
0.000000 0.000000 0.000000
-0.004192 0.001109 0.000000
0.001109 -0.012249 0.000000
0.000000 0.000000 0.000000
0.010231 -0.002184 0.000000
-0.002184 -0.009332 0.000000
0.000000 0.000000 0.000000
-0.017509 0.005303 0.000000
0.005303 0.014576 0.000000
0.000000 0.000000 0.000000
0.002698 -0.001955 0.000000
-0.001955 -0.002655 0.000000
0.000000 0.000000 0.000000
-0.010691 -0.000032 0.000000
-0.000032 0.000999 0.000000
0.000000 0.000000 0.000000
-0.003007 0.006623 0.000000
0.006623 -0.020995 0.000000
0.000000 0.000000 0.000000
-0.008887 0.004416 0.000000
0.004416 -0.003868 0.000000
0.000000 0.000000 0.000000
0.004258 0.005036 0.000000
0.005036 -0.000043 0.000000
0.000000 0.000000 0.000000
-0.002194 0.012784 0.000000
0.012784 -0.009588 0.000000
0.000000 0.000000 0.000000
0.016286 -0.012110 0.000000
-0.012110 0.003056 0.000000
0.000000 0.000000 0.000000
-0.015877 0.001544 0.000000
0.001544 -0.036915 0.000000
0.000000 0.000000 0.000000
-0.015535 0.001161 0.000000
0.001161 -0.037425 0.000000
0.000000 0.000000 0.000000
-0.010408 -0.000486 0.000000
-0.000486 0.017773 0.000000
0.000000 0.000000 0.000000
0.012551 0.007784 0.000000
0.007784 0.023581 0.000000
0.000000 0.000000 0.000000
-0.006139 0.006931 0.000000
0.006931 0.002748 0.000000
0.000000 0.000000 0.000000
0.017999 -0.010311 0.000000
-0.010311 0.003959 0.000000
0.000000 0.000000 0.000000
-0.007845 0.002474 0.000000
0.002474 -0.013431 0.000000
0.000000 0.000000 0.000000
0.000727 -0.003796 0.000000
-0.003796 0.021032 0.000000
0.000000 0.000000 0.000000
-0.015399 0.005822 0.000000
0.005822 0.013682 0.000000
0.000000 0.000000 0.000000
-0.001665 -0.002396 0.000000
-0.002396 -0.006366 0.000000
0.000000 0.000000 0.000000
-0.001052 -0.002817 0.000000
-0.002817 -0.005886 0.000000
0.000000 0.000000 0.000000
0.004336 -0.003308 0.000000
-0.003308 0.028853 0.000000
0.000000 0.000000 0.000000
-0.012080 0.002009 0.000000
0.002009 -0.016086 0.000000
0.000000 0.000000 0.000000
-0.022456 -0.005501 0.000000
-0.005501 -0.007653 0.000000
0.000000 0.000000 0.000000
-0.003838 -0.001791 0.000000
-0.001791 -0.002925 0.000000
0.000000 0.000000 0.000000
0.003783 0.007990 0.000000
0.007990 0.007017 0.000000
0.000000 0.000000 0.000000
0.002829 0.006416 0.000000
0.006416 0.009341 0.000000
0.000000 0.000000 0.000000
-0.019704 -0.006080 0.000000
-0.006080 -0.011197 0.000000
0.000000 0.000000 0.000000
0.000765 -0.003269 0.000000
-0.003269 0.004949 0.000000
0.000000 0.000000 0.000000
-0.010330 -0.011029 0.000000
-0.011029 -0.014362 0.000000
0.000000 0.000000 0.000000
0.012819 -0.007811 0.000000
-0.007811 -0.004864 0.000000
0.000000 0.000000 0.000000
0.008733 -0.005885 0.000000
-0.005885 0.009129 0.000000
0.000000 0.000000 0.000000
-0.007336 -0.004120 0.000000
-0.004120 -0.008458 0.000000
0.000000 0.000000 0.000000
-0.009189 0.001845 0.000000
0.001845 0.014210 0.000000
0.000000 0.000000 0.000000
0.016463 0.006617 0.000000
0.006617 -0.021572 0.000000
0.000000 0.000000 0.000000
0.006437 -0.020577 0.000000
-0.020577 0.000824 0.000000
0.000000 0.000000 0.000000
-0.002262 -0.002267 0.000000
-0.002267 0.022829 0.000000
0.000000 0.000000 0.000000
0.020351 0.003217 0.000000
0.003217 0.008436 0.000000
0.000000 0.000000 0.000000
-0.002292 -0.007358 0.000000
-0.007358 -0.004096 0.000000
0.000000 0.000000 0.000000
-0.004357 -0.005247 0.000000
-0.005247 -0.005002 0.000000
0.000000 0.000000 0.000000
0.016258 -0.001874 0.000000
-0.001874 0.028217 0.000000
0.000000 0.000000 0.000000
-0.000499 0.005340 0.000000
0.005340 -0.008512 0.000000
0.000000 0.000000 0.000000
0.007888 0.003598 0.000000
0.003598 0.018760 0.000000
0.000000 0.000000 0.000000
-0.010703 -0.006922 0.000000
-0.006922 -0.020103 0.000000
0.000000 0.000000 0.000000
-0.004952 -0.002403 0.000000
-0.002403 -0.014975 0.000000
0.000000 0.000000 0.000000
0.000880 0.000513 0.000000
0.000513 0.002829 0.000000
0.000000 0.000000 0.000000
-0.009999 -0.023090 0.000000
-0.023090 -0.013370 0.000000
0.000000 0.000000 0.000000
0.015213 0.012588 0.000000
0.012588 0.017464 0.000000
0.000000 0.000000 0.000000
-0.002573 0.003234 0.000000
0.003234 0.001311 0.000000
0.000000 0.000000 0.000000
-0.001373 0.001268 0.000000
0.001268 0.001467 0.000000
0.000000 0.000000 0.000000
0.002535 0.001668 0.000000
0.001668 -0.001397 0.000000
0.000000 0.000000 0.000000
0.007363 -0.004586 0.000000
-0.004586 0.019526 0.000000
0.000000 0.000000 0.000000
0.005883 -0.000711 0.000000
-0.000711 0.001807 0.000000
0.000000 0.000000 0.000000
0.003829 0.002668 0.000000
0.002668 0.007923 0.000000
0.000000 0.000000 0.000000
-0.010558 0.003418 0.000000
0.003418 -0.020189 0.000000
0.000000 0.000000 0.000000
-0.008687 0.001733 0.000000
0.001733 -0.013038 0.000000
0.000000 0.000000 0.000000
0.001602 0.001474 0.000000
0.001474 0.020027 0.000000
0.000000 0.000000 0.000000
-0.001055 -0.001152 0.000000
-0.001152 0.008899 0.000000
0.000000 0.000000 0.000000
0.002835 -0.000982 0.000000
-0.000982 0.005453 0.000000
0.000000 0.000000 0.000000
-0.010815 -0.005505 0.000000
-0.005505 -0.007532 0.000000
0.000000 0.000000 0.000000
0.019605 0.001101 0.000000
0.001101 -0.008953 0.000000
0.000000 0.000000 0.000000
-0.001928 -0.004700 0.000000
-0.004700 -0.010120 0.000000
0.000000 0.000000 0.000000
-0.002288 -0.006470 0.000000
-0.006470 -0.001682 0.000000
0.000000 0.000000 0.000000
0.004017 -0.008021 0.000000
-0.008021 -0.000251 0.000000
0.000000 0.000000 0.000000
0.010963 -0.000018 0.000000
-0.000018 0.003503 0.000000
0.000000 0.000000 0.000000
-0.013627 0.005556 0.000000
0.005556 0.006674 0.000000
0.000000 0.000000 0.000000
-0.003605 -0.005737 0.000000
-0.005737 -0.013809 0.000000
0.000000 0.000000 0.000000
-0.001719 -0.006615 0.000000
-0.006615 0.009518 0.000000
0.000000 0.000000 0.000000
-0.005774 0.007065 0.000000
0.007065 -0.006455 0.000000
0.000000 0.000000 0.000000
0.002959 0.003889 0.000000
0.003889 -0.006632 0.000000
0.000000 0.000000 0.000000
-0.007070 0.000289 0.000000
0.000289 -0.019144 0.000000
0.000000 0.000000 0.000000
-0.014744 -0.002155 0.000000
-0.002155 -0.022462 0.000000
0.000000 0.000000 0.000000
0.020773 0.004281 0.000000
0.004281 0.008680 0.000000
0.000000 0.000000 0.000000
0.002960 -0.007416 0.000000
-0.007416 0.014652 0.000000
0.000000 0.000000 0.000000
0.000027 -0.003228 0.000000
-0.003228 -0.007314 0.000000
0.000000 0.000000 0.000000
-0.001656 0.015881 0.000000
0.015881 -0.000277 0.000000
0.000000 0.000000 0.000000
-0.011345 0.000101 0.000000
0.000101 0.007859 0.000000
0.000000 0.000000 0.000000
-0.009151 0.003611 0.000000
0.003611 -0.004916 0.000000
0.000000 0.000000 0.000000
0.002106 -0.003205 0.000000
-0.003205 0.006837 0.000000
0.000000 0.000000 0.000000
-0.004432 0.008652 0.000000
0.008652 -0.003763 0.000000
0.000000 0.000000 0.000000
-0.012322 0.007026 0.000000
0.007026 0.005965 0.000000
0.000000 0.000000 0.000000
-0.017186 -0.002050 0.000000
-0.002050 -0.032440 0.000000
0.000000 0.000000 0.000000
-0.007415 0.004380 0.000000
0.004380 -0.020037 0.000000
0.000000 0.000000 0.000000
0.002528 0.003916 0.000000
0.003916 -0.011074 0.000000
0.000000 0.000000 0.000000
0.000133 -0.003515 0.000000
-0.003515 -0.017375 0.000000
0.000000 0.000000 0.000000
-0.013862 -0.000560 0.000000
-0.000560 -0.034335 0.000000
0.000000 0.000000 0.000000
-0.009086 0.001440 0.000000
0.001440 -0.031692 0.000000
0.000000 0.000000 0.000000
0.010019 0.007874 0.000000
0.007874 0.026310 0.000000
0.000000 0.000000 0.000000
0.006976 0.007766 0.000000
0.007766 0.003747 0.000000
0.000000 0.000000 0.000000
-0.004648 0.001760 0.000000
0.001760 -0.017563 0.000000
0.000000 0.000000 0.000000
0.005321 -0.007377 0.000000
-0.007377 -0.008915 0.000000
0.000000 0.000000 0.000000
-0.010202 -0.000273 0.000000
-0.000273 -0.015283 0.000000
0.000000 0.000000 0.000000
-0.009250 0.004058 0.000000
0.004058 0.020447 0.000000
0.000000 0.000000 0.000000
-0.006966 -0.003280 0.000000
-0.003280 0.003568 0.000000
0.000000 0.000000 0.000000
0.001835 -0.000958 0.000000
-0.000958 -0.000826 0.000000
0.000000 0.000000 0.000000
0.004661 -0.002522 0.000000
-0.002522 0.006460 0.000000
0.000000 0.000000 0.000000
-0.008013 0.001254 0.000000
0.001254 -0.012455 0.000000
0.000000 0.000000 0.000000
-0.006704 -0.000427 0.000000
-0.000427 -0.010340 0.000000
0.000000 0.000000 0.000000
0.006836 -0.000354 0.000000
-0.000354 -0.013137 0.000000
0.000000 0.000000 0.000000
0.006511 -0.002244 0.000000
-0.002244 -0.014739 0.000000
0.000000 0.000000 0.000000
0.003251 -0.001360 0.000000
-0.001360 0.010360 0.000000
0.000000 0.000000 0.000000
0.007725 0.005216 0.000000
0.005216 0.009702 0.000000
0.000000 0.000000 0.000000
0.002807 0.007021 0.000000
0.007021 -0.006343 0.000000
0.000000 0.000000 0.000000
0.012039 -0.006587 0.000000
-0.006587 0.002179 0.000000
0.000000 0.000000 0.000000
0.013347 -0.003970 0.000000
-0.003970 0.005535 0.000000
0.000000 0.000000 0.000000
-0.005714 -0.001790 0.000000
-0.001790 0.000745 0.000000
0.000000 0.000000 0.000000
0.010577 -0.001628 0.000000
-0.001628 0.002571 0.000000
0.000000 0.000000 0.000000
0.007005 -0.001891 0.000000
-0.001891 0.007078 0.000000
0.000000 0.000000 0.000000
-0.001166 -0.000237 0.000000
-0.000237 -0.001985 0.000000
0.000000 0.000000 0.000000
-0.006168 -0.003999 0.000000
-0.003999 -0.002737 0.000000
0.000000 0.000000 0.000000
-0.009427 -0.021403 0.000000
-0.021403 0.019961 0.000000
0.000000 0.000000 0.000000
-0.033969 0.011001 0.000000
0.011001 0.014639 0.000000
0.000000 0.000000 0.000000
0.004962 0.006450 0.000000
0.006450 -0.008010 0.000000
0.000000 0.000000 0.000000
0.017346 -0.004485 0.000000
-0.004485 -0.017611 0.000000
0.000000 0.000000 0.000000
-0.017753 -0.019757 0.000000
-0.019757 -0.015510 0.000000
0.000000 0.000000 0.000000
-0.004032 0.004017 0.000000
0.004017 -0.003825 0.000000
0.000000 0.000000 0.000000
-0.002943 -0.006646 0.000000
-0.006646 0.005305 0.000000
0.000000 0.000000 0.000000
0.011050 -0.000263 0.000000
-0.000263 0.002510 0.000000
0.000000 0.000000 0.000000
-0.013867 0.004734 0.000000
0.004734 -0.003632 0.000000
0.000000 0.000000 0.000000
-0.002303 -0.002484 0.000000
-0.002484 0.001456 0.000000
0.000000 0.000000 0.000000
-0.000269 -0.001124 0.000000
-0.001124 0.002966 0.000000
0.000000 0.000000 0.000000
-0.006346 -0.000667 0.000000
-0.000667 0.022810 0.000000
0.000000 0.000000 0.000000
0.003740 0.004446 0.000000
0.004446 -0.001359 0.000000
0.000000 0.000000 0.000000
0.005532 0.010717 0.000000
0.010717 0.001176 0.000000
0.000000 0.000000 0.000000
-0.013846 0.000749 0.000000
0.000749 -0.016565 0.000000
0.000000 0.000000 0.000000
0.005798 -0.003438 0.000000
-0.003438 0.017789 0.000000
0.000000 0.000000 0.000000
0.007846 -0.006475 0.000000
-0.006475 0.016311 0.000000
0.000000 0.000000 0.000000
0.002754 0.004542 0.000000
0.004542 -0.003814 0.000000
0.000000 0.000000 0.000000
-0.007327 -0.003800 0.000000
-0.003800 -0.000652 0.000000
0.000000 0.000000 0.000000
-0.007407 0.000471 0.000000
0.000471 -0.016537 0.000000
0.000000 0.000000 0.000000
-0.009517 -0.000034 0.000000
-0.000034 -0.012026 0.000000
0.000000 0.000000 0.000000
0.017192 -0.007088 0.000000
-0.007088 0.011576 0.000000
0.000000 0.000000 0.000000
0.015155 -0.008439 0.000000
-0.008439 0.008441 0.000000
0.000000 0.000000 0.000000
-0.014939 0.004432 0.000000
0.004432 0.002452 0.000000
0.000000 0.000000 0.000000
-0.025051 -0.007574 0.000000
-0.007574 0.002030 0.000000
0.000000 0.000000 0.000000
-0.001487 -0.005440 0.000000
-0.005440 -0.004229 0.000000
0.000000 0.000000 0.000000
0.006584 0.009927 0.000000
0.009927 -0.010005 0.000000
0.000000 0.000000 0.000000
0.014395 0.001055 0.000000
0.001055 -0.013668 0.000000
0.000000 0.000000 0.000000
-0.009872 0.002204 0.000000
0.002204 0.000345 0.000000
0.000000 0.000000 0.000000
-0.005585 -0.005682 0.000000
-0.005682 0.009150 0.000000
0.000000 0.000000 0.000000
0.001709 0.000849 0.000000
0.000849 -0.000345 0.000000
0.000000 0.000000 0.000000
-0.006197 0.010468 0.000000
0.010468 -0.009872 0.000000
0.000000 0.000000 0.000000
0.005147 -0.002635 0.000000
-0.002635 0.004209 0.000000
0.000000 0.000000 0.000000
-0.002214 -0.004250 0.000000
-0.004250 0.001367 0.000000
0.000000 0.000000 0.000000
-0.001917 -0.003563 0.000000
-0.003563 0.005844 0.000000
0.000000 0.000000 0.000000
0.004628 -0.007253 0.000000
-0.007253 0.017956 0.000000
0.000000 0.000000 0.000000
-0.005727 -0.001859 0.000000
-0.001859 -0.012677 0.000000
0.000000 0.000000 0.000000
0.003998 -0.004772 0.000000
-0.004772 0.018202 0.000000
0.000000 0.000000 0.000000
-0.010028 -0.012687 0.000000
-0.012687 -0.000664 0.000000
0.000000 0.000000 0.000000
-0.000108 -0.005912 0.000000
-0.005912 -0.005715 0.000000
0.000000 0.000000 0.000000
0.009452 0.004371 0.000000
0.004371 0.009756 0.000000
0.000000 0.000000 0.000000
0.000837 0.005800 0.000000
0.005800 -0.011662 0.000000
0.000000 0.000000 0.000000
-0.008850 0.003054 0.000000
0.003054 0.000671 0.000000
0.000000 0.000000 0.000000
-0.009112 -0.002988 0.000000
-0.002988 -0.021373 0.000000
0.000000 0.000000 0.000000
-0.010723 -0.002695 0.000000
-0.002695 -0.019990 0.000000
0.000000 0.000000 0.000000
0.006628 0.006067 0.000000
0.006067 -0.008006 0.000000
0.000000 0.000000 0.000000
0.004204 0.010078 0.000000
0.010078 0.024379 0.000000
0.000000 0.000000 0.000000
-0.010037 -0.000160 0.000000
-0.000160 -0.025772 0.000000
0.000000 0.000000 0.000000
0.008639 -0.009931 0.000000
-0.009931 0.001492 0.000000
0.000000 0.000000 0.000000
0.010127 0.006724 0.000000
0.006724 0.028739 0.000000
0.000000 0.000000 0.000000
0.009082 0.006333 0.000000
0.006333 0.005879 0.000000
0.000000 0.000000 0.000000
-0.007508 0.002159 0.000000
0.002159 -0.012575 0.000000
0.000000 0.000000 0.000000
0.001903 -0.002272 0.000000
-0.002272 -0.010647 0.000000
0.000000 0.000000 0.000000
-0.008409 0.001711 0.000000
0.001711 -0.010002 0.000000
0.000000 0.000000 0.000000
0.006864 0.008575 0.000000
0.008575 -0.010367 0.000000
0.000000 0.000000 0.000000
-0.005571 0.004253 0.000000
0.004253 -0.005159 0.000000
0.000000 0.000000 0.000000
0.007172 0.000286 0.000000
0.000286 0.015214 0.000000
0.000000 0.000000 0.000000
-0.012532 -0.004106 0.000000
-0.004106 0.003206 0.000000
0.000000 0.000000 0.000000
-0.004612 0.005941 0.000000
0.005941 -0.001991 0.000000
0.000000 0.000000 0.000000
0.004150 0.003813 0.000000
0.003813 0.001393 0.000000
0.000000 0.000000 0.000000
0.001697 0.002556 0.000000
0.002556 0.011586 0.000000
0.000000 0.000000 0.000000
-0.007141 -0.001781 0.000000
-0.001781 0.000944 0.000000
0.000000 0.000000 0.000000
0.011235 -0.004361 0.000000
-0.004361 0.000341 0.000000
0.000000 0.000000 0.000000
0.007886 0.002468 0.000000
0.002468 0.004616 0.000000
0.000000 0.000000 0.000000
0.001492 -0.004655 0.000000
-0.004655 0.007270 0.000000
0.000000 0.000000 0.000000
-0.003249 -0.002060 0.000000
-0.002060 -0.002370 0.000000
0.000000 0.000000 0.000000
0.002937 0.002940 0.000000
0.002940 0.006233 0.000000
0.000000 0.000000 0.000000
-0.008158 -0.002070 0.000000
-0.002070 -0.002696 0.000000
0.000000 0.000000 0.000000
-0.000177 0.000347 0.000000
0.000347 -0.008539 0.000000
0.000000 0.000000 0.000000
-0.003649 -0.000041 0.000000
-0.000041 -0.003696 0.000000
0.000000 0.000000 0.000000
0.003775 -0.007395 0.000000
-0.007395 0.002570 0.000000
0.000000 0.000000 0.000000
-0.011320 0.003895 0.000000
0.003895 -0.013158 0.000000
0.000000 0.000000 0.000000
-0.016559 0.012771 0.000000
0.012771 -0.000823 0.000000
0.000000 0.000000 0.000000
-0.021147 -0.004149 0.000000
-0.004149 -0.008288 0.000000
0.000000 0.000000 0.000000
-0.018445 0.000948 0.000000
0.000948 0.002377 0.000000
0.000000 0.000000 0.000000
-0.009998 -0.002429 0.000000
-0.002429 -0.017841 0.000000
0.000000 0.000000 0.000000
-0.012888 0.010021 0.000000
0.010021 0.001052 0.000000
0.000000 0.000000 0.000000
-0.009131 0.010873 0.000000
0.010873 -0.006066 0.000000
0.000000 0.000000 0.000000
-0.005293 0.000028 0.000000
0.000028 0.005228 0.000000
0.000000 0.000000 0.000000
0.008730 0.015251 0.000000
0.015251 0.015094 0.000000
0.000000 0.000000 0.000000
0.011364 0.006839 0.000000
0.006839 -0.010405 0.000000
0.000000 0.000000 0.000000
0.007263 -0.007243 0.000000
-0.007243 0.009987 0.000000
0.000000 0.000000 0.000000
0.006619 -0.005715 0.000000
-0.005715 0.010950 0.000000
0.000000 0.000000 0.000000
-0.018131 -0.005730 0.000000
-0.005730 -0.009780 0.000000
0.000000 0.000000 0.000000
0.002302 0.000852 0.000000
0.000852 -0.007982 0.000000
0.000000 0.000000 0.000000
0.010901 0.005372 0.000000
0.005372 0.006895 0.000000
0.000000 0.000000 0.000000
-0.008765 -0.006406 0.000000
-0.006406 -0.016300 0.000000
0.000000 0.000000 0.000000
0.004902 -0.004258 0.000000
-0.004258 0.019199 0.000000
0.000000 0.000000 0.000000
0.008876 -0.009594 0.000000
-0.009594 0.019612 0.000000
0.000000 0.000000 0.000000
-0.002883 0.004424 0.000000
0.004424 0.014950 0.000000
0.000000 0.000000 0.000000
0.005417 -0.007373 0.000000
-0.007373 -0.009313 0.000000
0.000000 0.000000 0.000000
0.002716 0.003659 0.000000
0.003659 -0.003851 0.000000
0.000000 0.000000 0.000000
-0.005312 0.003448 0.000000
0.003448 -0.002127 0.000000
0.000000 0.000000 0.000000
0.004677 -0.001233 0.000000
-0.001233 0.001266 0.000000
0.000000 0.000000 0.000000
-0.001303 -0.001237 0.000000
-0.001237 0.004074 0.000000
0.000000 0.000000 0.000000
0.018035 0.006298 0.000000
0.006298 -0.008480 0.000000
0.000000 0.000000 0.000000
0.007507 -0.006499 0.000000
-0.006499 0.002892 0.000000
0.000000 0.000000 0.000000
-0.009392 -0.000972 0.000000
-0.000972 -0.025946 0.000000
0.000000 0.000000 0.000000
0.015622 -0.005987 0.000000
-0.005987 -0.010314 0.000000
0.000000 0.000000 0.000000
0.018347 -0.003807 0.000000
-0.003807 -0.012118 0.000000
0.000000 0.000000 0.000000
-0.003239 0.002085 0.000000
0.002085 0.000170 0.000000
0.000000 0.000000 0.000000
-0.008445 -0.001449 0.000000
-0.001449 0.002771 0.000000
0.000000 0.000000 0.000000
0.009900 0.002144 0.000000
0.002144 -0.000368 0.000000
0.000000 0.000000 0.000000
-0.009593 -0.000435 0.000000
-0.000435 -0.009185 0.000000
0.000000 0.000000 0.000000
0.005510 -0.006109 0.000000
-0.006109 0.012931 0.000000
0.000000 0.000000 0.000000
0.007523 0.004027 0.000000
0.004027 -0.004174 0.000000
0.000000 0.000000 0.000000
0.006264 -0.006171 0.000000
-0.006171 0.004331 0.000000
0.000000 0.000000 0.000000
0.009367 -0.009159 0.000000
-0.009159 0.020872 0.000000
0.000000 0.000000 0.000000
0.023025 0.001187 0.000000
0.001187 -0.017097 0.000000
0.000000 0.000000 0.000000
0.006505 0.000646 0.000000
0.000646 0.017252 0.000000
0.000000 0.000000 0.000000
-0.002994 -0.004007 0.000000
-0.004007 0.008293 0.000000
0.000000 0.000000 0.000000
0.005273 0.002910 0.000000
0.002910 -0.000850 0.000000
0.000000 0.000000 0.000000
0.008257 -0.009335 0.000000
-0.009335 -0.012064 0.000000
0.000000 0.000000 0.000000
0.008852 0.000467 0.000000
0.000467 -0.002366 0.000000
0.000000 0.000000 0.000000
-0.004634 -0.000118 0.000000
-0.000118 0.007467 0.000000
0.000000 0.000000 0.000000
0.024992 0.000852 0.000000
0.000852 -0.027451 0.000000
0.000000 0.000000 0.000000
-0.002475 -0.010580 0.000000
-0.010580 -0.001143 0.000000
0.000000 0.000000 0.000000
0.001515 -0.003551 0.000000
-0.003551 0.000732 0.000000
0.000000 0.000000 0.000000
0.012001 0.002212 0.000000
0.002212 0.031527 0.000000
0.000000 0.000000 0.000000
0.003479 -0.009347 0.000000
-0.009347 -0.004691 0.000000
0.000000 0.000000 0.000000
-0.001294 -0.005242 0.000000
-0.005242 -0.018042 0.000000
0.000000 0.000000 0.000000
0.009871 0.003604 0.000000
0.003604 0.027244 0.000000
0.000000 0.000000 0.000000
0.010228 0.002040 0.000000
0.002040 0.013324 0.000000
0.000000 0.000000 0.000000
-0.004138 0.001257 0.000000
0.001257 -0.001412 0.000000
0.000000 0.000000 0.000000
-0.004029 0.002552 0.000000
0.002552 0.008948 0.000000
0.000000 0.000000 0.000000
0.005307 0.004991 0.000000
0.004991 -0.000125 0.000000
0.000000 0.000000 0.000000
0.013520 0.006753 0.000000
0.006753 0.017238 0.000000
0.000000 0.000000 0.000000
0.001274 0.010710 0.000000
0.010710 0.011050 0.000000
0.000000 0.000000 0.000000
0.009220 -0.000918 0.000000
-0.000918 0.014976 0.000000
0.000000 0.000000 0.000000
-0.014180 0.008859 0.000000
0.008859 0.003250 0.000000
0.000000 0.000000 0.000000
0.006204 0.008590 0.000000
0.008590 0.006744 0.000000
0.000000 0.000000 0.000000
0.005713 0.011688 0.000000
0.011688 -0.000140 0.000000
0.000000 0.000000 0.000000
0.013611 0.001327 0.000000
0.001327 0.019260 0.000000
0.000000 0.000000 0.000000
-0.002911 -0.006506 0.000000
-0.006506 0.006408 0.000000
0.000000 0.000000 0.000000
0.001972 -0.008224 0.000000
-0.008224 0.002159 0.000000
0.000000 0.000000 0.000000
0.009698 -0.003390 0.000000
-0.003390 0.022352 0.000000
0.000000 0.000000 0.000000
0.000789 0.002657 0.000000
0.002657 0.016954 0.000000
0.000000 0.000000 0.000000
-0.005403 0.000658 0.000000
0.000658 -0.010556 0.000000
0.000000 0.000000 0.000000
0.001165 0.003110 0.000000
0.003110 -0.007385 0.000000
0.000000 0.000000 0.000000
-0.006246 0.004125 0.000000
0.004125 0.001056 0.000000
0.000000 0.000000 0.000000
-0.010046 -0.001126 0.000000
-0.001126 -0.004156 0.000000
0.000000 0.000000 0.000000
-0.020082 -0.003002 0.000000
-0.003002 0.003342 0.000000
0.000000 0.000000 0.000000
-0.005896 0.011517 0.000000
0.011517 -0.007099 0.000000
0.000000 0.000000 0.000000
0.000073 0.007033 0.000000
0.007033 0.010912 0.000000
0.000000 0.000000 0.000000
-0.002459 0.000158 0.000000
0.000158 -0.005410 0.000000
0.000000 0.000000 0.000000
0.003593 0.004049 0.000000
0.004049 0.000439 0.000000
0.000000 0.000000 0.000000
-0.014388 -0.002523 0.000000
-0.002523 -0.009544 0.000000
0.000000 0.000000 0.000000
-0.011630 -0.004578 0.000000
-0.004578 -0.004196 0.000000
0.000000 0.000000 0.000000
0.007781 0.002054 0.000000
0.002054 -0.004602 0.000000
0.000000 0.000000 0.000000
0.001549 0.000647 0.000000
0.000647 -0.012680 0.000000
0.000000 0.000000 0.000000
-0.009304 -0.003210 0.000000
-0.003210 0.001649 0.000000
0.000000 0.000000 0.000000
0.001778 -0.014427 0.000000
-0.014427 -0.018842 0.000000
0.000000 0.000000 0.000000
-0.017400 -0.018739 0.000000
-0.018739 0.009685 0.000000
0.000000 0.000000 0.000000
0.004031 -0.004885 0.000000
-0.004885 0.001761 0.000000
0.000000 0.000000 0.000000
0.002413 -0.005179 0.000000
-0.005179 0.001175 0.000000
0.000000 0.000000 0.000000
-0.014667 -0.007773 0.000000
-0.007773 -0.007938 0.000000
0.000000 0.000000 0.000000
-0.014823 -0.003908 0.000000
-0.003908 0.008897 0.000000
0.000000 0.000000 0.000000
0.013984 0.003229 0.000000
0.003229 0.013479 0.000000
0.000000 0.000000 0.000000
-0.002032 -0.006538 0.000000
-0.006538 -0.003332 0.000000
0.000000 0.000000 0.000000
0.004349 -0.002077 0.000000
-0.002077 0.009840 0.000000
0.000000 0.000000 0.000000
0.011146 -0.008270 0.000000
-0.008270 0.021112 0.000000
0.000000 0.000000 0.000000
0.000211 0.009666 0.000000
0.009666 -0.000345 0.000000
0.000000 0.000000 0.000000
-0.001945 0.011475 0.000000
0.011475 0.001909 0.000000
0.000000 0.000000 0.000000
0.002313 0.005020 0.000000
0.005020 0.003518 0.000000
0.000000 0.000000 0.000000
0.005665 0.000421 0.000000
0.000421 0.011401 0.000000
0.000000 0.000000 0.000000
0.000264 0.006518 0.000000
0.006518 0.000658 0.000000
0.000000 0.000000 0.000000
-0.024397 -0.002173 0.000000
-0.002173 -0.012813 0.000000
0.000000 0.000000 0.000000
0.018311 -0.013461 0.000000
-0.013461 -0.008577 0.000000
0.000000 0.000000 0.000000
0.012903 -0.011741 0.000000
-0.011741 0.015217 0.000000
0.000000 0.000000 0.000000
-0.021717 0.004208 0.000000
0.004208 -0.001177 0.000000
0.000000 0.000000 0.000000
-0.008864 -0.000082 0.000000
-0.000082 -0.005636 0.000000
0.000000 0.000000 0.000000
0.004770 0.007010 0.000000
0.007010 0.008478 0.000000
0.000000 0.000000 0.000000
-0.003011 0.010845 0.000000
0.010845 0.015859 0.000000
0.000000 0.000000 0.000000
-0.000475 -0.003445 0.000000
-0.003445 -0.001867 0.000000
0.000000 0.000000 0.000000
0.003545 -0.000040 0.000000
-0.000040 0.011545 0.000000
0.000000 0.000000 0.000000
-0.007289 -0.003151 0.000000
-0.003151 -0.008122 0.000000
0.000000 0.000000 0.000000
-0.003641 -0.002504 0.000000
-0.002504 0.009160 0.000000
0.000000 0.000000 0.000000
0.007599 0.005349 0.000000
0.005349 0.013670 0.000000
0.000000 0.000000 0.000000
0.006487 -0.001633 0.000000
-0.001633 0.007677 0.000000
0.000000 0.000000 0.000000
-0.031064 0.001017 0.000000
0.001017 -0.002850 0.000000
0.000000 0.000000 0.000000
-0.014590 -0.008086 0.000000
-0.008086 -0.024365 0.000000
0.000000 0.000000 0.000000
0.006984 -0.000751 0.000000
-0.000751 0.010320 0.000000
0.000000 0.000000 0.000000
-0.002763 -0.002580 0.000000
-0.002580 -0.003333 0.000000
0.000000 0.000000 0.000000
-0.010468 -0.000716 0.000000
-0.000716 0.003690 0.000000
0.000000 0.000000 0.000000
-0.005366 0.002995 0.000000
0.002995 -0.010787 0.000000
0.000000 0.000000 0.000000
0.002320 0.007957 0.000000
0.007957 -0.006747 0.000000
0.000000 0.000000 0.000000
-0.017259 -0.012914 0.000000
-0.012914 0.001703 0.000000
0.000000 0.000000 0.000000
0.004165 -0.003397 0.000000
-0.003397 -0.003536 0.000000
0.000000 0.000000 0.000000
-0.000360 0.002413 0.000000
0.002413 0.004946 0.000000
0.000000 0.000000 0.000000
0.011582 0.007297 0.000000
0.007297 -0.001827 0.000000
0.000000 0.000000 0.000000
0.017879 -0.001395 0.000000
-0.001395 0.032929 0.000000
0.000000 0.000000 0.000000
0.009641 0.008127 0.000000
0.008127 0.002106 0.000000
0.000000 0.000000 0.000000
0.001896 0.011748 0.000000
0.011748 0.007626 0.000000
0.000000 0.000000 0.000000
0.009192 0.004114 0.000000
0.004114 0.014896 0.000000
0.000000 0.000000 0.000000
-0.000100 -0.001985 0.000000
-0.001985 -0.000223 0.000000
0.000000 0.000000 0.000000
0.009274 0.002845 0.000000
0.002845 0.009361 0.000000
0.000000 0.000000 0.000000
0.021509 0.001683 0.000000
0.001683 0.014608 0.000000
0.000000 0.000000 0.000000
-0.015168 0.004807 0.000000
0.004807 -0.027309 0.000000
0.000000 0.000000 0.000000
-0.003530 0.001487 0.000000
0.001487 0.000293 0.000000
0.000000 0.000000 0.000000
0.002725 0.004439 0.000000
0.004439 0.005764 0.000000
0.000000 0.000000 0.000000
-0.001224 0.001676 0.000000
0.001676 -0.003189 0.000000
0.000000 0.000000 0.000000
0.001744 0.004432 0.000000
0.004432 0.007437 0.000000
0.000000 0.000000 0.000000
-0.001350 0.001999 0.000000
0.001999 0.002462 0.000000
0.000000 0.000000 0.000000
-0.008694 0.008740 0.000000
0.008740 -0.011943 0.000000
0.000000 0.000000 0.000000
-0.010038 -0.004710 0.000000
-0.004710 -0.014071 0.000000
0.000000 0.000000 0.000000
0.005334 0.002795 0.000000
0.002795 -0.002406 0.000000
0.000000 0.000000 0.000000
-0.006896 -0.002602 0.000000
-0.002602 0.006040 0.000000
0.000000 0.000000 0.000000
0.008409 -0.011364 0.000000
-0.011364 0.003557 0.000000
0.000000 0.000000 0.000000
0.000643 0.000177 0.000000
0.000177 0.005872 0.000000
0.000000 0.000000 0.000000
0.004084 -0.005171 0.000000
-0.005171 0.004687 0.000000
0.000000 0.000000 0.000000
0.001946 -0.005574 0.000000
-0.005574 0.007766 0.000000
0.000000 0.000000 0.000000
0.022398 0.000187 0.000000
0.000187 0.015869 0.000000
0.000000 0.000000 0.000000
-0.008689 -0.000711 0.000000
-0.000711 -0.015725 0.000000
0.000000 0.000000 0.000000
-0.013777 0.000696 0.000000
0.000696 0.003284 0.000000
0.000000 0.000000 0.000000
0.023758 0.011136 0.000000
0.011136 0.013355 0.000000
0.000000 0.000000 0.000000
-0.015175 0.009115 0.000000
0.009115 -0.009103 0.000000
0.000000 0.000000 0.000000
-0.011342 -0.023274 0.000000
-0.023274 0.001477 0.000000
0.000000 0.000000 0.000000
-0.001934 0.001049 0.000000
0.001049 0.006120 0.000000
0.000000 0.000000 0.000000
-0.011467 -0.001700 0.000000
-0.001700 -0.000856 0.000000
0.000000 0.000000 0.000000
-0.005648 0.018719 0.000000
0.018719 -0.005928 0.000000
0.000000 0.000000 0.000000
-0.007794 0.006362 0.000000
0.006362 0.004071 0.000000
0.000000 0.000000 0.000000
-0.003504 0.019792 0.000000
0.019792 -0.000005 0.000000
0.000000 0.000000 0.000000
-0.022011 -0.000016 0.000000
-0.000016 0.009673 0.000000
0.000000 0.000000 0.000000
-0.005385 -0.005595 0.000000
-0.005595 0.014264 0.000000
0.000000 0.000000 0.000000
0.013346 0.010314 0.000000
0.010314 0.002347 0.000000
0.000000 0.000000 0.000000
-0.002396 0.003138 0.000000
0.003138 -0.001158 0.000000
0.000000 0.000000 0.000000
0.013894 0.015036 0.000000
0.015036 0.005242 0.000000
0.000000 0.000000 0.000000
-0.002655 0.003619 0.000000
0.003619 -0.027073 0.000000
0.000000 0.000000 0.000000
0.008251 -0.010245 0.000000
-0.010245 -0.002175 0.000000
0.000000 0.000000 0.000000
0.010501 0.001402 0.000000
0.001402 0.000674 0.000000
0.000000 0.000000 0.000000
-0.010103 -0.000729 0.000000
-0.000729 0.004552 0.000000
0.000000 0.000000 0.000000
-0.004015 -0.005720 0.000000
-0.005720 0.003017 0.000000
0.000000 0.000000 0.000000
0.011359 -0.009731 0.000000
-0.009731 -0.002755 0.000000
0.000000 0.000000 0.000000
0.005053 0.002826 0.000000
0.002826 -0.020559 0.000000
0.000000 0.000000 0.000000
0.012573 -0.001854 0.000000
-0.001854 -0.002252 0.000000
0.000000 0.000000 0.000000
-0.005021 0.010736 0.000000
0.010736 -0.002028 0.000000
0.000000 0.000000 0.000000
-0.002912 0.006213 0.000000
0.006213 -0.016644 0.000000
0.000000 0.000000 0.000000
-0.004197 -0.001525 0.000000
-0.001525 -0.002250 0.000000
0.000000 0.000000 0.000000
0.004649 0.000268 0.000000
0.000268 -0.006570 0.000000
0.000000 0.000000 0.000000
0.012812 -0.002166 0.000000
-0.002166 0.035389 0.000000
0.000000 0.000000 0.000000
-0.007320 0.000392 0.000000
0.000392 0.002276 0.000000
0.000000 0.000000 0.000000
0.010946 0.002682 0.000000
0.002682 0.007948 0.000000
0.000000 0.000000 0.000000
0.003346 0.010351 0.000000
0.010351 0.004997 0.000000
0.000000 0.000000 0.000000
-0.001052 0.004234 0.000000
0.004234 -0.006810 0.000000
0.000000 0.000000 0.000000
-0.004110 0.017102 0.000000
0.017102 0.000201 0.000000
0.000000 0.000000 0.000000
-0.017514 -0.001100 0.000000
-0.001100 0.001572 0.000000
0.000000 0.000000 0.000000
-0.002903 -0.006158 0.000000
-0.006158 -0.000885 0.000000
0.000000 0.000000 0.000000
0.006055 -0.001553 0.000000
-0.001553 -0.013349 0.000000
0.000000 0.000000 0.000000
0.001603 -0.004513 0.000000
-0.004513 -0.007083 0.000000
0.000000 0.000000 0.000000
-0.007571 0.015179 0.000000
0.015179 0.016736 0.000000
0.000000 0.000000 0.000000
0.010608 0.002425 0.000000
0.002425 0.030423 0.000000
0.000000 0.000000 0.000000
-0.005135 0.005310 0.000000
0.005310 0.001109 0.000000
0.000000 0.000000 0.000000
0.008315 -0.001675 0.000000
-0.001675 0.016330 0.000000
0.000000 0.000000 0.000000
0.000629 0.000527 0.000000
0.000527 0.003424 0.000000
0.000000 0.000000 0.000000
0.002681 0.001224 0.000000
0.001224 0.003415 0.000000
0.000000 0.000000 0.000000
-0.014596 -0.019661 0.000000
-0.019661 -0.004397 0.000000
0.000000 0.000000 0.000000
0.023730 0.000423 0.000000
0.000423 0.026750 0.000000
0.000000 0.000000 0.000000
0.006003 -0.006144 0.000000
-0.006144 -0.013020 0.000000
0.000000 0.000000 0.000000
-0.002809 -0.003875 0.000000
-0.003875 0.010464 0.000000
0.000000 0.000000 0.000000
-0.020903 -0.004469 0.000000
-0.004469 -0.024879 0.000000
0.000000 0.000000 0.000000
-0.027783 0.002982 0.000000
0.002982 -0.008519 0.000000
0.000000 0.000000 0.000000
0.013173 0.005607 0.000000
0.005607 0.000043 0.000000
0.000000 0.000000 0.000000
0.004146 -0.003102 0.000000
-0.003102 -0.010627 0.000000
0.000000 0.000000 0.000000
0.001201 0.004805 0.000000
0.004805 -0.012317 0.000000
0.000000 0.000000 0.000000
0.000127 0.007199 0.000000
0.007199 -0.002745 0.000000
0.000000 0.000000 0.000000
-0.006766 0.001587 0.000000
0.001587 -0.006279 0.000000
0.000000 0.000000 0.000000
0.010435 -0.004121 0.000000
-0.004121 0.017419 0.000000
0.000000 0.000000 0.000000
-0.003787 0.000270 0.000000
0.000270 -0.018986 0.000000
0.000000 0.000000 0.000000
0.016878 0.006172 0.000000
0.006172 0.004010 0.000000
0.000000 0.000000 0.000000
0.004785 0.000909 0.000000
0.000909 0.010739 0.000000
0.000000 0.000000 0.000000
0.005811 -0.001220 0.000000
-0.001220 -0.004159 0.000000
0.000000 0.000000 0.000000
0.005990 0.000599 0.000000
0.000599 0.011155 0.000000
0.000000 0.000000 0.000000
-0.004097 -0.011202 0.000000
-0.011202 -0.004673 0.000000
0.000000 0.000000 0.000000
0.011298 0.005815 0.000000
0.005815 -0.007164 0.000000
0.000000 0.000000 0.000000
0.006126 0.006763 0.000000
0.006763 -0.006224 0.000000
0.000000 0.000000 0.000000
-0.002521 -0.004121 0.000000
-0.004121 -0.014870 0.000000
0.000000 0.000000 0.000000
0.012178 -0.000752 0.000000
-0.000752 0.015444 0.000000
0.000000 0.000000 0.000000
0.005873 -0.002975 0.000000
-0.002975 -0.013827 0.000000
0.000000 0.000000 0.000000
-0.004981 0.002784 0.000000
0.002784 0.009921 0.000000
0.000000 0.000000 0.000000
-0.014356 0.003795 0.000000
0.003795 0.000427 0.000000
0.000000 0.000000 0.000000
0.007893 0.001569 0.000000
0.001569 0.001773 0.000000
0.000000 0.000000 0.000000
-0.008022 -0.000404 0.000000
-0.000404 -0.007136 0.000000
0.000000 0.000000 0.000000
0.002496 -0.002072 0.000000
-0.002072 0.005445 0.000000
0.000000 0.000000 0.000000
-0.002753 -0.002100 0.000000
-0.002100 0.004105 0.000000
0.000000 0.000000 0.000000
-0.001254 -0.002696 0.000000
-0.002696 0.005042 0.000000
0.000000 0.000000 0.000000
0.000602 -0.000651 0.000000
-0.000651 0.007608 0.000000
0.000000 0.000000 0.000000
0.012983 0.007308 0.000000
0.007308 0.032110 0.000000
0.000000 0.000000 0.000000
0.001399 -0.002398 0.000000
-0.002398 -0.000043 0.000000
0.000000 0.000000 0.000000
-0.001408 0.004346 0.000000
0.004346 0.009999 0.000000
0.000000 0.000000 0.000000
-0.012006 0.014576 0.000000
0.014576 -0.006214 0.000000
0.000000 0.000000 0.000000
-0.018728 0.011375 0.000000
0.011375 -0.028869 0.000000
0.000000 0.000000 0.000000
0.000004 0.004275 0.000000
0.004275 0.012296 0.000000
0.000000 0.000000 0.000000
-0.004702 0.013331 0.000000
0.013331 0.033289 0.000000
0.000000 0.000000 0.000000
0.015528 0.009197 0.000000
0.009197 -0.005750 0.000000
0.000000 0.000000 0.000000
0.004744 0.008633 0.000000
0.008633 -0.008266 0.000000
0.000000 0.000000 0.000000
0.007269 -0.005893 0.000000
-0.005893 -0.000277 0.000000
0.000000 0.000000 0.000000
-0.003048 0.007056 0.000000
0.007056 -0.007887 0.000000
0.000000 0.000000 0.000000
-0.010256 -0.008771 0.000000
-0.008771 -0.006169 0.000000
0.000000 0.000000 0.000000
0.010895 0.007631 0.000000
0.007631 -0.003660 0.000000
0.000000 0.000000 0.000000
-0.010200 -0.002755 0.000000
-0.002755 0.009258 0.000000
0.000000 0.000000 0.000000
-0.009307 0.000590 0.000000
0.000590 0.011754 0.000000
0.000000 0.000000 0.000000
-0.000279 0.015829 0.000000
0.015829 0.010667 0.000000
0.000000 0.000000 0.000000
-0.001009 0.007330 0.000000
0.007330 0.008012 0.000000
0.000000 0.000000 0.000000
0.015487 -0.004642 0.000000
-0.004642 0.001295 0.000000
0.000000 0.000000 0.000000
0.014781 -0.001286 0.000000
-0.001286 -0.011753 0.000000
0.000000 0.000000 0.000000
0.002676 -0.001742 0.000000
-0.001742 0.003192 0.000000
0.000000 0.000000 0.000000
0.004955 -0.002057 0.000000
-0.002057 0.003954 0.000000
0.000000 0.000000 0.000000
0.006419 -0.002044 0.000000
-0.002044 0.005452 0.000000
0.000000 0.000000 0.000000
0.010342 -0.004331 0.000000
-0.004331 0.022795 0.000000
0.000000 0.000000 0.000000
-0.009674 0.001597 0.000000
0.001597 -0.027523 0.000000
0.000000 0.000000 0.000000
-0.011726 0.009610 0.000000
0.009610 -0.021910 0.000000
0.000000 0.000000 0.000000
0.001363 -0.000513 0.000000
-0.000513 0.003555 0.000000
0.000000 0.000000 0.000000
0.005099 -0.001832 0.000000
-0.001832 0.003986 0.000000
0.000000 0.000000 0.000000
0.002315 0.001647 0.000000
0.001647 0.002033 0.000000
0.000000 0.000000 0.000000
-0.000815 0.001011 0.000000
0.001011 0.003551 0.000000
0.000000 0.000000 0.000000
0.021431 -0.008026 0.000000
-0.008026 0.030538 0.000000
0.000000 0.000000 0.000000
0.013484 -0.005705 0.000000
-0.005705 0.028890 0.000000
0.000000 0.000000 0.000000
-0.011217 0.009268 0.000000
0.009268 0.002342 0.000000
0.000000 0.000000 0.000000
0.001661 -0.003579 0.000000
-0.003579 -0.000733 0.000000
0.000000 0.000000 0.000000
0.004836 -0.018180 0.000000
-0.018180 -0.001575 0.000000
0.000000 0.000000 0.000000
-0.003538 0.005271 0.000000
0.005271 0.006221 0.000000
0.000000 0.000000 0.000000
-0.010165 0.004445 0.000000
0.004445 -0.020294 0.000000
0.000000 0.000000 0.000000
0.018411 0.003009 0.000000
0.003009 -0.012846 0.000000
0.000000 0.000000 0.000000
0.004550 0.008072 0.000000
0.008072 0.024667 0.000000
0.000000 0.000000 0.000000
-0.023445 -0.010899 0.000000
-0.010899 -0.016351 0.000000
0.000000 0.000000 0.000000
-0.001693 0.007916 0.000000
0.007916 0.016407 0.000000
0.000000 0.000000 0.000000
0.005303 0.004078 0.000000
0.004078 0.010497 0.000000
0.000000 0.000000 0.000000
0.001616 0.011022 0.000000
0.011022 0.006195 0.000000
0.000000 0.000000 0.000000
-0.007040 -0.001966 0.000000
-0.001966 -0.015126 0.000000
0.000000 0.000000 0.000000
-0.001055 0.001642 0.000000
0.001642 -0.000897 0.000000
0.000000 0.000000 0.000000
0.001569 -0.004145 0.000000
-0.004145 0.006468 0.000000
0.000000 0.000000 0.000000
0.003823 0.000707 0.000000
0.000707 -0.007063 0.000000
0.000000 0.000000 0.000000
0.015225 0.002012 0.000000
0.002012 0.007107 0.000000
0.000000 0.000000 0.000000
0.000490 -0.004112 0.000000
-0.004112 0.004479 0.000000
0.000000 0.000000 0.000000
0.009614 0.001075 0.000000
0.001075 0.006626 0.000000
0.000000 0.000000 0.000000
-0.008875 -0.006139 0.000000
-0.006139 0.000374 0.000000
0.000000 0.000000 0.000000
-0.000890 -0.028039 0.000000
-0.028039 -0.036214 0.000000
0.000000 0.000000 0.000000
-0.013075 -0.001497 0.000000
-0.001497 0.024792 0.000000
0.000000 0.000000 0.000000
0.003024 0.002642 0.000000
0.002642 0.007636 0.000000
0.000000 0.000000 0.000000
-0.010839 -0.013732 0.000000
-0.013732 0.000789 0.000000
0.000000 0.000000 0.000000
0.004028 0.004419 0.000000
0.004419 0.010606 0.000000
0.000000 0.000000 0.000000
0.026050 -0.013768 0.000000
-0.013768 0.027892 0.000000
0.000000 0.000000 0.000000
0.000279 0.002455 0.000000
0.002455 -0.009054 0.000000
0.000000 0.000000 0.000000
-0.009966 0.001245 0.000000
0.001245 0.003206 0.000000
0.000000 0.000000 0.000000
-0.004609 -0.009757 0.000000
-0.009757 -0.017753 0.000000
0.000000 0.000000 0.000000
-0.011761 -0.007607 0.000000
-0.007607 -0.020362 0.000000
0.000000 0.000000 0.000000
-0.002764 -0.001610 0.000000
-0.001610 0.024768 0.000000
0.000000 0.000000 0.000000
-0.008977 -0.003166 0.000000
-0.003166 -0.025373 0.000000
0.000000 0.000000 0.000000
-0.007267 -0.004371 0.000000
-0.004371 -0.023899 0.000000
0.000000 0.000000 0.000000
-0.002703 0.000891 0.000000
0.000891 0.002704 0.000000
0.000000 0.000000 0.000000
0.001744 -0.001520 0.000000
-0.001520 -0.005751 0.000000
0.000000 0.000000 0.000000
0.000377 -0.004445 0.000000
-0.004445 -0.008187 0.000000
0.000000 0.000000 0.000000
-0.000752 -0.004040 0.000000
-0.004040 -0.010111 0.000000
0.000000 0.000000 0.000000
-0.000947 -0.004316 0.000000
-0.004316 -0.008461 0.000000
0.000000 0.000000 0.000000
-0.010151 0.001437 0.000000
0.001437 -0.010344 0.000000
0.000000 0.000000 0.000000
-0.002094 -0.006925 0.000000
-0.006925 0.003490 0.000000
0.000000 0.000000 0.000000
0.000951 -0.002682 0.000000
-0.002682 0.002929 0.000000
0.000000 0.000000 0.000000
0.008348 -0.005357 0.000000
-0.005357 -0.002627 0.000000
0.000000 0.000000 0.000000
-0.010458 0.004958 0.000000
0.004958 -0.024504 0.000000
0.000000 0.000000 0.000000
0.009471 0.002676 0.000000
0.002676 -0.007791 0.000000
0.000000 0.000000 0.000000
0.003493 0.010253 0.000000
0.010253 -0.012137 0.000000
0.000000 0.000000 0.000000
-0.012312 0.004062 0.000000
0.004062 -0.009104 0.000000
0.000000 0.000000 0.000000
-0.020185 0.002193 0.000000
0.002193 -0.016491 0.000000
0.000000 0.000000 0.000000
-0.026886 -0.013369 0.000000
-0.013369 -0.019784 0.000000
0.000000 0.000000 0.000000
0.002161 0.004882 0.000000
0.004882 0.021021 0.000000
0.000000 0.000000 0.000000
0.003209 0.005082 0.000000
0.005082 -0.002653 0.000000
0.000000 0.000000 0.000000
0.002101 -0.012939 0.000000
-0.012939 0.001286 0.000000
0.000000 0.000000 0.000000
-0.000036 0.002024 0.000000
0.002024 0.008905 0.000000
0.000000 0.000000 0.000000
-0.007064 -0.000477 0.000000
-0.000477 -0.029834 0.000000
0.000000 0.000000 0.000000
-0.004740 0.003671 0.000000
0.003671 -0.012602 0.000000
0.000000 0.000000 0.000000
0.013326 0.003858 0.000000
0.003858 -0.005840 0.000000
0.000000 0.000000 0.000000
-0.004655 -0.003030 0.000000
-0.003030 -0.002042 0.000000
0.000000 0.000000 0.000000
-0.004462 0.005477 0.000000
0.005477 -0.017096 0.000000
0.000000 0.000000 0.000000
0.004015 0.004109 0.000000
0.004109 0.010018 0.000000
0.000000 0.000000 0.000000
-0.002965 -0.002061 0.000000
-0.002061 -0.016192 0.000000
0.000000 0.000000 0.000000
0.007428 0.006026 0.000000
0.006026 0.004553 0.000000
0.000000 0.000000 0.000000
0.004015 0.003848 0.000000
0.003848 -0.002207 0.000000
0.000000 0.000000 0.000000
-0.005768 -0.008461 0.000000
-0.008461 -0.017240 0.000000
0.000000 0.000000 0.000000
-0.009606 -0.012439 0.000000
-0.012439 -0.012749 0.000000
0.000000 0.000000 0.000000
0.006510 0.001192 0.000000
0.001192 -0.016929 0.000000
0.000000 0.000000 0.000000
-0.003036 0.010403 0.000000
0.010403 0.001704 0.000000
0.000000 0.000000 0.000000
-0.018761 -0.013561 0.000000
-0.013561 -0.004293 0.000000
0.000000 0.000000 0.000000
-0.039764 -0.008618 0.000000
-0.008618 -0.000311 0.000000
0.000000 0.000000 0.000000
0.011327 -0.003705 0.000000
-0.003705 0.000614 0.000000
0.000000 0.000000 0.000000
-0.005702 -0.003179 0.000000
-0.003179 -0.010125 0.000000
0.000000 0.000000 0.000000
-0.008248 0.006763 0.000000
0.006763 -0.015226 0.000000
0.000000 0.000000 0.000000
-0.014334 0.005891 0.000000
0.005891 -0.027728 0.000000
0.000000 0.000000 0.000000
0.012414 -0.019697 0.000000
-0.019697 -0.016504 0.000000
0.000000 0.000000 0.000000
0.017040 -0.020614 0.000000
-0.020614 0.006211 0.000000
0.000000 0.000000 0.000000
0.009485 -0.006569 0.000000
-0.006569 0.004965 0.000000
0.000000 0.000000 0.000000
0.003433 0.003002 0.000000
0.003002 -0.003292 0.000000
0.000000 0.000000 0.000000
-0.007985 0.025831 0.000000
0.025831 0.004842 0.000000
0.000000 0.000000 0.000000
0.008667 0.006831 0.000000
0.006831 -0.013626 0.000000
0.000000 0.000000 0.000000
-0.003707 0.000387 0.000000
0.000387 -0.008546 0.000000
0.000000 0.000000 0.000000
0.007639 -0.005871 0.000000
-0.005871 0.003304 0.000000
0.000000 0.000000 0.000000
0.007256 0.005441 0.000000
0.005441 0.020356 0.000000
0.000000 0.000000 0.000000
0.016195 0.006750 0.000000
0.006750 0.015356 0.000000
0.000000 0.000000 0.000000
-0.000494 0.002714 0.000000
0.002714 -0.003878 0.000000
0.000000 0.000000 0.000000
-0.003508 0.002559 0.000000
0.002559 -0.001235 0.000000
0.000000 0.000000 0.000000
-0.008920 -0.000513 0.000000
-0.000513 -0.021013 0.000000
0.000000 0.000000 0.000000
-0.027718 0.011049 0.000000
0.011049 -0.044926 0.000000
0.000000 0.000000 0.000000
0.001398 -0.000288 0.000000
-0.000288 0.002109 0.000000
0.000000 0.000000 0.000000
0.009913 0.002684 0.000000
0.002684 0.006634 0.000000
0.000000 0.000000 0.000000
-0.000879 0.001550 0.000000
0.001550 0.009086 0.000000
0.000000 0.000000 0.000000
0.007979 0.023092 0.000000
0.023092 -0.022112 0.000000
0.000000 0.000000 0.000000
0.013349 0.004260 0.000000
0.004260 -0.009385 0.000000
0.000000 0.000000 0.000000
0.013969 -0.005960 0.000000
-0.005960 -0.013290 0.000000
0.000000 0.000000 0.000000
0.011864 0.002060 0.000000
0.002060 0.016274 0.000000
0.000000 0.000000 0.000000
0.002061 0.014587 0.000000
0.014587 -0.000967 0.000000
0.000000 0.000000 0.000000
-0.001543 -0.002905 0.000000
-0.002905 -0.017094 0.000000
0.000000 0.000000 0.000000
-0.000001 -0.000806 0.000000
-0.000806 -0.002770 0.000000
0.000000 0.000000 0.000000
-0.007161 0.006873 0.000000
0.006873 0.007359 0.000000
0.000000 0.000000 0.000000
0.009391 0.004244 0.000000
0.004244 0.008768 0.000000
0.000000 0.000000 0.000000
-0.003091 0.006231 0.000000
0.006231 -0.004758 0.000000
0.000000 0.000000 0.000000
-0.004524 0.002858 0.000000
0.002858 -0.011069 0.000000
0.000000 0.000000 0.000000
0.000400 0.016264 0.000000
0.016264 -0.028922 0.000000
0.000000 0.000000 0.000000
0.005932 -0.002725 0.000000
-0.002725 0.007042 0.000000
0.000000 0.000000 0.000000
0.000057 0.000266 0.000000
0.000266 0.001916 0.000000
0.000000 0.000000 0.000000
-0.001028 0.000235 0.000000
0.000235 0.001662 0.000000
0.000000 0.000000 0.000000
-0.003747 0.002655 0.000000
0.002655 -0.028053 0.000000
0.000000 0.000000 0.000000
0.013378 -0.005059 0.000000
-0.005059 0.023355 0.000000
0.000000 0.000000 0.000000
0.000815 -0.001749 0.000000
-0.001749 0.020385 0.000000
0.000000 0.000000 0.000000
0.007661 0.000605 0.000000
0.000605 -0.000445 0.000000
0.000000 0.000000 0.000000
0.000727 -0.001329 0.000000
-0.001329 -0.006352 0.000000
0.000000 0.000000 0.000000
0.004528 -0.002417 0.000000
-0.002417 0.006425 0.000000
0.000000 0.000000 0.000000
-0.009300 -0.002599 0.000000
-0.002599 -0.012263 0.000000
0.000000 0.000000 0.000000
-0.012873 -0.006442 0.000000
-0.006442 -0.019908 0.000000
0.000000 0.000000 0.000000
0.021628 0.003467 0.000000
0.003467 -0.001077 0.000000
0.000000 0.000000 0.000000
-0.004022 0.008600 0.000000
0.008600 0.005888 0.000000
0.000000 0.000000 0.000000
-0.012965 0.008656 0.000000
0.008656 -0.020190 0.000000
0.000000 0.000000 0.000000
0.003122 -0.000525 0.000000
-0.000525 -0.003542 0.000000
0.000000 0.000000 0.000000
-0.008462 0.006035 0.000000
0.006035 0.011589 0.000000
0.000000 0.000000 0.000000
0.002686 -0.002762 0.000000
-0.002762 -0.004160 0.000000
0.000000 0.000000 0.000000
0.008094 0.001924 0.000000
0.001924 -0.008242 0.000000
0.000000 0.000000 0.000000
-0.001647 0.001871 0.000000
0.001871 0.003014 0.000000
0.000000 0.000000 0.000000
-0.006742 0.010488 0.000000
0.010488 0.013124 0.000000
0.000000 0.000000 0.000000
0.003540 0.003697 0.000000
0.003697 -0.019660 0.000000
0.000000 0.000000 0.000000
0.001938 0.004857 0.000000
0.004857 0.003661 0.000000
0.000000 0.000000 0.000000
-0.004212 0.002417 0.000000
0.002417 -0.000069 0.000000
0.000000 0.000000 0.000000
0.010624 0.003851 0.000000
0.003851 -0.000541 0.000000
0.000000 0.000000 0.000000
-0.000314 0.008692 0.000000
0.008692 0.024735 0.000000
0.000000 0.000000 0.000000
0.024735 -0.013968 0.000000
-0.013968 0.036964 0.000000
0.000000 0.000000 0.000000
0.009333 -0.004830 0.000000
-0.004830 0.017689 0.000000
0.000000 0.000000 0.000000
0.010588 -0.003232 0.000000
-0.003232 -0.020764 0.000000
0.000000 0.000000 0.000000
0.026282 0.012014 0.000000
0.012014 0.005334 0.000000
0.000000 0.000000 0.000000
-0.004240 -0.016498 0.000000
-0.016498 0.013400 0.000000
0.000000 0.000000 0.000000
0.000779 -0.011609 0.000000
-0.011609 -0.002953 0.000000
0.000000 0.000000 0.000000
-0.008586 0.003059 0.000000
0.003059 0.001952 0.000000
0.000000 0.000000 0.000000
0.004401 -0.001569 0.000000
-0.001569 0.009110 0.000000
0.000000 0.000000 0.000000
0.007233 -0.002146 0.000000
-0.002146 -0.002794 0.000000
0.000000 0.000000 0.000000
0.000611 0.000495 0.000000
0.000495 0.008915 0.000000
0.000000 0.000000 0.000000
0.006169 -0.004771 0.000000
-0.004771 0.003425 0.000000
0.000000 0.000000 0.000000
-0.005352 0.001283 0.000000
0.001283 -0.009030 0.000000
0.000000 0.000000 0.000000
-0.015897 0.007566 0.000000
0.007566 -0.034426 0.000000
0.000000 0.000000 0.000000
-0.011141 0.010048 0.000000
0.010048 -0.017006 0.000000
0.000000 0.000000 0.000000
-0.002395 -0.002298 0.000000
-0.002298 -0.000454 0.000000
0.000000 0.000000 0.000000
0.001905 -0.004121 0.000000
-0.004121 0.000561 0.000000
0.000000 0.000000 0.000000
-0.011683 0.005606 0.000000
0.005606 -0.007148 0.000000
0.000000 0.000000 0.000000
-0.005196 -0.001586 0.000000
-0.001586 -0.009912 0.000000
0.000000 0.000000 0.000000
0.018519 -0.010774 0.000000
-0.010774 -0.008089 0.000000
0.000000 0.000000 0.000000
0.008481 -0.005840 0.000000
-0.005840 -0.036512 0.000000
0.000000 0.000000 0.000000
-0.002288 0.005449 0.000000
0.005449 -0.016213 0.000000
0.000000 0.000000 0.000000
-0.007260 -0.007381 0.000000
-0.007381 -0.022779 0.000000
0.000000 0.000000 0.000000
0.001370 0.001386 0.000000
0.001386 0.005057 0.000000
0.000000 0.000000 0.000000
0.012786 0.003767 0.000000
0.003767 0.028699 0.000000
0.000000 0.000000 0.000000
-0.011205 -0.014537 0.000000
-0.014537 -0.004631 0.000000
0.000000 0.000000 0.000000
-0.000670 0.002239 0.000000
0.002239 -0.003392 0.000000
0.000000 0.000000 0.000000
0.001140 -0.008938 0.000000
-0.008938 0.003420 0.000000
0.000000 0.000000 0.000000
0.005214 -0.000502 0.000000
-0.000502 0.000194 0.000000
0.000000 0.000000 0.000000
-0.009451 0.018577 0.000000
0.018577 0.013057 0.000000
0.000000 0.000000 0.000000
-0.011050 0.020480 0.000000
0.020480 0.003551 0.000000
0.000000 0.000000 0.000000
0.008714 0.005570 0.000000
0.005570 -0.005047 0.000000
0.000000 0.000000 0.000000
-0.001548 0.000591 0.000000
0.000591 -0.005325 0.000000
0.000000 0.000000 0.000000
-0.001717 -0.007719 0.000000
-0.007719 0.009000 0.000000
0.000000 0.000000 0.000000
0.002716 0.007298 0.000000
0.007298 -0.006847 0.000000
0.000000 0.000000 0.000000
-0.009906 -0.014343 0.000000
-0.014343 -0.008077 0.000000
0.000000 0.000000 0.000000
-0.011505 -0.018446 0.000000
-0.018446 0.011895 0.000000
0.000000 0.000000 0.000000
0.002494 -0.006049 0.000000
-0.006049 -0.002770 0.000000
0.000000 0.000000 0.000000
-0.014958 0.003998 0.000000
0.003998 -0.022827 0.000000
0.000000 0.000000 0.000000
0.003169 0.004522 0.000000
0.004522 -0.015613 0.000000
0.000000 0.000000 0.000000
-0.007490 0.019132 0.000000
0.019132 -0.001866 0.000000
0.000000 0.000000 0.000000
-0.000841 0.000605 0.000000
0.000605 -0.013394 0.000000
0.000000 0.000000 0.000000
0.012753 -0.002564 0.000000
-0.002564 0.010027 0.000000
0.000000 0.000000 0.000000
-0.007701 0.000095 0.000000
0.000095 -0.015470 0.000000
0.000000 0.000000 0.000000
-0.016539 -0.004837 0.000000
-0.004837 -0.010090 0.000000
0.000000 0.000000 0.000000
0.002662 0.000036 0.000000
0.000036 0.007307 0.000000
0.000000 0.000000 0.000000
-0.003705 0.002770 0.000000
0.002770 -0.008778 0.000000
0.000000 0.000000 0.000000
0.005183 0.007443 0.000000
0.007443 -0.002903 0.000000
0.000000 0.000000 0.000000
-0.005673 -0.002300 0.000000
-0.002300 -0.004478 0.000000
0.000000 0.000000 0.000000
0.003947 0.003140 0.000000
0.003140 0.008498 0.000000
0.000000 0.000000 0.000000
0.005281 0.003099 0.000000
0.003099 0.008539 0.000000
0.000000 0.000000 0.000000
0.010049 0.009734 0.000000
0.009734 -0.002477 0.000000
0.000000 0.000000 0.000000
0.006081 -0.008479 0.000000
-0.008479 -0.004359 0.000000
0.000000 0.000000 0.000000
-0.011509 -0.005985 0.000000
-0.005985 -0.011054 0.000000
0.000000 0.000000 0.000000
-0.002268 -0.003260 0.000000
-0.003260 -0.003809 0.000000
0.000000 0.000000 0.000000
0.007831 -0.005567 0.000000
-0.005567 0.001360 0.000000
0.000000 0.000000 0.000000
-0.004876 -0.000563 0.000000
-0.000563 -0.004763 0.000000
0.000000 0.000000 0.000000
0.029992 -0.014285 0.000000
-0.014285 0.038318 0.000000
0.000000 0.000000 0.000000
-0.003612 0.008015 0.000000
0.008015 -0.010452 0.000000
0.000000 0.000000 0.000000
0.001487 0.014761 0.000000
0.014761 0.010306 0.000000
0.000000 0.000000 0.000000
-0.006848 0.009505 0.000000
0.009505 -0.006915 0.000000
0.000000 0.000000 0.000000
0.012567 -0.001350 0.000000
-0.001350 -0.010340 0.000000
0.000000 0.000000 0.000000
0.008959 0.033064 0.000000
0.033064 0.001334 0.000000
0.000000 0.000000 0.000000
-0.011882 0.009661 0.000000
0.009661 -0.006283 0.000000
0.000000 0.000000 0.000000
0.011453 0.001536 0.000000
0.001536 0.006423 0.000000
0.000000 0.000000 0.000000
-0.006474 -0.002765 0.000000
-0.002765 -0.001943 0.000000
0.000000 0.000000 0.000000
-0.000565 0.000793 0.000000
0.000793 0.004765 0.000000
0.000000 0.000000 0.000000
-0.009107 -0.003557 0.000000
-0.003557 0.004276 0.000000
0.000000 0.000000 0.000000
0.008952 -0.009929 0.000000
-0.009929 0.000891 0.000000
0.000000 0.000000 0.000000
-0.014379 0.007206 0.000000
0.007206 -0.021302 0.000000
0.000000 0.000000 0.000000
-0.017060 0.009273 0.000000
0.009273 -0.027490 0.000000
0.000000 0.000000 0.000000
-0.011074 -0.005204 0.000000
-0.005204 -0.013807 0.000000
0.000000 0.000000 0.000000
0.008917 0.006862 0.000000
0.006862 0.008918 0.000000
0.000000 0.000000 0.000000
-0.010005 -0.011132 0.000000
-0.011132 0.007881 0.000000
0.000000 0.000000 0.000000
-0.001582 0.002824 0.000000
0.002824 -0.015754 0.000000
0.000000 0.000000 0.000000
-0.000456 0.001022 0.000000
0.001022 -0.004887 0.000000
0.000000 0.000000 0.000000
0.004171 0.004107 0.000000
0.004107 0.008970 0.000000
0.000000 0.000000 0.000000
-0.001183 0.000594 0.000000
0.000594 0.003414 0.000000
0.000000 0.000000 0.000000
-0.014192 -0.007514 0.000000
-0.007514 -0.026356 0.000000
0.000000 0.000000 0.000000
0.013267 0.006113 0.000000
0.006113 0.031929 0.000000
0.000000 0.000000 0.000000
0.008447 0.002790 0.000000
0.002790 0.017936 0.000000
0.000000 0.000000 0.000000
0.002859 -0.002118 0.000000
-0.002118 0.003095 0.000000
0.000000 0.000000 0.000000
-0.005137 0.000774 0.000000
0.000774 -0.001401 0.000000
0.000000 0.000000 0.000000
-0.002021 -0.002489 0.000000
-0.002489 0.002585 0.000000
0.000000 0.000000 0.000000
-0.003315 -0.003069 0.000000
-0.003069 0.003713 0.000000
0.000000 0.000000 0.000000
-0.000288 0.001317 0.000000
0.001317 -0.007171 0.000000
0.000000 0.000000 0.000000
0.001603 -0.000830 0.000000
-0.000830 -0.005012 0.000000
0.000000 0.000000 0.000000
-0.003575 -0.004833 0.000000
-0.004833 -0.014841 0.000000
0.000000 0.000000 0.000000
0.014895 0.006129 0.000000
0.006129 0.029831 0.000000
0.000000 0.000000 0.000000
0.005585 0.023799 0.000000
0.023799 -0.006606 0.000000
0.000000 0.000000 0.000000
-0.014562 -0.007347 0.000000
-0.007347 0.011580 0.000000
0.000000 0.000000 0.000000
-0.014246 0.001145 0.000000
0.001145 -0.000822 0.000000
0.000000 0.000000 0.000000
0.007272 0.001949 0.000000
0.001949 0.015364 0.000000
0.000000 0.000000 0.000000
-0.004489 -0.003131 0.000000
-0.003131 -0.001230 0.000000
0.000000 0.000000 0.000000
-0.010275 -0.007940 0.000000
-0.007940 -0.011522 0.000000
0.000000 0.000000 0.000000
-0.006925 -0.001281 0.000000
-0.001281 -0.000184 0.000000
0.000000 0.000000 0.000000
-0.012103 0.000863 0.000000
0.000863 0.000864 0.000000
0.000000 0.000000 0.000000
-0.016571 0.004566 0.000000
0.004566 -0.019962 0.000000
0.000000 0.000000 0.000000
0.003264 -0.007229 0.000000
-0.007229 0.005014 0.000000
0.000000 0.000000 0.000000
-0.015717 -0.008234 0.000000
-0.008234 -0.010748 0.000000
0.000000 0.000000 0.000000
-0.015426 0.000906 0.000000
0.000906 0.009974 0.000000
0.000000 0.000000 0.000000
0.005911 0.012534 0.000000
0.012534 0.002278 0.000000
0.000000 0.000000 0.000000
0.005484 -0.000412 0.000000
-0.000412 0.022297 0.000000
0.000000 0.000000 0.000000
0.001211 0.002405 0.000000
0.002405 0.007559 0.000000
0.000000 0.000000 0.000000
0.024246 -0.007162 0.000000
-0.007162 -0.003785 0.000000
0.000000 0.000000 0.000000
-0.004089 -0.006516 0.000000
-0.006516 -0.007613 0.000000
0.000000 0.000000 0.000000
-0.011847 -0.015091 0.000000
-0.015091 -0.015956 0.000000
0.000000 0.000000 0.000000
-0.009736 -0.020739 0.000000
-0.020739 0.001593 0.000000
0.000000 0.000000 0.000000
-0.002668 0.000925 0.000000
0.000925 -0.011235 0.000000
0.000000 0.000000 0.000000
0.021655 -0.008695 0.000000
-0.008695 -0.006928 0.000000
0.000000 0.000000 0.000000
0.005788 0.005801 0.000000
0.005801 0.013608 0.000000
0.000000 0.000000 0.000000
-0.005679 -0.004146 0.000000
-0.004146 -0.013369 0.000000
0.000000 0.000000 0.000000
-0.011869 0.000337 0.000000
0.000337 -0.011397 0.000000
0.000000 0.000000 0.000000
-0.013682 0.002590 0.000000
0.002590 -0.012733 0.000000
0.000000 0.000000 0.000000
0.013834 0.001806 0.000000
0.001806 -0.003738 0.000000
0.000000 0.000000 0.000000
0.010646 0.000590 0.000000
0.000590 0.026637 0.000000
0.000000 0.000000 0.000000
-0.003725 0.003888 0.000000
0.003888 -0.004930 0.000000
0.000000 0.000000 0.000000
-0.001877 0.000357 0.000000
0.000357 0.005464 0.000000
0.000000 0.000000 0.000000
0.010050 0.007501 0.000000
0.007501 -0.020346 0.000000
0.000000 0.000000 0.000000
-0.010292 -0.008739 0.000000
-0.008739 -0.016447 0.000000
0.000000 0.000000 0.000000
0.006686 0.007530 0.000000
0.007530 -0.004540 0.000000
0.000000 0.000000 0.000000
-0.003443 -0.007469 0.000000
-0.007469 -0.017910 0.000000
0.000000 0.000000 0.000000
0.005322 0.001058 0.000000
0.001058 0.006192 0.000000
0.000000 0.000000 0.000000
-0.000834 0.003294 0.000000
0.003294 0.006432 0.000000
0.000000 0.000000 0.000000
-0.013630 -0.002054 0.000000
-0.002054 0.007825 0.000000
0.000000 0.000000 0.000000
0.022524 0.018440 0.000000
0.018440 0.002161 0.000000
0.000000 0.000000 0.000000
0.027331 0.029290 0.000000
0.029290 -0.014749 0.000000
0.000000 0.000000 0.000000
-0.007572 -0.001624 0.000000
-0.001624 -0.004949 0.000000
0.000000 0.000000 0.000000
0.002722 -0.004338 0.000000
-0.004338 -0.003630 0.000000
0.000000 0.000000 0.000000
-0.007060 -0.007854 0.000000
-0.007854 -0.002391 0.000000
0.000000 0.000000 0.000000
0.006683 -0.001971 0.000000
-0.001971 0.006479 0.000000
0.000000 0.000000 0.000000
0.008140 0.008143 0.000000
0.008143 -0.025699 0.000000
0.000000 0.000000 0.000000
-0.004599 0.009255 0.000000
0.009255 -0.012218 0.000000
0.000000 0.000000 0.000000
0.015881 -0.006147 0.000000
-0.006147 -0.007925 0.000000
0.000000 0.000000 0.000000
0.016242 0.003841 0.000000
0.003841 -0.019219 0.000000
0.000000 0.000000 0.000000
-0.004828 -0.003063 0.000000
-0.003063 0.004014 0.000000
0.000000 0.000000 0.000000
-0.003631 -0.000522 0.000000
-0.000522 0.002732 0.000000
0.000000 0.000000 0.000000
0.002491 -0.004727 0.000000
-0.004727 0.008723 0.000000
0.000000 0.000000 0.000000
-0.024463 -0.009319 0.000000
-0.009319 0.002732 0.000000
0.000000 0.000000 0.000000
-0.007989 -0.006799 0.000000
-0.006799 -0.019380 0.000000
0.000000 0.000000 0.000000
-0.004753 -0.004662 0.000000
-0.004662 -0.013958 0.000000
0.000000 0.000000 0.000000
0.015339 0.004411 0.000000
0.004411 0.001055 0.000000
0.000000 0.000000 0.000000
-0.001456 0.001685 0.000000
0.001685 -0.000765 0.000000
0.000000 0.000000 0.000000
0.017613 -0.001815 0.000000
-0.001815 0.012657 0.000000
0.000000 0.000000 0.000000
0.014218 0.002563 0.000000
0.002563 0.008259 0.000000
0.000000 0.000000 0.000000
0.000722 -0.001091 0.000000
-0.001091 0.003252 0.000000
0.000000 0.000000 0.000000
0.003831 -0.002086 0.000000
-0.002086 0.003591 0.000000
0.000000 0.000000 0.000000
0.021317 -0.001591 0.000000
-0.001591 0.003780 0.000000
0.000000 0.000000 0.000000
0.011821 -0.014162 0.000000
-0.014162 0.031857 0.000000
0.000000 0.000000 0.000000
-0.001369 0.005092 0.000000
0.005092 -0.012166 0.000000
0.000000 0.000000 0.000000
0.005446 0.002180 0.000000
0.002180 0.006908 0.000000
0.000000 0.000000 0.000000
0.010301 -0.000818 0.000000
-0.000818 0.028617 0.000000
0.000000 0.000000 0.000000
-0.008188 -0.001973 0.000000
-0.001973 -0.029583 0.000000
0.000000 0.000000 0.000000
0.001526 -0.005243 0.000000
-0.005243 0.001136 0.000000
0.000000 0.000000 0.000000
-0.000920 -0.005498 0.000000
-0.005498 0.003768 0.000000
0.000000 0.000000 0.000000
0.000475 -0.000101 0.000000
-0.000101 0.007420 0.000000
0.000000 0.000000 0.000000
-0.013497 -0.007299 0.000000
-0.007299 -0.001952 0.000000
0.000000 0.000000 0.000000
-0.009009 -0.002660 0.000000
-0.002660 -0.017357 0.000000
0.000000 0.000000 0.000000
-0.022218 -0.010995 0.000000
-0.010995 -0.031592 0.000000
0.000000 0.000000 0.000000
-0.004600 -0.016844 0.000000
-0.016844 0.011614 0.000000
0.000000 0.000000 0.000000
0.006219 -0.000033 0.000000
-0.000033 -0.012212 0.000000
0.000000 0.000000 0.000000
0.002020 -0.008573 0.000000
-0.008573 0.018136 0.000000
0.000000 0.000000 0.000000
-0.011563 -0.001924 0.000000
-0.001924 -0.008298 0.000000
0.000000 0.000000 0.000000
-0.000142 -0.006606 0.000000
-0.006606 -0.000939 0.000000
0.000000 0.000000 0.000000
0.005497 -0.002728 0.000000
-0.002728 -0.026873 0.000000
0.000000 0.000000 0.000000
0.016120 0.003897 0.000000
0.003897 -0.001329 0.000000
0.000000 0.000000 0.000000
-0.000739 -0.001086 0.000000
-0.001086 -0.012035 0.000000
0.000000 0.000000 0.000000
0.001204 0.000348 0.000000
0.000348 0.004974 0.000000
0.000000 0.000000 0.000000
0.000455 -0.003454 0.000000
-0.003454 0.011202 0.000000
0.000000 0.000000 0.000000
0.005507 -0.005961 0.000000
-0.005961 0.015387 0.000000
0.000000 0.000000 0.000000
0.013244 0.012153 0.000000
0.012153 0.030147 0.000000
0.000000 0.000000 0.000000
-0.012489 0.009677 0.000000
0.009677 0.006537 0.000000
0.000000 0.000000 0.000000
0.001486 0.001727 0.000000
0.001727 0.004318 0.000000
0.000000 0.000000 0.000000
0.001986 0.000793 0.000000
0.000793 0.023415 0.000000
0.000000 0.000000 0.000000
0.009386 0.010615 0.000000
0.010615 0.007231 0.000000
0.000000 0.000000 0.000000
0.002299 0.000390 0.000000
0.000390 -0.010274 0.000000
0.000000 0.000000 0.000000
-0.003568 0.001345 0.000000
0.001345 -0.009147 0.000000
0.000000 0.000000 0.000000
0.004553 0.001974 0.000000
0.001974 0.011769 0.000000
0.000000 0.000000 0.000000
0.002125 -0.000336 0.000000
-0.000336 -0.009607 0.000000
0.000000 0.000000 0.000000
-0.017245 -0.003880 0.000000
-0.003880 0.012740 0.000000
0.000000 0.000000 0.000000
0.005643 -0.007975 0.000000
-0.007975 0.009171 0.000000
0.000000 0.000000 0.000000
-0.001224 0.000991 0.000000
0.000991 -0.028064 0.000000
0.000000 0.000000 0.000000
-0.000713 0.001159 0.000000
0.001159 -0.020338 0.000000
0.000000 0.000000 0.000000
-0.009839 0.000617 0.000000
0.000617 -0.000481 0.000000
0.000000 0.000000 0.000000
-0.006588 -0.001254 0.000000
-0.001254 0.002137 0.000000
0.000000 0.000000 0.000000
-0.007223 -0.002075 0.000000
-0.002075 0.013288 0.000000
0.000000 0.000000 0.000000
0.009516 0.011432 0.000000
0.011432 -0.005930 0.000000
0.000000 0.000000 0.000000
-0.008737 -0.001567 0.000000
-0.001567 -0.017032 0.000000
0.000000 0.000000 0.000000
0.010880 0.010275 0.000000
0.010275 0.029444 0.000000
0.000000 0.000000 0.000000
-0.003400 -0.004216 0.000000
-0.004216 -0.000545 0.000000
0.000000 0.000000 0.000000
-0.007144 -0.001699 0.000000
-0.001699 -0.005147 0.000000
0.000000 0.000000 0.000000
-0.000493 0.001828 0.000000
0.001828 -0.001952 0.000000
0.000000 0.000000 0.000000
-0.006781 -0.002900 0.000000
-0.002900 -0.018261 0.000000
0.000000 0.000000 0.000000
-0.009504 -0.005681 0.000000
-0.005681 -0.022794 0.000000
0.000000 0.000000 0.000000
0.008642 0.006964 0.000000
0.006964 0.013860 0.000000
0.000000 0.000000 0.000000
0.018414 -0.001062 0.000000
-0.001062 -0.002695 0.000000
0.000000 0.000000 0.000000
0.006167 -0.003579 0.000000
-0.003579 -0.001683 0.000000
0.000000 0.000000 0.000000
-0.002747 -0.012859 0.000000
-0.012859 0.020072 0.000000
0.000000 0.000000 0.000000
-0.001281 -0.009978 0.000000
-0.009978 0.008210 0.000000
0.000000 0.000000 0.000000
-0.001476 -0.001795 0.000000
-0.001795 0.005789 0.000000
0.000000 0.000000 0.000000
-0.000354 0.001379 0.000000
0.001379 -0.001362 0.000000
0.000000 0.000000 0.000000
-0.003687 -0.004427 0.000000
-0.004427 -0.002348 0.000000
0.000000 0.000000 0.000000
0.002143 -0.002523 0.000000
-0.002523 -0.000557 0.000000
0.000000 0.000000 0.000000
0.008905 0.007554 0.000000
0.007554 0.001022 0.000000
0.000000 0.000000 0.000000
-0.007493 0.002978 0.000000
0.002978 0.003165 0.000000
0.000000 0.000000 0.000000
0.007730 -0.002055 0.000000
-0.002055 -0.002953 0.000000
0.000000 0.000000 0.000000
-0.003622 0.002807 0.000000
0.002807 -0.010914 0.000000
0.000000 0.000000 0.000000
-0.008616 0.005904 0.000000
0.005904 -0.017173 0.000000
0.000000 0.000000 0.000000
-0.024850 0.014634 0.000000
0.014634 -0.033250 0.000000
0.000000 0.000000 0.000000
-0.002601 0.000845 0.000000
0.000845 -0.016108 0.000000
0.000000 0.000000 0.000000
-0.015408 -0.006645 0.000000
-0.006645 -0.003225 0.000000
0.000000 0.000000 0.000000
-0.017001 -0.003764 0.000000
-0.003764 0.004721 0.000000
0.000000 0.000000 0.000000
-0.003378 0.002063 0.000000
0.002063 -0.010121 0.000000
0.000000 0.000000 0.000000
-0.001490 0.003434 0.000000
0.003434 -0.017565 0.000000
0.000000 0.000000 0.000000
0.004141 0.001828 0.000000
0.001828 0.010900 0.000000
0.000000 0.000000 0.000000
0.004673 -0.017030 0.000000
-0.017030 -0.019756 0.000000
0.000000 0.000000 0.000000
0.022382 -0.000665 0.000000
-0.000665 0.000831 0.000000
0.000000 0.000000 0.000000
0.011575 0.002098 0.000000
0.002098 0.015801 0.000000
0.000000 0.000000 0.000000
0.005152 -0.000069 0.000000
-0.000069 -0.011455 0.000000
0.000000 0.000000 0.000000
0.007434 -0.013875 0.000000
-0.013875 -0.016474 0.000000
0.000000 0.000000 0.000000
0.007353 -0.012420 0.000000
-0.012420 -0.003558 0.000000
0.000000 0.000000 0.000000
0.012787 -0.000413 0.000000
-0.000413 0.009458 0.000000
0.000000 0.000000 0.000000
0.011683 -0.011253 0.000000
-0.011253 0.010847 0.000000
0.000000 0.000000 0.000000
-0.008299 0.004661 0.000000
0.004661 -0.020326 0.000000
0.000000 0.000000 0.000000
0.017117 -0.010140 0.000000
-0.010140 0.046150 0.000000
0.000000 0.000000 0.000000
-0.001015 -0.000410 0.000000
-0.000410 -0.006613 0.000000
0.000000 0.000000 0.000000
0.001243 -0.001656 0.000000
-0.001656 -0.007855 0.000000
0.000000 0.000000 0.000000
-0.002492 -0.003923 0.000000
-0.003923 0.002692 0.000000
0.000000 0.000000 0.000000
-0.004054 -0.002487 0.000000
-0.002487 0.000367 0.000000
0.000000 0.000000 0.000000
0.003640 -0.003792 0.000000
-0.003792 -0.001649 0.000000
0.000000 0.000000 0.000000
0.006524 -0.001972 0.000000
-0.001972 0.019697 0.000000
0.000000 0.000000 0.000000
0.015067 0.011057 0.000000
0.011057 0.029749 0.000000
0.000000 0.000000 0.000000
-0.003240 -0.000727 0.000000
-0.000727 0.001256 0.000000
0.000000 0.000000 0.000000
-0.003205 0.001601 0.000000
0.001601 0.024648 0.000000
0.000000 0.000000 0.000000
0.018552 0.009921 0.000000
0.009921 0.004961 0.000000
0.000000 0.000000 0.000000
-0.004277 -0.007512 0.000000
-0.007512 0.004644 0.000000
0.000000 0.000000 0.000000
-0.005535 -0.003049 0.000000
-0.003049 -0.006412 0.000000
0.000000 0.000000 0.000000
0.010253 -0.008105 0.000000
-0.008105 0.009823 0.000000
0.000000 0.000000 0.000000
0.001552 -0.012754 0.000000
-0.012754 0.006940 0.000000
0.000000 0.000000 0.000000
0.001865 -0.008868 0.000000
-0.008868 0.006195 0.000000
0.000000 0.000000 0.000000
0.009350 -0.005166 0.000000
-0.005166 0.007715 0.000000
0.000000 0.000000 0.000000
-0.013672 0.002661 0.000000
0.002661 -0.015879 0.000000
0.000000 0.000000 0.000000
0.008423 -0.009483 0.000000
-0.009483 0.009051 0.000000
0.000000 0.000000 0.000000
-0.007462 -0.001201 0.000000
-0.001201 -0.019377 0.000000
0.000000 0.000000 0.000000
-0.020757 -0.009660 0.000000
-0.009660 -0.035038 0.000000
0.000000 0.000000 0.000000
-0.011409 -0.001547 0.000000
-0.001547 0.018772 0.000000
0.000000 0.000000 0.000000
0.016941 0.009898 0.000000
0.009898 -0.002772 0.000000
0.000000 0.000000 0.000000
-0.005520 0.000524 0.000000
0.000524 -0.006176 0.000000
0.000000 0.000000 0.000000
-0.004352 0.001304 0.000000
0.001304 -0.007419 0.000000
0.000000 0.000000 0.000000
-0.002335 -0.007488 0.000000
-0.007488 0.006988 0.000000
0.000000 0.000000 0.000000
-0.004330 -0.009123 0.000000
-0.009123 -0.006769 0.000000
0.000000 0.000000 0.000000
0.001817 0.000801 0.000000
0.000801 0.001421 0.000000
0.000000 0.000000 0.000000
0.004575 -0.002876 0.000000
-0.002876 0.009784 0.000000
0.000000 0.000000 0.000000
-0.011718 -0.000937 0.000000
-0.000937 -0.008407 0.000000
0.000000 0.000000 0.000000
-0.015370 0.002868 0.000000
0.002868 0.007347 0.000000
0.000000 0.000000 0.000000
0.000649 -0.005135 0.000000
-0.005135 -0.008682 0.000000
0.000000 0.000000 0.000000
-0.004522 0.000798 0.000000
0.000798 -0.001361 0.000000
0.000000 0.000000 0.000000
-0.003528 -0.000986 0.000000
-0.000986 -0.008468 0.000000
0.000000 0.000000 0.000000
0.009191 -0.005069 0.000000
-0.005069 -0.014009 0.000000
0.000000 0.000000 0.000000
-0.001591 0.004859 0.000000
0.004859 -0.008419 0.000000
0.000000 0.000000 0.000000
0.004260 0.000323 0.000000
0.000323 0.001593 0.000000
0.000000 0.000000 0.000000
-0.005443 0.005162 0.000000
0.005162 -0.009387 0.000000
0.000000 0.000000 0.000000
-0.000095 0.000949 0.000000
0.000949 0.001593 0.000000
0.000000 0.000000 0.000000
-0.010003 -0.004366 0.000000
-0.004366 -0.024623 0.000000
0.000000 0.000000 0.000000
-0.019494 0.009998 0.000000
0.009998 -0.015263 0.000000
0.000000 0.000000 0.000000
0.004117 0.006573 0.000000
0.006573 0.003671 0.000000
0.000000 0.000000 0.000000
-0.012579 0.002379 0.000000
0.002379 0.002817 0.000000
0.000000 0.000000 0.000000
0.009622 0.001860 0.000000
0.001860 0.002575 0.000000
0.000000 0.000000 0.000000
0.013735 -0.001612 0.000000
-0.001612 0.013609 0.000000
0.000000 0.000000 0.000000
0.005791 0.003065 0.000000
0.003065 -0.005409 0.000000
0.000000 0.000000 0.000000
-0.009309 -0.001330 0.000000
-0.001330 -0.022424 0.000000
0.000000 0.000000 0.000000
0.012427 -0.008324 0.000000
-0.008324 0.004682 0.000000
0.000000 0.000000 0.000000
-0.018106 -0.024326 0.000000
-0.024326 -0.015675 0.000000
0.000000 0.000000 0.000000
0.008139 -0.004581 0.000000
-0.004581 -0.003577 0.000000
0.000000 0.000000 0.000000
0.015293 -0.005545 0.000000
-0.005545 0.004035 0.000000
0.000000 0.000000 0.000000
0.008576 -0.008226 0.000000
-0.008226 0.000270 0.000000
0.000000 0.000000 0.000000
-0.000445 -0.016089 0.000000
-0.016089 0.006035 0.000000
0.000000 0.000000 0.000000
0.017928 -0.002984 0.000000
-0.002984 -0.005980 0.000000
0.000000 0.000000 0.000000
-0.031933 -0.004100 0.000000
-0.004100 -0.007124 0.000000
0.000000 0.000000 0.000000
-0.004783 -0.004132 0.000000
-0.004132 -0.001884 0.000000
0.000000 0.000000 0.000000
0.020533 0.010443 0.000000
0.010443 0.041208 0.000000
0.000000 0.000000 0.000000
0.005134 -0.000901 0.000000
-0.000901 0.003117 0.000000
0.000000 0.000000 0.000000
0.009341 0.000625 0.000000
0.000625 0.017756 0.000000
0.000000 0.000000 0.000000
0.000865 -0.001396 0.000000
-0.001396 -0.010022 0.000000
0.000000 0.000000 0.000000
0.006235 -0.004827 0.000000
-0.004827 -0.002034 0.000000
0.000000 0.000000 0.000000
0.009531 -0.003244 0.000000
-0.003244 -0.002654 0.000000
0.000000 0.000000 0.000000
-0.011224 0.000649 0.000000
0.000649 -0.006514 0.000000
0.000000 0.000000 0.000000
-0.001936 -0.011315 0.000000
-0.011315 -0.003861 0.000000
0.000000 0.000000 0.000000
-0.003951 -0.002583 0.000000
-0.002583 -0.006719 0.000000
0.000000 0.000000 0.000000
-0.005136 -0.004976 0.000000
-0.004976 -0.008559 0.000000
0.000000 0.000000 0.000000
0.003198 0.003578 0.000000
0.003578 0.007659 0.000000
0.000000 0.000000 0.000000
-0.001028 -0.008529 0.000000
-0.008529 0.017543 0.000000
0.000000 0.000000 0.000000
0.007550 -0.006716 0.000000
-0.006716 0.014002 0.000000
0.000000 0.000000 0.000000
0.005971 0.009303 0.000000
0.009303 0.001819 0.000000
0.000000 0.000000 0.000000
0.007077 0.010011 0.000000
0.010011 0.000793 0.000000
0.000000 0.000000 0.000000
0.019228 0.010859 0.000000
0.010859 0.030993 0.000000
0.000000 0.000000 0.000000
0.010172 0.005287 0.000000
0.005287 0.007318 0.000000
0.000000 0.000000 0.000000
-0.008348 -0.004946 0.000000
-0.004946 0.015408 0.000000
0.000000 0.000000 0.000000
0.016507 0.000869 0.000000
0.000869 0.006391 0.000000
0.000000 0.000000 0.000000
-0.021404 0.028280 0.000000
0.028280 0.018259 0.000000
0.000000 0.000000 0.000000
0.013184 0.007112 0.000000
0.007112 0.013020 0.000000
0.000000 0.000000 0.000000
-0.002276 -0.001872 0.000000
-0.001872 -0.005592 0.000000
0.000000 0.000000 0.000000
-0.002607 -0.004325 0.000000
-0.004325 0.011306 0.000000
0.000000 0.000000 0.000000
0.017142 0.007134 0.000000
0.007134 -0.004446 0.000000
0.000000 0.000000 0.000000
-0.005326 -0.009515 0.000000
-0.009515 -0.009014 0.000000
0.000000 0.000000 0.000000
-0.008176 -0.009792 0.000000
-0.009792 -0.008996 0.000000
0.000000 0.000000 0.000000
0.001837 -0.006139 0.000000
-0.006139 -0.011652 0.000000
0.000000 0.000000 0.000000
-0.008130 -0.003711 0.000000
-0.003711 -0.015467 0.000000
0.000000 0.000000 0.000000
0.003820 0.004807 0.000000
0.004807 0.021776 0.000000
0.000000 0.000000 0.000000
0.004519 -0.006073 0.000000
-0.006073 0.002025 0.000000
0.000000 0.000000 0.000000
0.003756 -0.002795 0.000000
-0.002795 0.001323 0.000000
0.000000 0.000000 0.000000
-0.005400 -0.005660 0.000000
-0.005660 0.001218 0.000000
0.000000 0.000000 0.000000
0.008703 -0.002690 0.000000
-0.002690 0.024035 0.000000
0.000000 0.000000 0.000000
-0.013302 -0.004304 0.000000
-0.004304 -0.009180 0.000000
0.000000 0.000000 0.000000
0.010791 -0.003615 0.000000
-0.003615 -0.008259 0.000000
0.000000 0.000000 0.000000
0.013788 -0.002881 0.000000
-0.002881 -0.015334 0.000000
0.000000 0.000000 0.000000
0.010738 0.002758 0.000000
0.002758 0.015868 0.000000
0.000000 0.000000 0.000000
-0.008273 0.008566 0.000000
0.008566 -0.034133 0.000000
0.000000 0.000000 0.000000
0.002991 -0.003952 0.000000
-0.003952 -0.005114 0.000000
0.000000 0.000000 0.000000
-0.006139 -0.007848 0.000000
-0.007848 -0.007964 0.000000
0.000000 0.000000 0.000000
-0.004136 0.008500 0.000000
0.008500 -0.005372 0.000000
0.000000 0.000000 0.000000
0.007496 0.000861 0.000000
0.000861 0.007705 0.000000
0.000000 0.000000 0.000000
0.001632 -0.000299 0.000000
-0.000299 0.005590 0.000000
0.000000 0.000000 0.000000
0.014133 0.004475 0.000000
0.004475 0.002087 0.000000
0.000000 0.000000 0.000000
-0.010070 -0.005331 0.000000
-0.005331 -0.010107 0.000000
0.000000 0.000000 0.000000
0.008911 0.004966 0.000000
0.004966 -0.005459 0.000000
0.000000 0.000000 0.000000
0.005146 0.007842 0.000000
0.007842 -0.009270 0.000000
0.000000 0.000000 0.000000
-0.006381 -0.000754 0.000000
-0.000754 -0.006330 0.000000
0.000000 0.000000 0.000000
-0.002586 0.000481 0.000000
0.000481 -0.006541 0.000000
0.000000 0.000000 0.000000
-0.012638 -0.005023 0.000000
-0.005023 0.003832 0.000000
0.000000 0.000000 0.000000
-0.002548 0.000837 0.000000
0.000837 0.012498 0.000000
0.000000 0.000000 0.000000
-0.004727 0.003131 0.000000
0.003131 -0.003372 0.000000
0.000000 0.000000 0.000000
0.006943 -0.000845 0.000000
-0.000845 0.002784 0.000000
0.000000 0.000000 0.000000
-0.010930 0.000206 0.000000
0.000206 0.020211 0.000000
0.000000 0.000000 0.000000
0.001530 0.012550 0.000000
0.012550 -0.005244 0.000000
0.000000 0.000000 0.000000
-0.014452 -0.005878 0.000000
-0.005878 -0.021565 0.000000
0.000000 0.000000 0.000000
0.011236 0.011148 0.000000
0.011148 0.028570 0.000000
0.000000 0.000000 0.000000
0.001575 -0.001972 0.000000
-0.001972 0.004095 0.000000
0.000000 0.000000 0.000000
-0.011106 -0.002211 0.000000
-0.002211 0.018578 0.000000
0.000000 0.000000 0.000000
0.006414 -0.001823 0.000000
-0.001823 0.014282 0.000000
0.000000 0.000000 0.000000
-0.007340 0.020256 0.000000
0.020256 -0.012820 0.000000
0.000000 0.000000 0.000000
0.000086 0.003552 0.000000
0.003552 0.028630 0.000000
0.000000 0.000000 0.000000
-0.013194 -0.000964 0.000000
-0.000964 0.002440 0.000000
0.000000 0.000000 0.000000
-0.014431 -0.007691 0.000000
-0.007691 -0.003883 0.000000
0.000000 0.000000 0.000000
0.004010 0.008552 0.000000
0.008552 0.001528 0.000000
0.000000 0.000000 0.000000
-0.005610 -0.008883 0.000000
-0.008883 -0.023237 0.000000
0.000000 0.000000 0.000000
-0.013265 -0.013595 0.000000
-0.013595 -0.033580 0.000000
0.000000 0.000000 0.000000
-0.013219 -0.002146 0.000000
-0.002146 0.014916 0.000000
0.000000 0.000000 0.000000
0.004496 0.007882 0.000000
0.007882 -0.009170 0.000000
0.000000 0.000000 0.000000
0.005247 0.006451 0.000000
0.006451 0.000258 0.000000
0.000000 0.000000 0.000000
-0.001073 0.009534 0.000000
0.009534 -0.004823 0.000000
0.000000 0.000000 0.000000
-0.004942 -0.007646 0.000000
-0.007646 0.002786 0.000000
0.000000 0.000000 0.000000
0.005300 -0.002238 0.000000
-0.002238 0.007471 0.000000
0.000000 0.000000 0.000000
-0.006060 -0.005286 0.000000
-0.005286 -0.009987 0.000000
0.000000 0.000000 0.000000
-0.009268 -0.010532 0.000000
-0.010532 -0.023126 0.000000
0.000000 0.000000 0.000000
-0.013796 -0.007090 0.000000
-0.007090 -0.007299 0.000000
0.000000 0.000000 0.000000
-0.005592 -0.009874 0.000000
-0.009874 -0.011559 0.000000
0.000000 0.000000 0.000000
0.009589 -0.002523 0.000000
-0.002523 0.005514 0.000000
0.000000 0.000000 0.000000
0.004131 0.000700 0.000000
0.000700 -0.001236 0.000000
0.000000 0.000000 0.000000
0.003581 0.014050 0.000000
0.014050 0.018307 0.000000
0.000000 0.000000 0.000000
0.007051 0.003443 0.000000
0.003443 -0.008127 0.000000
0.000000 0.000000 0.000000
-0.000690 0.006812 0.000000
0.006812 0.012871 0.000000
0.000000 0.000000 0.000000
0.007124 0.004198 0.000000
0.004198 0.006369 0.000000
0.000000 0.000000 0.000000
-0.006563 -0.000407 0.000000
-0.000407 0.024749 0.000000
0.000000 0.000000 0.000000
-0.002332 -0.001301 0.000000
-0.001301 -0.005868 0.000000
0.000000 0.000000 0.000000
-0.002109 0.008953 0.000000
0.008953 0.020433 0.000000
0.000000 0.000000 0.000000
-0.004725 0.003901 0.000000
0.003901 -0.007635 0.000000
0.000000 0.000000 0.000000
-0.009968 -0.006875 0.000000
-0.006875 -0.029237 0.000000
0.000000 0.000000 0.000000
-0.000675 -0.004621 0.000000
-0.004621 -0.010853 0.000000
0.000000 0.000000 0.000000
-0.007936 0.006441 0.000000
0.006441 0.000780 0.000000
0.000000 0.000000 0.000000
-0.027605 0.012999 0.000000
0.012999 -0.029979 0.000000
0.000000 0.000000 0.000000
0.011255 0.003371 0.000000
0.003371 0.008269 0.000000
0.000000 0.000000 0.000000
0.003556 -0.000679 0.000000
-0.000679 -0.015448 0.000000
0.000000 0.000000 0.000000
-0.004546 -0.012913 0.000000
-0.012913 -0.004514 0.000000
0.000000 0.000000 0.000000
0.010853 0.006161 0.000000
0.006161 -0.009689 0.000000
0.000000 0.000000 0.000000
0.005502 -0.008740 0.000000
-0.008740 0.002052 0.000000
0.000000 0.000000 0.000000
0.004333 0.000251 0.000000
0.000251 0.012138 0.000000
0.000000 0.000000 0.000000
-0.004163 0.002819 0.000000
0.002819 0.005140 0.000000
0.000000 0.000000 0.000000
-0.003041 0.002239 0.000000
0.002239 0.003249 0.000000
0.000000 0.000000 0.000000
0.018894 -0.006418 0.000000
-0.006418 -0.006821 0.000000
0.000000 0.000000 0.000000
0.011897 0.003271 0.000000
0.003271 -0.002904 0.000000
0.000000 0.000000 0.000000
-0.001522 -0.004065 0.000000
-0.004065 0.001961 0.000000
0.000000 0.000000 0.000000
-0.003068 0.004992 0.000000
0.004992 0.009132 0.000000
0.000000 0.000000 0.000000
0.010457 -0.011129 0.000000
-0.011129 0.019374 0.000000
0.000000 0.000000 0.000000
-0.026253 0.013835 0.000000
0.013835 -0.046717 0.000000
0.000000 0.000000 0.000000
-0.000832 -0.002999 0.000000
-0.002999 0.002881 0.000000
0.000000 0.000000 0.000000
0.009326 0.003794 0.000000
0.003794 0.000696 0.000000
0.000000 0.000000 0.000000
0.013615 -0.003217 0.000000
-0.003217 0.020928 0.000000
0.000000 0.000000 0.000000
0.023619 -0.007859 0.000000
-0.007859 0.052171 0.000000
0.000000 0.000000 0.000000
0.000648 -0.014298 0.000000
-0.014298 -0.008505 0.000000
0.000000 0.000000 0.000000
0.001824 0.002671 0.000000
0.002671 -0.003041 0.000000
0.000000 0.000000 0.000000
-0.004981 -0.001267 0.000000
-0.001267 0.001254 0.000000
0.000000 0.000000 0.000000
-0.002581 -0.001676 0.000000
-0.001676 0.001342 0.000000
0.000000 0.000000 0.000000
0.002270 -0.007123 0.000000
-0.007123 0.007425 0.000000
0.000000 0.000000 0.000000
0.010869 0.005546 0.000000
0.005546 0.016742 0.000000
0.000000 0.000000 0.000000
0.005604 -0.010074 0.000000
-0.010074 0.019538 0.000000
0.000000 0.000000 0.000000
0.013640 0.003977 0.000000
0.003977 -0.007763 0.000000
0.000000 0.000000 0.000000
-0.001180 -0.003856 0.000000
-0.003856 -0.001450 0.000000
0.000000 0.000000 0.000000
0.000207 -0.008658 0.000000
-0.008658 -0.018726 0.000000
0.000000 0.000000 0.000000
0.000313 -0.000352 0.000000
-0.000352 -0.004288 0.000000
0.000000 0.000000 0.000000
-0.006676 -0.004508 0.000000
-0.004508 -0.006694 0.000000
0.000000 0.000000 0.000000
0.008562 0.005747 0.000000
0.005747 -0.004653 0.000000
0.000000 0.000000 0.000000
0.010968 0.002800 0.000000
0.002800 0.004857 0.000000
0.000000 0.000000 0.000000
0.007096 0.006414 0.000000
0.006414 -0.004850 0.000000
0.000000 0.000000 0.000000
0.001201 0.003709 0.000000
0.003709 0.003035 0.000000
0.000000 0.000000 0.000000
0.006056 0.003521 0.000000
0.003521 0.016954 0.000000
0.000000 0.000000 0.000000
-0.004186 -0.017848 0.000000
-0.017848 0.004507 0.000000
0.000000 0.000000 0.000000
0.016783 -0.000375 0.000000
-0.000375 0.004290 0.000000
0.000000 0.000000 0.000000
0.005487 -0.002734 0.000000
-0.002734 0.003463 0.000000
0.000000 0.000000 0.000000
0.012700 0.002184 0.000000
0.002184 0.007792 0.000000
0.000000 0.000000 0.000000
0.001314 0.003139 0.000000
0.003139 0.007542 0.000000
0.000000 0.000000 0.000000
0.002210 0.005139 0.000000
0.005139 0.011377 0.000000
0.000000 0.000000 0.000000
-0.000857 0.005966 0.000000
0.005966 0.014738 0.000000
0.000000 0.000000 0.000000
0.016623 -0.034786 0.000000
-0.034786 -0.000504 0.000000
0.000000 0.000000 0.000000
-0.022399 0.016511 0.000000
0.016511 -0.028050 0.000000
0.000000 0.000000 0.000000
0.001439 0.005286 0.000000
0.005286 -0.001167 0.000000
0.000000 0.000000 0.000000
-0.013017 0.001928 0.000000
0.001928 -0.004399 0.000000
0.000000 0.000000 0.000000
0.005790 0.007661 0.000000
0.007661 0.012094 0.000000
0.000000 0.000000 0.000000
0.001944 0.004865 0.000000
0.004865 0.010397 0.000000
0.000000 0.000000 0.000000
0.007362 0.006187 0.000000
0.006187 -0.002492 0.000000
0.000000 0.000000 0.000000
-0.007999 0.001139 0.000000
0.001139 -0.005421 0.000000
0.000000 0.000000 0.000000
-0.000025 -0.022321 0.000000
-0.022321 0.020427 0.000000
0.000000 0.000000 0.000000
-0.030482 0.001371 0.000000
0.001371 -0.031669 0.000000
0.000000 0.000000 0.000000
0.003222 -0.006463 0.000000
-0.006463 -0.000223 0.000000
0.000000 0.000000 0.000000
0.003906 0.003709 0.000000
0.003709 0.006182 0.000000
0.000000 0.000000 0.000000
0.009554 -0.002401 0.000000
-0.002401 0.006619 0.000000
0.000000 0.000000 0.000000
0.004124 0.020168 0.000000
0.020168 -0.009132 0.000000
0.000000 0.000000 0.000000
-0.018323 -0.008914 0.000000
-0.008914 -0.005872 0.000000
0.000000 0.000000 0.000000
0.011573 0.008065 0.000000
0.008065 0.021757 0.000000
0.000000 0.000000 0.000000
-0.017903 -0.008775 0.000000
-0.008775 -0.002587 0.000000
0.000000 0.000000 0.000000
-0.003722 0.003603 0.000000
0.003603 0.013305 0.000000
0.000000 0.000000 0.000000
0.001684 -0.004055 0.000000
-0.004055 -0.000591 0.000000
0.000000 0.000000 0.000000
-0.021929 0.023265 0.000000
0.023265 -0.007283 0.000000
0.000000 0.000000 0.000000
0.007324 -0.001554 0.000000
-0.001554 0.015915 0.000000
0.000000 0.000000 0.000000
0.009218 0.004451 0.000000
0.004451 0.002559 0.000000
0.000000 0.000000 0.000000
-0.004215 0.005355 0.000000
0.005355 0.008519 0.000000
0.000000 0.000000 0.000000
0.009961 0.004174 0.000000
0.004174 0.013141 0.000000
0.000000 0.000000 0.000000
0.014463 0.000200 0.000000
0.000200 0.006858 0.000000
0.000000 0.000000 0.000000
0.004263 0.004768 0.000000
0.004768 -0.017355 0.000000
0.000000 0.000000 0.000000
0.014009 0.000269 0.000000
0.000269 0.005172 0.000000
0.000000 0.000000 0.000000
0.005282 -0.005043 0.000000
-0.005043 0.017728 0.000000
0.000000 0.000000 0.000000
-0.020560 0.006560 0.000000
0.006560 -0.001171 0.000000
0.000000 0.000000 0.000000
0.007840 0.004817 0.000000
0.004817 0.005245 0.000000
0.000000 0.000000 0.000000
-0.006534 -0.001718 0.000000
-0.001718 -0.002770 0.000000
0.000000 0.000000 0.000000
-0.003366 0.000013 0.000000
0.000013 0.000116 0.000000
0.000000 0.000000 0.000000
0.007963 -0.002724 0.000000
-0.002724 0.000817 0.000000
0.000000 0.000000 0.000000
0.011327 -0.004649 0.000000
-0.004649 0.002174 0.000000
0.000000 0.000000 0.000000
0.006774 -0.002276 0.000000
-0.002276 0.005043 0.000000
0.000000 0.000000 0.000000
-0.010043 0.008792 0.000000
0.008792 -0.028907 0.000000
0.000000 0.000000 0.000000
0.004073 0.010098 0.000000
0.010098 0.011089 0.000000
0.000000 0.000000 0.000000
-0.013396 -0.003462 0.000000
-0.003462 -0.011796 0.000000
0.000000 0.000000 0.000000
0.001685 -0.002180 0.000000
-0.002180 -0.001917 0.000000
0.000000 0.000000 0.000000
0.003357 -0.006212 0.000000
-0.006212 -0.000421 0.000000
0.000000 0.000000 0.000000
-0.005589 0.002752 0.000000
0.002752 -0.015414 0.000000
0.000000 0.000000 0.000000
0.003557 0.003555 0.000000
0.003555 -0.014730 0.000000
0.000000 0.000000 0.000000
-0.013315 0.000091 0.000000
0.000091 0.019071 0.000000
0.000000 0.000000 0.000000
0.002120 -0.002630 0.000000
-0.002630 0.012808 0.000000
0.000000 0.000000 0.000000
0.001068 -0.000586 0.000000
-0.000586 -0.002509 0.000000
0.000000 0.000000 0.000000
-0.000810 -0.001649 0.000000
-0.001649 0.004410 0.000000
0.000000 0.000000 0.000000
-0.003130 0.003448 0.000000
0.003448 -0.014248 0.000000
0.000000 0.000000 0.000000
-0.004659 0.004272 0.000000
0.004272 -0.015384 0.000000
0.000000 0.000000 0.000000
0.006562 -0.000451 0.000000
-0.000451 -0.004434 0.000000
0.000000 0.000000 0.000000
0.006348 -0.001886 0.000000
-0.001886 -0.006982 0.000000
0.000000 0.000000 0.000000
0.010936 -0.008027 0.000000
-0.008027 0.005160 0.000000
0.000000 0.000000 0.000000
0.000610 -0.001224 0.000000
-0.001224 -0.002285 0.000000
0.000000 0.000000 0.000000
0.004792 -0.000767 0.000000
-0.000767 -0.009202 0.000000
0.000000 0.000000 0.000000
0.008159 0.002835 0.000000
0.002835 -0.003807 0.000000
0.000000 0.000000 0.000000
0.005282 -0.008713 0.000000
-0.008713 0.006013 0.000000
0.000000 0.000000 0.000000
-0.031117 0.014396 0.000000
0.014396 -0.053466 0.000000
0.000000 0.000000 0.000000
0.000423 0.007320 0.000000
0.007320 0.006908 0.000000
0.000000 0.000000 0.000000
0.005106 0.007172 0.000000
0.007172 -0.001009 0.000000
0.000000 0.000000 0.000000
0.004631 -0.003066 0.000000
-0.003066 0.000932 0.000000
0.000000 0.000000 0.000000
0.000137 0.000127 0.000000
0.000127 -0.004722 0.000000
0.000000 0.000000 0.000000
-0.023485 0.013288 0.000000
0.013288 -0.028724 0.000000
0.000000 0.000000 0.000000
-0.016108 0.019903 0.000000
0.019903 -0.000636 0.000000
0.000000 0.000000 0.000000
0.002157 0.003707 0.000000
0.003707 -0.026241 0.000000
0.000000 0.000000 0.000000
-0.002185 -0.004470 0.000000
-0.004470 -0.006939 0.000000
0.000000 0.000000 0.000000
0.009618 0.003715 0.000000
0.003715 0.030147 0.000000
0.000000 0.000000 0.000000
0.013094 0.005767 0.000000
0.005767 0.034078 0.000000
0.000000 0.000000 0.000000
0.012837 0.000699 0.000000
0.000699 -0.001417 0.000000
0.000000 0.000000 0.000000
0.003188 0.012588 0.000000
0.012588 -0.022267 0.000000
0.000000 0.000000 0.000000
-0.001297 -0.000495 0.000000
-0.000495 -0.010332 0.000000
0.000000 0.000000 0.000000
0.011136 0.004669 0.000000
0.004669 -0.007812 0.000000
0.000000 0.000000 0.000000
0.030539 0.017536 0.000000
0.017536 -0.012609 0.000000
0.000000 0.000000 0.000000
-0.008848 0.001317 0.000000
0.001317 -0.008674 0.000000
0.000000 0.000000 0.000000
0.011680 -0.004383 0.000000
-0.004383 0.021842 0.000000
0.000000 0.000000 0.000000
0.004411 -0.002031 0.000000
-0.002031 -0.010863 0.000000
0.000000 0.000000 0.000000
-0.002913 -0.002191 0.000000
-0.002191 -0.002152 0.000000
0.000000 0.000000 0.000000
-0.010760 -0.008069 0.000000
-0.008069 -0.013244 0.000000
0.000000 0.000000 0.000000
-0.005632 -0.009576 0.000000
-0.009576 0.005139 0.000000
0.000000 0.000000 0.000000
-0.012003 -0.005996 0.000000
-0.005996 -0.000794 0.000000
0.000000 0.000000 0.000000
0.004253 -0.003824 0.000000
-0.003824 0.020727 0.000000
0.000000 0.000000 0.000000
-0.001665 0.000551 0.000000
0.000551 0.007324 0.000000
0.000000 0.000000 0.000000
0.013739 0.005135 0.000000
0.005135 0.019322 0.000000
0.000000 0.000000 0.000000
0.017506 -0.009841 0.000000
-0.009841 -0.012851 0.000000
0.000000 0.000000 0.000000
0.005596 0.000823 0.000000
0.000823 -0.005494 0.000000
0.000000 0.000000 0.000000
0.003300 0.000238 0.000000
0.000238 -0.002250 0.000000
0.000000 0.000000 0.000000
0.007620 0.000304 0.000000
0.000304 0.010367 0.000000
0.000000 0.000000 0.000000
0.010736 0.003815 0.000000
0.003815 0.001783 0.000000
0.000000 0.000000 0.000000
-0.022237 0.010682 0.000000
0.010682 0.002220 0.000000
0.000000 0.000000 0.000000
0.003994 -0.002617 0.000000
-0.002617 0.004268 0.000000
0.000000 0.000000 0.000000
0.007542 0.000689 0.000000
0.000689 0.000728 0.000000
0.000000 0.000000 0.000000
0.002707 -0.000056 0.000000
-0.000056 0.017603 0.000000
0.000000 0.000000 0.000000
-0.022457 0.010933 0.000000
0.010933 0.000963 0.000000
0.000000 0.000000 0.000000
0.010023 0.007498 0.000000
0.007498 0.008355 0.000000
0.000000 0.000000 0.000000
0.000632 -0.003301 0.000000
-0.003301 0.027321 0.000000
0.000000 0.000000 0.000000
0.008045 -0.009799 0.000000
-0.009799 -0.000804 0.000000
0.000000 0.000000 0.000000
0.006855 -0.004940 0.000000
-0.004940 0.003298 0.000000
0.000000 0.000000 0.000000
0.015322 -0.000972 0.000000
-0.000972 0.009829 0.000000
0.000000 0.000000 0.000000
-0.008823 0.010901 0.000000
0.010901 -0.002129 0.000000
0.000000 0.000000 0.000000
-0.001393 0.006366 0.000000
0.006366 0.008006 0.000000
0.000000 0.000000 0.000000
0.028312 -0.018119 0.000000
-0.018119 0.033830 0.000000
0.000000 0.000000 0.000000
-0.002072 0.000132 0.000000
0.000132 -0.005588 0.000000
0.000000 0.000000 0.000000
-0.023824 0.006839 0.000000
0.006839 0.003451 0.000000
0.000000 0.000000 0.000000
-0.004987 0.000325 0.000000
0.000325 0.007115 0.000000
0.000000 0.000000 0.000000
-0.003866 0.001014 0.000000
0.001014 0.001167 0.000000
0.000000 0.000000 0.000000
-0.009505 -0.000076 0.000000
-0.000076 0.000505 0.000000
0.000000 0.000000 0.000000
0.001825 0.000199 0.000000
0.000199 0.012357 0.000000
0.000000 0.000000 0.000000
-0.005298 0.003424 0.000000
0.003424 0.009786 0.000000
0.000000 0.000000 0.000000
-0.000079 -0.006606 0.000000
-0.006606 0.017617 0.000000
0.000000 0.000000 0.000000
-0.015162 0.004756 0.000000
0.004756 -0.017039 0.000000
0.000000 0.000000 0.000000
0.008402 0.007913 0.000000
0.007913 0.004488 0.000000
0.000000 0.000000 0.000000
0.005904 0.004100 0.000000
0.004100 -0.004229 0.000000
0.000000 0.000000 0.000000
0.007545 -0.016684 0.000000
-0.016684 0.012541 0.000000
0.000000 0.000000 0.000000
-0.001809 0.004394 0.000000
0.004394 -0.008856 0.000000
0.000000 0.000000 0.000000
-0.008630 -0.002513 0.000000
-0.002513 -0.034561 0.000000
0.000000 0.000000 0.000000
0.003621 0.001386 0.000000
0.001386 -0.008028 0.000000
0.000000 0.000000 0.000000
-0.007163 -0.001107 0.000000
-0.001107 -0.024366 0.000000
0.000000 0.000000 0.000000
-0.003615 0.002046 0.000000
0.002046 0.006644 0.000000
0.000000 0.000000 0.000000
-0.004617 0.002444 0.000000
0.002444 0.003546 0.000000
0.000000 0.000000 0.000000
-0.006033 0.004543 0.000000
0.004543 -0.005000 0.000000
0.000000 0.000000 0.000000
0.004752 0.007250 0.000000
0.007250 -0.009693 0.000000
0.000000 0.000000 0.000000
-0.019360 -0.000715 0.000000
-0.000715 0.003876 0.000000
0.000000 0.000000 0.000000
0.024171 -0.010911 0.000000
-0.010911 0.033789 0.000000
0.000000 0.000000 0.000000
0.005696 -0.000213 0.000000
-0.000213 0.015099 0.000000
0.000000 0.000000 0.000000
-0.004502 0.004857 0.000000
0.004857 -0.002039 0.000000
0.000000 0.000000 0.000000
-0.005851 0.003423 0.000000
0.003423 0.001829 0.000000
0.000000 0.000000 0.000000
0.004720 -0.003697 0.000000
-0.003697 -0.003035 0.000000
0.000000 0.000000 0.000000
0.000607 -0.006068 0.000000
-0.006068 -0.007084 0.000000
0.000000 0.000000 0.000000
0.003791 0.003958 0.000000
0.003958 0.014903 0.000000
0.000000 0.000000 0.000000
-0.005237 0.000866 0.000000
0.000866 -0.013341 0.000000
0.000000 0.000000 0.000000
-0.014425 -0.002506 0.000000
-0.002506 -0.008616 0.000000
0.000000 0.000000 0.000000
-0.004736 -0.000587 0.000000
-0.000587 -0.018178 0.000000
0.000000 0.000000 0.000000
-0.002001 -0.000250 0.000000
-0.000250 0.005081 0.000000
0.000000 0.000000 0.000000
0.009639 0.002826 0.000000
0.002826 0.009399 0.000000
0.000000 0.000000 0.000000
-0.023255 0.010202 0.000000
0.010202 0.007214 0.000000
0.000000 0.000000 0.000000
-0.015873 0.004470 0.000000
0.004470 0.023172 0.000000
0.000000 0.000000 0.000000
0.008440 0.001817 0.000000
0.001817 -0.007274 0.000000
0.000000 0.000000 0.000000
0.005623 0.001352 0.000000
0.001352 -0.006956 0.000000
0.000000 0.000000 0.000000
0.000856 -0.001454 0.000000
-0.001454 -0.024052 0.000000
0.000000 0.000000 0.000000
-0.026347 0.012011 0.000000
0.012011 -0.045006 0.000000
0.000000 0.000000 0.000000
-0.002975 -0.000150 0.000000
-0.000150 -0.007530 0.000000
0.000000 0.000000 0.000000
-0.008207 -0.001771 0.000000
-0.001771 -0.020029 0.000000
0.000000 0.000000 0.000000
-0.001365 0.007755 0.000000
0.007755 0.004772 0.000000
0.000000 0.000000 0.000000
0.014765 0.001750 0.000000
0.001750 0.014193 0.000000
0.000000 0.000000 0.000000
-0.005348 0.016083 0.000000
0.016083 0.005032 0.000000
0.000000 0.000000 0.000000
-0.001310 -0.001154 0.000000
-0.001154 0.003334 0.000000
0.000000 0.000000 0.000000
-0.014714 0.000433 0.000000
0.000433 0.006525 0.000000
0.000000 0.000000 0.000000
0.005066 0.005174 0.000000
0.005174 -0.009380 0.000000
0.000000 0.000000 0.000000
0.003009 0.006234 0.000000
0.006234 -0.008330 0.000000
0.000000 0.000000 0.000000
0.000362 -0.001460 0.000000
-0.001460 -0.004767 0.000000
0.000000 0.000000 0.000000
-0.011540 -0.003310 0.000000
-0.003310 -0.008796 0.000000
0.000000 0.000000 0.000000
-0.017709 -0.007103 0.000000
-0.007103 -0.025615 0.000000
0.000000 0.000000 0.000000
0.001392 -0.008078 0.000000
-0.008078 -0.000217 0.000000
0.000000 0.000000 0.000000
0.004103 -0.006478 0.000000
-0.006478 0.000740 0.000000
0.000000 0.000000 0.000000
0.003729 -0.004394 0.000000
-0.004394 -0.000783 0.000000
0.000000 0.000000 0.000000
0.004009 0.005025 0.000000
0.005025 0.007776 0.000000
0.000000 0.000000 0.000000
-0.014620 0.002632 0.000000
0.002632 -0.010743 0.000000
0.000000 0.000000 0.000000
-0.004908 0.015648 0.000000
0.015648 -0.002767 0.000000
0.000000 0.000000 0.000000
0.012144 -0.014064 0.000000
-0.014064 0.014100 0.000000
0.000000 0.000000 0.000000
0.008793 0.007533 0.000000
0.007533 0.003714 0.000000
0.000000 0.000000 0.000000
0.003216 -0.008699 0.000000
-0.008699 0.002553 0.000000
0.000000 0.000000 0.000000
-0.007910 -0.000278 0.000000
-0.000278 -0.016477 0.000000
0.000000 0.000000 0.000000
0.008534 -0.005132 0.000000
-0.005132 -0.005056 0.000000
0.000000 0.000000 0.000000
-0.029417 -0.003066 0.000000
-0.003066 -0.009527 0.000000
0.000000 0.000000 0.000000
-0.014838 0.008873 0.000000
0.008873 0.033378 0.000000
0.000000 0.000000 0.000000
-0.000366 -0.002671 0.000000
-0.002671 -0.017891 0.000000
0.000000 0.000000 0.000000
-0.008266 0.003211 0.000000
0.003211 -0.011031 0.000000
0.000000 0.000000 0.000000
0.000405 0.007947 0.000000
0.007947 -0.013652 0.000000
0.000000 0.000000 0.000000
-0.001755 0.000099 0.000000
0.000099 0.005617 0.000000
0.000000 0.000000 0.000000
0.004981 0.011095 0.000000
0.011095 -0.005928 0.000000
0.000000 0.000000 0.000000
-0.002804 -0.003531 0.000000
-0.003531 -0.002092 0.000000
0.000000 0.000000 0.000000
0.010101 0.003498 0.000000
0.003498 0.010742 0.000000
0.000000 0.000000 0.000000
-0.008012 0.002152 0.000000
0.002152 -0.003185 0.000000
0.000000 0.000000 0.000000
-0.006968 -0.002791 0.000000
-0.002791 0.017600 0.000000
0.000000 0.000000 0.000000
0.022377 -0.012102 0.000000
-0.012102 0.029081 0.000000
0.000000 0.000000 0.000000
-0.004969 0.003853 0.000000
0.003853 -0.003612 0.000000
0.000000 0.000000 0.000000
0.025541 0.008088 0.000000
0.008088 -0.008763 0.000000
0.000000 0.000000 0.000000
-0.010696 0.005693 0.000000
0.005693 0.005109 0.000000
0.000000 0.000000 0.000000
0.017273 -0.000883 0.000000
-0.000883 0.008172 0.000000
0.000000 0.000000 0.000000
-0.016656 -0.005967 0.000000
-0.005967 -0.002888 0.000000
0.000000 0.000000 0.000000
-0.005866 0.002919 0.000000
0.002919 -0.018834 0.000000
0.000000 0.000000 0.000000
-0.005235 0.001311 0.000000
0.001311 -0.019611 0.000000
0.000000 0.000000 0.000000
0.002937 0.000374 0.000000
0.000374 -0.008212 0.000000
0.000000 0.000000 0.000000
0.010155 -0.006537 0.000000
-0.006537 0.009474 0.000000
0.000000 0.000000 0.000000
0.002062 0.000887 0.000000
0.000887 -0.004281 0.000000
0.000000 0.000000 0.000000
0.001349 -0.008261 0.000000
-0.008261 -0.010355 0.000000
0.000000 0.000000 0.000000
0.004772 -0.011331 0.000000
-0.011331 0.015230 0.000000
0.000000 0.000000 0.000000
-0.008162 -0.004741 0.000000
-0.004741 0.004633 0.000000
0.000000 0.000000 0.000000
-0.013178 -0.004790 0.000000
-0.004790 -0.014738 0.000000
0.000000 0.000000 0.000000
-0.009978 -0.002866 0.000000
-0.002866 -0.007253 0.000000
0.000000 0.000000 0.000000
-0.011040 0.008273 0.000000
0.008273 -0.003322 0.000000
0.000000 0.000000 0.000000
0.008924 0.008177 0.000000
0.008177 0.000882 0.000000
0.000000 0.000000 0.000000
0.019912 0.006639 0.000000
0.006639 0.020758 0.000000
0.000000 0.000000 0.000000
0.024296 0.009380 0.000000
0.009380 0.031421 0.000000
0.000000 0.000000 0.000000
-0.000166 0.003454 0.000000
0.003454 -0.005168 0.000000
0.000000 0.000000 0.000000
-0.002065 0.006060 0.000000
0.006060 0.001790 0.000000
0.000000 0.000000 0.000000
0.000307 -0.003435 0.000000
-0.003435 0.006814 0.000000
0.000000 0.000000 0.000000
0.002784 0.007474 0.000000
0.007474 0.000198 0.000000
0.000000 0.000000 0.000000
0.006846 0.003611 0.000000
0.003611 -0.007302 0.000000
0.000000 0.000000 0.000000
-0.002834 0.016004 0.000000
0.016004 -0.004191 0.000000
0.000000 0.000000 0.000000
-0.000491 0.000807 0.000000
0.000807 0.006737 0.000000
0.000000 0.000000 0.000000
0.000889 0.001732 0.000000
0.001732 0.006474 0.000000
0.000000 0.000000 0.000000
-0.005765 -0.002112 0.000000
-0.002112 0.009948 0.000000
0.000000 0.000000 0.000000
-0.008683 0.000166 0.000000
0.000166 -0.000993 0.000000
0.000000 0.000000 0.000000
-0.010781 0.003709 0.000000
0.003709 0.005700 0.000000
0.000000 0.000000 0.000000
0.003346 0.001689 0.000000
0.001689 0.009326 0.000000
0.000000 0.000000 0.000000
-0.001000 -0.003451 0.000000
-0.003451 -0.001495 0.000000
0.000000 0.000000 0.000000
0.003138 -0.000033 0.000000
-0.000033 0.001225 0.000000
0.000000 0.000000 0.000000
0.010130 0.007029 0.000000
0.007029 -0.008641 0.000000
0.000000 0.000000 0.000000
-0.015324 -0.001314 0.000000
-0.001314 -0.019882 0.000000
0.000000 0.000000 0.000000
0.011867 0.004764 0.000000
0.004764 0.012302 0.000000
0.000000 0.000000 0.000000
0.003408 -0.002366 0.000000
-0.002366 0.009282 0.000000
0.000000 0.000000 0.000000
-0.002111 0.008835 0.000000
0.008835 -0.013050 0.000000
0.000000 0.000000 0.000000
0.002274 -0.003300 0.000000
-0.003300 0.006639 0.000000
0.000000 0.000000 0.000000
0.004634 -0.004431 0.000000
-0.004431 0.013966 0.000000
0.000000 0.000000 0.000000
0.004458 0.000968 0.000000
0.000968 0.000145 0.000000
0.000000 0.000000 0.000000
-0.011012 -0.004394 0.000000
-0.004394 0.002205 0.000000
0.000000 0.000000 0.000000
0.002135 0.003198 0.000000
0.003198 -0.002687 0.000000
0.000000 0.000000 0.000000
-0.034418 0.000207 0.000000
0.000207 0.003055 0.000000
0.000000 0.000000 0.000000
-0.025846 0.010472 0.000000
0.010472 -0.003445 0.000000
0.000000 0.000000 0.000000
-0.011530 -0.001399 0.000000
-0.001399 0.000103 0.000000
0.000000 0.000000 0.000000
-0.004801 -0.002417 0.000000
-0.002417 0.001645 0.000000
0.000000 0.000000 0.000000
0.002774 -0.000952 0.000000
-0.000952 -0.000895 0.000000
0.000000 0.000000 0.000000
-0.020487 -0.012345 0.000000
-0.012345 0.005980 0.000000
0.000000 0.000000 0.000000
0.011961 0.000226 0.000000
0.000226 0.011821 0.000000
0.000000 0.000000 0.000000
0.019633 0.004918 0.000000
0.004918 0.029282 0.000000
0.000000 0.000000 0.000000
0.023361 0.009958 0.000000
0.009958 -0.012553 0.000000
0.000000 0.000000 0.000000
-0.001958 0.007478 0.000000
0.007478 0.001279 0.000000
0.000000 0.000000 0.000000
0.016187 -0.014090 0.000000
-0.014090 0.026314 0.000000
0.000000 0.000000 0.000000
0.005930 -0.008958 0.000000
-0.008958 0.018073 0.000000
0.000000 0.000000 0.000000
0.006163 0.004436 0.000000
0.004436 0.001746 0.000000
0.000000 0.000000 0.000000
-0.003077 0.006561 0.000000
0.006561 0.003854 0.000000
0.000000 0.000000 0.000000
-0.009257 0.009618 0.000000
0.009618 0.003817 0.000000
0.000000 0.000000 0.000000
-0.017961 0.006926 0.000000
0.006926 0.001352 0.000000
0.000000 0.000000 0.000000
0.000453 0.002330 0.000000
0.002330 -0.000653 0.000000
0.000000 0.000000 0.000000
-0.002870 -0.000396 0.000000
-0.000396 -0.006061 0.000000
0.000000 0.000000 0.000000
-0.010917 0.006590 0.000000
0.006590 -0.012631 0.000000
0.000000 0.000000 0.000000
0.011964 0.004013 0.000000
0.004013 -0.003979 0.000000
0.000000 0.000000 0.000000
0.008781 0.006027 0.000000
0.006027 -0.004832 0.000000
0.000000 0.000000 0.000000
-0.011197 -0.002293 0.000000
-0.002293 -0.007752 0.000000
0.000000 0.000000 0.000000
0.003380 -0.003279 0.000000
-0.003279 0.016599 0.000000
0.000000 0.000000 0.000000
0.000351 0.000768 0.000000
0.000768 0.006000 0.000000
0.000000 0.000000 0.000000
-0.012741 0.010090 0.000000
0.010090 -0.012662 0.000000
0.000000 0.000000 0.000000
0.001761 0.005705 0.000000
0.005705 0.010337 0.000000
0.000000 0.000000 0.000000
0.006907 -0.004314 0.000000
-0.004314 -0.006489 0.000000
0.000000 0.000000 0.000000
0.000127 0.007455 0.000000
0.007455 0.000162 0.000000
0.000000 0.000000 0.000000
0.010519 0.011932 0.000000
0.011932 0.013237 0.000000
0.000000 0.000000 0.000000
-0.002713 -0.000113 0.000000
-0.000113 -0.007697 0.000000
0.000000 0.000000 0.000000
-0.012751 0.007423 0.000000
0.007423 -0.004769 0.000000
0.000000 0.000000 0.000000
-0.007501 -0.000647 0.000000
-0.000647 -0.006347 0.000000
0.000000 0.000000 0.000000
-0.002644 -0.012305 0.000000
-0.012305 0.013473 0.000000
0.000000 0.000000 0.000000
0.004693 -0.014953 0.000000
-0.014953 0.017479 0.000000
0.000000 0.000000 0.000000
-0.013292 -0.005321 0.000000
-0.005321 0.016627 0.000000
0.000000 0.000000 0.000000
0.001886 -0.003473 0.000000
-0.003473 0.000741 0.000000
0.000000 0.000000 0.000000
0.017809 -0.003809 0.000000
-0.003809 -0.000683 0.000000
0.000000 0.000000 0.000000
0.021793 -0.001631 0.000000
-0.001631 0.009824 0.000000
0.000000 0.000000 0.000000
0.029082 -0.003128 0.000000
-0.003128 0.001029 0.000000
0.000000 0.000000 0.000000
0.002003 -0.000688 0.000000
-0.000688 -0.007344 0.000000
0.000000 0.000000 0.000000
0.007187 -0.002099 0.000000
-0.002099 -0.006540 0.000000
0.000000 0.000000 0.000000
0.000893 -0.000217 0.000000
-0.000217 0.002634 0.000000
0.000000 0.000000 0.000000
0.010679 -0.004932 0.000000
-0.004932 0.008386 0.000000
0.000000 0.000000 0.000000
0.004511 -0.005523 0.000000
-0.005523 0.009325 0.000000
0.000000 0.000000 0.000000
-0.002951 -0.005986 0.000000
-0.005986 -0.015476 0.000000
0.000000 0.000000 0.000000
-0.016172 -0.010490 0.000000
-0.010490 -0.002627 0.000000
0.000000 0.000000 0.000000
-0.009314 0.007861 0.000000
0.007861 0.012098 0.000000
0.000000 0.000000 0.000000
-0.003778 -0.002544 0.000000
-0.002544 -0.001656 0.000000
0.000000 0.000000 0.000000
0.003545 0.001064 0.000000
0.001064 0.003260 0.000000
0.000000 0.000000 0.000000
0.023244 -0.000332 0.000000
-0.000332 0.005686 0.000000
0.000000 0.000000 0.000000
0.036382 0.009933 0.000000
0.009933 0.016022 0.000000
0.000000 0.000000 0.000000
0.015948 0.020604 0.000000
0.020604 -0.038957 0.000000
0.000000 0.000000 0.000000
0.021174 -0.000874 0.000000
-0.000874 -0.010990 0.000000
0.000000 0.000000 0.000000
-0.009130 0.005525 0.000000
0.005525 -0.015447 0.000000
0.000000 0.000000 0.000000
-0.007429 0.011950 0.000000
0.011950 0.001457 0.000000
0.000000 0.000000 0.000000
-0.003818 0.009607 0.000000
0.009607 0.007714 0.000000
0.000000 0.000000 0.000000
-0.011665 -0.000175 0.000000
-0.000175 -0.018754 0.000000
0.000000 0.000000 0.000000
0.008014 -0.001377 0.000000
-0.001377 0.002929 0.000000
0.000000 0.000000 0.000000
0.007964 -0.009116 0.000000
-0.009116 -0.005435 0.000000
0.000000 0.000000 0.000000
0.009550 -0.011274 0.000000
-0.011274 -0.007605 0.000000
0.000000 0.000000 0.000000
-0.017023 0.011021 0.000000
0.011021 0.002244 0.000000
0.000000 0.000000 0.000000
-0.008813 0.007189 0.000000
0.007189 -0.004103 0.000000
0.000000 0.000000 0.000000
-0.003451 0.004936 0.000000
0.004936 -0.002915 0.000000
0.000000 0.000000 0.000000
0.003121 -0.002517 0.000000
-0.002517 -0.003496 0.000000
0.000000 0.000000 0.000000
-0.018679 0.006525 0.000000
0.006525 -0.007744 0.000000
0.000000 0.000000 0.000000
0.003672 0.006957 0.000000
0.006957 -0.002529 0.000000
0.000000 0.000000 0.000000
0.031922 -0.008146 0.000000
-0.008146 0.002179 0.000000
0.000000 0.000000 0.000000
0.012001 0.000619 0.000000
0.000619 -0.005868 0.000000
0.000000 0.000000 0.000000
0.009461 -0.012305 0.000000
-0.012305 0.013371 0.000000
0.000000 0.000000 0.000000
-0.000581 -0.013098 0.000000
-0.013098 -0.012651 0.000000
0.000000 0.000000 0.000000
-0.006209 -0.004857 0.000000
-0.004857 0.001716 0.000000
0.000000 0.000000 0.000000
0.007371 -0.001091 0.000000
-0.001091 0.010340 0.000000
0.000000 0.000000 0.000000
0.006241 -0.002073 0.000000
-0.002073 0.010214 0.000000
0.000000 0.000000 0.000000
-0.002563 -0.000019 0.000000
-0.000019 -0.007509 0.000000
0.000000 0.000000 0.000000
0.001478 0.006046 0.000000
0.006046 -0.001391 0.000000
0.000000 0.000000 0.000000
-0.011212 -0.011832 0.000000
-0.011832 -0.008231 0.000000
0.000000 0.000000 0.000000
0.017125 -0.003228 0.000000
-0.003228 0.014860 0.000000
0.000000 0.000000 0.000000
-0.005979 0.000737 0.000000
0.000737 -0.014403 0.000000
0.000000 0.000000 0.000000
0.006963 -0.009116 0.000000
-0.009116 -0.010342 0.000000
0.000000 0.000000 0.000000
0.007463 -0.005198 0.000000
-0.005198 0.004123 0.000000
0.000000 0.000000 0.000000
0.001478 -0.002991 0.000000
-0.002991 0.020013 0.000000
0.000000 0.000000 0.000000
-0.016494 -0.004178 0.000000
-0.004178 0.004676 0.000000
0.000000 0.000000 0.000000
-0.007331 0.011210 0.000000
0.011210 0.000590 0.000000
0.000000 0.000000 0.000000
-0.002012 0.013815 0.000000
0.013815 0.004967 0.000000
0.000000 0.000000 0.000000
0.007093 0.004812 0.000000
0.004812 -0.006074 0.000000
0.000000 0.000000 0.000000
0.008043 0.001814 0.000000
0.001814 0.014154 0.000000
0.000000 0.000000 0.000000
0.021623 -0.011225 0.000000
-0.011225 0.026124 0.000000
0.000000 0.000000 0.000000
-0.001134 0.003068 0.000000
0.003068 -0.008652 0.000000
0.000000 0.000000 0.000000
0.019095 0.001506 0.000000
0.001506 0.001748 0.000000
0.000000 0.000000 0.000000
-0.019601 -0.000223 0.000000
-0.000223 0.005773 0.000000
0.000000 0.000000 0.000000
-0.001012 -0.003426 0.000000
-0.003426 -0.002848 0.000000
0.000000 0.000000 0.000000
0.006078 0.003700 0.000000
0.003700 -0.003707 0.000000
0.000000 0.000000 0.000000
-0.005833 -0.001498 0.000000
-0.001498 0.005448 0.000000
0.000000 0.000000 0.000000
-0.000529 -0.003014 0.000000
-0.003014 0.000870 0.000000
0.000000 0.000000 0.000000
0.000530 0.017454 0.000000
0.017454 0.000300 0.000000
0.000000 0.000000 0.000000
0.005634 -0.000582 0.000000
-0.000582 0.002248 0.000000
0.000000 0.000000 0.000000
-0.008583 -0.004184 0.000000
-0.004184 0.007167 0.000000
0.000000 0.000000 0.000000
-0.010673 0.000139 0.000000
0.000139 0.007851 0.000000
0.000000 0.000000 0.000000
0.016781 0.012294 0.000000
0.012294 0.015154 0.000000
0.000000 0.000000 0.000000
0.006364 -0.003160 0.000000
-0.003160 0.012976 0.000000
0.000000 0.000000 0.000000
-0.002933 0.000987 0.000000
0.000987 -0.008074 0.000000
0.000000 0.000000 0.000000
0.019861 0.000425 0.000000
0.000425 -0.006604 0.000000
0.000000 0.000000 0.000000
0.008423 0.000409 0.000000
0.000409 -0.008179 0.000000
0.000000 0.000000 0.000000
0.005550 0.007539 0.000000
0.007539 0.026538 0.000000
0.000000 0.000000 0.000000
0.000546 0.002021 0.000000
0.002021 -0.007300 0.000000
0.000000 0.000000 0.000000
-0.013232 -0.008659 0.000000
-0.008659 -0.010827 0.000000
0.000000 0.000000 0.000000
0.007314 0.049841 0.000000
0.049841 0.005914 0.000000
0.000000 0.000000 0.000000
-0.006885 -0.004692 0.000000
-0.004692 0.003721 0.000000
0.000000 0.000000 0.000000
-0.007593 0.007837 0.000000
0.007837 0.000869 0.000000
0.000000 0.000000 0.000000
-0.009089 0.008376 0.000000
0.008376 -0.014130 0.000000
0.000000 0.000000 0.000000
-0.001525 0.008760 0.000000
0.008760 -0.011850 0.000000
0.000000 0.000000 0.000000
-0.007449 -0.005798 0.000000
-0.005798 -0.002118 0.000000
0.000000 0.000000 0.000000
-0.007777 -0.000147 0.000000
-0.000147 -0.001125 0.000000
0.000000 0.000000 0.000000
0.002729 0.004972 0.000000
0.004972 0.003366 0.000000
0.000000 0.000000 0.000000
0.010210 -0.001826 0.000000
-0.001826 0.008716 0.000000
0.000000 0.000000 0.000000
0.005389 0.003990 0.000000
0.003990 -0.006442 0.000000
0.000000 0.000000 0.000000
0.011663 0.012360 0.000000
0.012360 -0.000069 0.000000
0.000000 0.000000 0.000000
-0.009955 -0.005244 0.000000
-0.005244 0.005622 0.000000
0.000000 0.000000 0.000000
0.006877 0.001697 0.000000
0.001697 0.000696 0.000000
0.000000 0.000000 0.000000
0.000119 0.003826 0.000000
0.003826 0.003034 0.000000
0.000000 0.000000 0.000000
-0.005171 0.001538 0.000000
0.001538 0.008187 0.000000
0.000000 0.000000 0.000000
-0.004266 0.002244 0.000000
0.002244 -0.002664 0.000000
0.000000 0.000000 0.000000
0.000184 -0.001684 0.000000
-0.001684 -0.005157 0.000000
0.000000 0.000000 0.000000
-0.016127 -0.009646 0.000000
-0.009646 -0.007044 0.000000
0.000000 0.000000 0.000000
-0.005466 -0.003701 0.000000
-0.003701 -0.001156 0.000000
0.000000 0.000000 0.000000
0.006117 -0.006245 0.000000
-0.006245 0.022950 0.000000
0.000000 0.000000 0.000000
-0.001370 -0.004739 0.000000
-0.004739 -0.002188 0.000000
0.000000 0.000000 0.000000
-0.008864 0.002781 0.000000
0.002781 0.003367 0.000000
0.000000 0.000000 0.000000
0.019359 -0.003802 0.000000
-0.003802 -0.004866 0.000000
0.000000 0.000000 0.000000
0.003750 0.000539 0.000000
0.000539 0.013388 0.000000
0.000000 0.000000 0.000000
0.013526 -0.013088 0.000000
-0.013088 0.023066 0.000000
0.000000 0.000000 0.000000
0.007712 -0.008768 0.000000
-0.008768 0.010739 0.000000
0.000000 0.000000 0.000000
0.011978 -0.006418 0.000000
-0.006418 -0.010860 0.000000
0.000000 0.000000 0.000000
0.002759 -0.004379 0.000000
-0.004379 -0.002226 0.000000
0.000000 0.000000 0.000000
-0.004536 0.000143 0.000000
0.000143 -0.010474 0.000000
0.000000 0.000000 0.000000
0.001042 0.003694 0.000000
0.003694 -0.003624 0.000000
0.000000 0.000000 0.000000
0.007043 0.003787 0.000000
0.003787 0.004610 0.000000
0.000000 0.000000 0.000000
-0.003131 0.003476 0.000000
0.003476 -0.008671 0.000000
0.000000 0.000000 0.000000
-0.003870 0.006913 0.000000
0.006913 -0.008589 0.000000
0.000000 0.000000 0.000000
0.015242 -0.001334 0.000000
-0.001334 -0.017028 0.000000
0.000000 0.000000 0.000000
-0.001090 -0.002508 0.000000
-0.002508 0.016270 0.000000
0.000000 0.000000 0.000000
-0.003308 -0.026304 0.000000
-0.026304 0.007384 0.000000
0.000000 0.000000 0.000000
-0.005264 -0.010072 0.000000
-0.010072 -0.003744 0.000000
0.000000 0.000000 0.000000
-0.007304 0.002038 0.000000
0.002038 0.011966 0.000000
0.000000 0.000000 0.000000
-0.006613 0.001297 0.000000
0.001297 0.008360 0.000000
0.000000 0.000000 0.000000
0.007368 0.008228 0.000000
0.008228 0.018226 0.000000
0.000000 0.000000 0.000000
-0.007134 0.000948 0.000000
0.000948 0.008870 0.000000
0.000000 0.000000 0.000000
-0.002650 -0.003381 0.000000
-0.003381 0.017537 0.000000
0.000000 0.000000 0.000000
-0.010233 0.007036 0.000000
0.007036 -0.014231 0.000000
0.000000 0.000000 0.000000
0.007077 -0.007833 0.000000
-0.007833 0.018732 0.000000
0.000000 0.000000 0.000000
0.003595 -0.003649 0.000000
-0.003649 0.004078 0.000000
0.000000 0.000000 0.000000
0.000763 -0.003288 0.000000
-0.003288 -0.002314 0.000000
0.000000 0.000000 0.000000
-0.000180 -0.003897 0.000000
-0.003897 -0.001251 0.000000
0.000000 0.000000 0.000000
-0.003899 0.002750 0.000000
0.002750 -0.003491 0.000000
0.000000 0.000000 0.000000
0.006248 0.009573 0.000000
0.009573 0.002301 0.000000
0.000000 0.000000 0.000000
-0.003769 0.002815 0.000000
0.002815 0.004245 0.000000
0.000000 0.000000 0.000000
-0.003568 -0.005683 0.000000
-0.005683 0.005128 0.000000
0.000000 0.000000 0.000000
-0.003474 -0.006708 0.000000
-0.006708 0.001391 0.000000
0.000000 0.000000 0.000000
-0.000455 -0.008312 0.000000
-0.008312 -0.000835 0.000000
0.000000 0.000000 0.000000
-0.016404 -0.010903 0.000000
-0.010903 -0.003861 0.000000
0.000000 0.000000 0.000000
-0.010933 0.008026 0.000000
0.008026 -0.017584 0.000000
0.000000 0.000000 0.000000
-0.022285 0.006550 0.000000
0.006550 0.003648 0.000000
0.000000 0.000000 0.000000
-0.005803 0.008734 0.000000
0.008734 -0.017783 0.000000
0.000000 0.000000 0.000000
0.000324 -0.020661 0.000000
-0.020661 0.023405 0.000000
0.000000 0.000000 0.000000
0.005999 0.000618 0.000000
0.000618 -0.001172 0.000000
0.000000 0.000000 0.000000
-0.012496 -0.022820 0.000000
-0.022820 -0.020459 0.000000
0.000000 0.000000 0.000000
-0.005894 0.008735 0.000000
0.008735 0.007719 0.000000
0.000000 0.000000 0.000000
-0.012748 0.001330 0.000000
0.001330 -0.009699 0.000000
0.000000 0.000000 0.000000
-0.000868 -0.006977 0.000000
-0.006977 -0.002852 0.000000
0.000000 0.000000 0.000000
0.002024 0.000178 0.000000
0.000178 -0.007188 0.000000
0.000000 0.000000 0.000000
0.012178 -0.000189 0.000000
-0.000189 0.008403 0.000000
0.000000 0.000000 0.000000
-0.002079 0.000294 0.000000
0.000294 0.006389 0.000000
0.000000 0.000000 0.000000
-0.005484 -0.005400 0.000000
-0.005400 -0.003406 0.000000
0.000000 0.000000 0.000000
0.014918 0.009591 0.000000
0.009591 0.028273 0.000000
0.000000 0.000000 0.000000
-0.003596 0.001842 0.000000
0.001842 -0.007565 0.000000
0.000000 0.000000 0.000000
0.006132 0.004528 0.000000
0.004528 0.003069 0.000000
0.000000 0.000000 0.000000
-0.011465 0.005492 0.000000
0.005492 -0.006653 0.000000
0.000000 0.000000 0.000000
-0.000143 -0.015855 0.000000
-0.015855 0.003852 0.000000
0.000000 0.000000 0.000000
-0.007071 0.001972 0.000000
0.001972 -0.011837 0.000000
0.000000 0.000000 0.000000
0.002311 -0.000919 0.000000
-0.000919 -0.011677 0.000000
0.000000 0.000000 0.000000
-0.000785 -0.003907 0.000000
-0.003907 0.004488 0.000000
0.000000 0.000000 0.000000
0.000399 -0.016186 0.000000
-0.016186 0.005100 0.000000
0.000000 0.000000 0.000000
-0.000334 -0.005263 0.000000
-0.005263 -0.013976 0.000000
0.000000 0.000000 0.000000
-0.021680 0.007718 0.000000
0.007718 -0.025638 0.000000
0.000000 0.000000 0.000000
-0.008830 -0.005565 0.000000
-0.005565 -0.016503 0.000000
0.000000 0.000000 0.000000
0.006986 0.031361 0.000000
0.031361 -0.003877 0.000000
0.000000 0.000000 0.000000
-0.003597 -0.000467 0.000000
-0.000467 -0.008185 0.000000
0.000000 0.000000 0.000000
0.000598 0.002152 0.000000
0.002152 -0.002450 0.000000
0.000000 0.000000 0.000000
-0.013154 0.007509 0.000000
0.007509 0.000573 0.000000
0.000000 0.000000 0.000000
0.019371 0.006685 0.000000
0.006685 0.001871 0.000000
0.000000 0.000000 0.000000
-0.004586 0.002977 0.000000
0.002977 -0.010537 0.000000
0.000000 0.000000 0.000000
-0.000333 -0.003270 0.000000
-0.003270 0.000260 0.000000
0.000000 0.000000 0.000000
0.005187 -0.003144 0.000000
-0.003144 0.014433 0.000000
0.000000 0.000000 0.000000
0.007495 0.003381 0.000000
0.003381 0.012871 0.000000
0.000000 0.000000 0.000000
0.007377 -0.002399 0.000000
-0.002399 -0.006926 0.000000
0.000000 0.000000 0.000000
-0.005664 0.003943 0.000000
0.003943 0.000775 0.000000
0.000000 0.000000 0.000000
0.019334 -0.001854 0.000000
-0.001854 -0.001520 0.000000
0.000000 0.000000 0.000000
-0.007470 0.003642 0.000000
0.003642 -0.002282 0.000000
0.000000 0.000000 0.000000
-0.014857 0.008549 0.000000
0.008549 -0.016537 0.000000
0.000000 0.000000 0.000000
0.001490 0.002422 0.000000
0.002422 0.000769 0.000000
0.000000 0.000000 0.000000
0.003977 -0.001528 0.000000
-0.001528 -0.003948 0.000000
0.000000 0.000000 0.000000
-0.001478 0.000869 0.000000
0.000869 0.002948 0.000000
0.000000 0.000000 0.000000
0.018492 -0.010204 0.000000
-0.010204 0.020734 0.000000
0.000000 0.000000 0.000000
-0.000563 0.002212 0.000000
0.002212 -0.001618 0.000000
0.000000 0.000000 0.000000
0.016582 0.003921 0.000000
0.003921 -0.018392 0.000000
0.000000 0.000000 0.000000
0.002426 -0.000641 0.000000
-0.000641 0.012737 0.000000
0.000000 0.000000 0.000000
0.008768 0.000913 0.000000
0.000913 0.035180 0.000000
0.000000 0.000000 0.000000
-0.002031 -0.004283 0.000000
-0.004283 -0.021655 0.000000
0.000000 0.000000 0.000000
-0.002018 0.001147 0.000000
0.001147 -0.025231 0.000000
0.000000 0.000000 0.000000
-0.017799 -0.001700 0.000000
-0.001700 -0.036904 0.000000
0.000000 0.000000 0.000000
-0.012226 0.000547 0.000000
0.000547 -0.034772 0.000000
0.000000 0.000000 0.000000
-0.013036 0.000166 0.000000
0.000166 -0.029330 0.000000
0.000000 0.000000 0.000000
-0.006705 0.002086 0.000000
0.002086 -0.026320 0.000000
0.000000 0.000000 0.000000
-0.008176 0.000756 0.000000
0.000756 -0.003776 0.000000
0.000000 0.000000 0.000000
0.008734 0.003177 0.000000
0.003177 -0.004624 0.000000
0.000000 0.000000 0.000000
0.007781 -0.003137 0.000000
-0.003137 0.004304 0.000000
0.000000 0.000000 0.000000
0.007739 -0.004015 0.000000
-0.004015 0.003264 0.000000
0.000000 0.000000 0.000000
0.008699 -0.002936 0.000000
-0.002936 0.003717 0.000000
0.000000 0.000000 0.000000
0.010622 -0.003173 0.000000
-0.003173 0.010449 0.000000
0.000000 0.000000 0.000000
0.007991 -0.014215 0.000000
-0.014215 -0.012243 0.000000
0.000000 0.000000 0.000000
0.009798 -0.003970 0.000000
-0.003970 0.009557 0.000000
0.000000 0.000000 0.000000
-0.001835 0.002841 0.000000
0.002841 0.000290 0.000000
0.000000 0.000000 0.000000
-0.001254 0.006134 0.000000
0.006134 0.004613 0.000000
0.000000 0.000000 0.000000
-0.004140 0.000134 0.000000
0.000134 -0.002124 0.000000
0.000000 0.000000 0.000000
0.015667 0.007795 0.000000
0.007795 -0.003181 0.000000
0.000000 0.000000 0.000000
0.014818 -0.002844 0.000000
-0.002844 -0.006115 0.000000
0.000000 0.000000 0.000000
0.000264 0.000253 0.000000
0.000253 0.008413 0.000000
0.000000 0.000000 0.000000
-0.011741 0.002242 0.000000
0.002242 0.009449 0.000000
0.000000 0.000000 0.000000
0.001552 0.003726 0.000000
0.003726 -0.016526 0.000000
0.000000 0.000000 0.000000
-0.008588 0.002566 0.000000
0.002566 -0.001203 0.000000
0.000000 0.000000 0.000000
0.010273 -0.000475 0.000000
-0.000475 0.015821 0.000000
0.000000 0.000000 0.000000
0.007675 0.005705 0.000000
0.005705 0.016178 0.000000
0.000000 0.000000 0.000000
-0.001730 -0.002433 0.000000
-0.002433 0.015207 0.000000
0.000000 0.000000 0.000000
0.007687 -0.009715 0.000000
-0.009715 -0.002428 0.000000
0.000000 0.000000 0.000000
0.009700 -0.003822 0.000000
-0.003822 0.003733 0.000000
0.000000 0.000000 0.000000
0.001218 -0.006046 0.000000
-0.006046 0.001725 0.000000
0.000000 0.000000 0.000000
-0.004417 0.002704 0.000000
0.002704 -0.006822 0.000000
0.000000 0.000000 0.000000
-0.021628 0.003798 0.000000
0.003798 -0.012046 0.000000
0.000000 0.000000 0.000000
-0.013500 0.002836 0.000000
0.002836 0.018998 0.000000
0.000000 0.000000 0.000000
-0.013224 0.009882 0.000000
0.009882 0.006584 0.000000
0.000000 0.000000 0.000000
0.002411 0.005518 0.000000
0.005518 0.017866 0.000000
0.000000 0.000000 0.000000
0.009415 0.003240 0.000000
0.003240 0.020924 0.000000
0.000000 0.000000 0.000000
0.004208 0.004014 0.000000
0.004014 0.014346 0.000000
0.000000 0.000000 0.000000
-0.010500 -0.003971 0.000000
-0.003971 -0.015740 0.000000
0.000000 0.000000 0.000000
-0.003389 0.002164 0.000000
0.002164 -0.010636 0.000000
0.000000 0.000000 0.000000
-0.002249 0.001415 0.000000
0.001415 -0.000231 0.000000
0.000000 0.000000 0.000000
-0.001330 0.006452 0.000000
0.006452 -0.000546 0.000000
0.000000 0.000000 0.000000
-0.012900 0.021526 0.000000
0.021526 -0.008094 0.000000
0.000000 0.000000 0.000000
-0.006576 -0.003860 0.000000
-0.003860 -0.001832 0.000000
0.000000 0.000000 0.000000
-0.002106 0.007621 0.000000
0.007621 0.001250 0.000000
0.000000 0.000000 0.000000
0.009748 -0.006381 0.000000
-0.006381 0.005956 0.000000
0.000000 0.000000 0.000000
-0.013058 -0.006746 0.000000
-0.006746 -0.007688 0.000000
0.000000 0.000000 0.000000
-0.011512 -0.006549 0.000000
-0.006549 -0.021388 0.000000
0.000000 0.000000 0.000000
0.008820 0.006433 0.000000
0.006433 0.012815 0.000000
0.000000 0.000000 0.000000
0.005788 -0.000116 0.000000
-0.000116 0.008677 0.000000
0.000000 0.000000 0.000000
0.000563 -0.003577 0.000000
-0.003577 0.001614 0.000000
0.000000 0.000000 0.000000
0.000791 -0.003745 0.000000
-0.003745 0.002367 0.000000
0.000000 0.000000 0.000000
-0.006541 -0.005508 0.000000
-0.005508 0.010816 0.000000
0.000000 0.000000 0.000000
-0.008625 0.000591 0.000000
0.000591 0.006216 0.000000
0.000000 0.000000 0.000000
0.015258 -0.004409 0.000000
-0.004409 0.005511 0.000000
0.000000 0.000000 0.000000
-0.007138 -0.005413 0.000000
-0.005413 0.021831 0.000000
0.000000 0.000000 0.000000
-0.005397 -0.020372 0.000000
-0.020372 -0.014742 0.000000
0.000000 0.000000 0.000000
-0.008651 -0.012627 0.000000
-0.012627 0.006650 0.000000
0.000000 0.000000 0.000000
0.004123 -0.004174 0.000000
-0.004174 -0.012377 0.000000
0.000000 0.000000 0.000000
0.006286 0.001507 0.000000
0.001507 -0.007305 0.000000
0.000000 0.000000 0.000000
0.007042 0.000050 0.000000
0.000050 -0.006520 0.000000
0.000000 0.000000 0.000000
-0.006519 0.001759 0.000000
0.001759 -0.007295 0.000000
0.000000 0.000000 0.000000
-0.003106 -0.004710 0.000000
-0.004710 0.000325 0.000000
0.000000 0.000000 0.000000
0.002984 0.004448 0.000000
0.004448 0.001442 0.000000
0.000000 0.000000 0.000000
-0.008589 -0.010350 0.000000
-0.010350 -0.028479 0.000000
0.000000 0.000000 0.000000
-0.001314 -0.005665 0.000000
-0.005665 0.006337 0.000000
0.000000 0.000000 0.000000
0.014910 0.002302 0.000000
0.002302 0.008154 0.000000
0.000000 0.000000 0.000000
-0.003431 0.001096 0.000000
0.001096 -0.012120 0.000000
0.000000 0.000000 0.000000
0.000319 -0.001608 0.000000
-0.001608 -0.006235 0.000000
0.000000 0.000000 0.000000
-0.016167 0.006882 0.000000
0.006882 0.012653 0.000000
0.000000 0.000000 0.000000
-0.004539 -0.003664 0.000000
-0.003664 -0.004467 0.000000
0.000000 0.000000 0.000000
-0.012407 0.012348 0.000000
0.012348 0.006531 0.000000
0.000000 0.000000 0.000000
0.003611 -0.008277 0.000000
-0.008277 -0.005764 0.000000
0.000000 0.000000 0.000000
-0.009462 0.003859 0.000000
0.003859 -0.000451 0.000000
0.000000 0.000000 0.000000
-0.005361 0.008989 0.000000
0.008989 0.006373 0.000000
0.000000 0.000000 0.000000
-0.001147 -0.014545 0.000000
-0.014545 -0.024684 0.000000
0.000000 0.000000 0.000000
-0.019683 0.005183 0.000000
0.005183 -0.006711 0.000000
0.000000 0.000000 0.000000
-0.010642 -0.002809 0.000000
-0.002809 0.001746 0.000000
0.000000 0.000000 0.000000
-0.016630 0.001324 0.000000
0.001324 -0.012305 0.000000
0.000000 0.000000 0.000000
0.005263 -0.008056 0.000000
-0.008056 0.002829 0.000000
0.000000 0.000000 0.000000
0.000418 -0.002270 0.000000
-0.002270 0.003122 0.000000
0.000000 0.000000 0.000000
0.004804 -0.004653 0.000000
-0.004653 0.008608 0.000000
0.000000 0.000000 0.000000
0.005385 -0.003424 0.000000
-0.003424 0.010102 0.000000
0.000000 0.000000 0.000000
0.000417 0.001876 0.000000
0.001876 0.005912 0.000000
0.000000 0.000000 0.000000
-0.006257 -0.001613 0.000000
-0.001613 0.002282 0.000000
0.000000 0.000000 0.000000
-0.000565 0.005832 0.000000
0.005832 -0.002498 0.000000
0.000000 0.000000 0.000000
0.001276 0.008598 0.000000
0.008598 0.005881 0.000000
0.000000 0.000000 0.000000
-0.003182 0.011033 0.000000
0.011033 0.007771 0.000000
0.000000 0.000000 0.000000
-0.007046 0.002454 0.000000
0.002454 -0.011746 0.000000
0.000000 0.000000 0.000000
0.004031 -0.008413 0.000000
-0.008413 -0.017889 0.000000
0.000000 0.000000 0.000000
0.009894 -0.000734 0.000000
-0.000734 -0.003760 0.000000
0.000000 0.000000 0.000000
0.005533 0.003579 0.000000
0.003579 -0.004505 0.000000
0.000000 0.000000 0.000000
0.011229 -0.013095 0.000000
-0.013095 -0.006702 0.000000
0.000000 0.000000 0.000000
-0.013919 0.003906 0.000000
0.003906 -0.012957 0.000000
0.000000 0.000000 0.000000
0.000642 0.011018 0.000000
0.011018 -0.001135 0.000000
0.000000 0.000000 0.000000
-0.027790 -0.013998 0.000000
-0.013998 -0.018693 0.000000
0.000000 0.000000 0.000000
0.002707 -0.005140 0.000000
-0.005140 0.002223 0.000000
0.000000 0.000000 0.000000
-0.002416 -0.013064 0.000000
-0.013064 -0.000598 0.000000
0.000000 0.000000 0.000000
0.010932 0.001585 0.000000
0.001585 0.011067 0.000000
0.000000 0.000000 0.000000
-0.012488 -0.010353 0.000000
-0.010353 -0.001575 0.000000
0.000000 0.000000 0.000000
0.005277 -0.005490 0.000000
-0.005490 -0.005936 0.000000
0.000000 0.000000 0.000000
0.012507 0.028883 0.000000
0.028883 0.017016 0.000000
0.000000 0.000000 0.000000
0.033833 0.007269 0.000000
0.007269 0.023790 0.000000
0.000000 0.000000 0.000000
-0.005875 0.003291 0.000000
0.003291 -0.001285 0.000000
0.000000 0.000000 0.000000
-0.002107 0.005527 0.000000
0.005527 0.003409 0.000000
0.000000 0.000000 0.000000
-0.012546 0.006301 0.000000
0.006301 -0.010015 0.000000
0.000000 0.000000 0.000000
-0.004414 -0.008991 0.000000
-0.008991 -0.000958 0.000000
0.000000 0.000000 0.000000
-0.003848 -0.012928 0.000000
-0.012928 -0.010465 0.000000
0.000000 0.000000 0.000000
0.005518 0.008736 0.000000
0.008736 0.000914 0.000000
0.000000 0.000000 0.000000
0.005398 -0.002171 0.000000
-0.002171 0.006573 0.000000
0.000000 0.000000 0.000000
0.004443 -0.002952 0.000000
-0.002952 0.002989 0.000000
0.000000 0.000000 0.000000
-0.005653 0.008434 0.000000
0.008434 -0.007128 0.000000
0.000000 0.000000 0.000000
0.007057 -0.008088 0.000000
-0.008088 0.008547 0.000000
0.000000 0.000000 0.000000
-0.006649 -0.006082 0.000000
-0.006082 0.013857 0.000000
0.000000 0.000000 0.000000
0.009865 0.005208 0.000000
0.005208 -0.023189 0.000000
0.000000 0.000000 0.000000
-0.004992 0.001919 0.000000
0.001919 0.007036 0.000000
0.000000 0.000000 0.000000
-0.003788 0.002350 0.000000
0.002350 0.006889 0.000000
0.000000 0.000000 0.000000
0.001623 -0.001166 0.000000
-0.001166 0.000443 0.000000
0.000000 0.000000 0.000000
-0.002049 -0.003917 0.000000
-0.003917 -0.000961 0.000000
0.000000 0.000000 0.000000
0.003013 -0.000871 0.000000
-0.000871 0.003022 0.000000
0.000000 0.000000 0.000000
0.005917 -0.003528 0.000000
-0.003528 0.002766 0.000000
0.000000 0.000000 0.000000
-0.006135 0.010265 0.000000
0.010265 -0.005683 0.000000
0.000000 0.000000 0.000000
0.005069 0.002896 0.000000
0.002896 -0.000075 0.000000
0.000000 0.000000 0.000000
-0.015201 0.011410 0.000000
0.011410 -0.013278 0.000000
0.000000 0.000000 0.000000
-0.005549 -0.002653 0.000000
-0.002653 0.001170 0.000000
0.000000 0.000000 0.000000
-0.004385 -0.006938 0.000000
-0.006938 -0.004502 0.000000
0.000000 0.000000 0.000000
-0.001665 -0.002039 0.000000
-0.002039 0.002210 0.000000
0.000000 0.000000 0.000000
-0.000741 0.000653 0.000000
0.000653 -0.023334 0.000000
0.000000 0.000000 0.000000
-0.004431 -0.014401 0.000000
-0.014401 0.016552 0.000000
0.000000 0.000000 0.000000
-0.007240 -0.004715 0.000000
-0.004715 -0.022023 0.000000
0.000000 0.000000 0.000000
-0.012574 -0.001936 0.000000
-0.001936 -0.011879 0.000000
0.000000 0.000000 0.000000
0.010345 -0.003653 0.000000
-0.003653 0.010638 0.000000
0.000000 0.000000 0.000000
0.006871 -0.008113 0.000000
-0.008113 0.033954 0.000000
0.000000 0.000000 0.000000
0.010076 -0.002346 0.000000
-0.002346 0.034670 0.000000
0.000000 0.000000 0.000000
-0.000110 0.002915 0.000000
0.002915 0.001997 0.000000
0.000000 0.000000 0.000000
0.006568 0.004983 0.000000
0.004983 0.005267 0.000000
0.000000 0.000000 0.000000
-0.002063 0.000014 0.000000
0.000014 0.003969 0.000000
0.000000 0.000000 0.000000
-0.024966 0.045191 0.000000
0.045191 0.005804 0.000000
0.000000 0.000000 0.000000
-0.004873 -0.001235 0.000000
-0.001235 -0.009271 0.000000
0.000000 0.000000 0.000000
0.016880 -0.002686 0.000000
-0.002686 0.005727 0.000000
0.000000 0.000000 0.000000
0.008999 -0.000857 0.000000
-0.000857 0.010320 0.000000
0.000000 0.000000 0.000000
-0.005750 -0.008204 0.000000
-0.008204 -0.008661 0.000000
0.000000 0.000000 0.000000
0.004820 -0.011443 0.000000
-0.011443 -0.004083 0.000000
0.000000 0.000000 0.000000
0.005587 0.008447 0.000000
0.008447 -0.000122 0.000000
0.000000 0.000000 0.000000
0.006767 0.005100 0.000000
0.005100 -0.002557 0.000000
0.000000 0.000000 0.000000
0.008196 0.001028 0.000000
0.001028 0.000125 0.000000
0.000000 0.000000 0.000000
-0.008484 0.002425 0.000000
0.002425 0.003580 0.000000
0.000000 0.000000 0.000000
0.015378 -0.013859 0.000000
-0.013859 -0.019639 0.000000
0.000000 0.000000 0.000000
-0.003115 -0.001994 0.000000
-0.001994 -0.014707 0.000000
0.000000 0.000000 0.000000
-0.009858 0.002772 0.000000
0.002772 -0.008618 0.000000
0.000000 0.000000 0.000000
0.008322 -0.001191 0.000000
-0.001191 -0.013905 0.000000
0.000000 0.000000 0.000000
0.003236 0.002119 0.000000
0.002119 -0.017938 0.000000
0.000000 0.000000 0.000000
0.008386 -0.003377 0.000000
-0.003377 -0.017846 0.000000
0.000000 0.000000 0.000000
-0.001336 0.006182 0.000000
0.006182 -0.001233 0.000000
0.000000 0.000000 0.000000
-0.010692 0.000551 0.000000
0.000551 -0.019548 0.000000
0.000000 0.000000 0.000000
-0.002557 0.002705 0.000000
0.002705 -0.022796 0.000000
0.000000 0.000000 0.000000
-0.000280 0.000996 0.000000
0.000996 -0.015000 0.000000
0.000000 0.000000 0.000000
-0.041092 -0.003977 0.000000
-0.003977 0.010849 0.000000
0.000000 0.000000 0.000000
0.018002 0.001989 0.000000
0.001989 -0.011096 0.000000
0.000000 0.000000 0.000000
-0.000962 0.008184 0.000000
0.008184 -0.020048 0.000000
0.000000 0.000000 0.000000
0.010638 -0.004278 0.000000
-0.004278 0.012621 0.000000
0.000000 0.000000 0.000000
-0.008045 -0.003423 0.000000
-0.003423 0.012891 0.000000
0.000000 0.000000 0.000000
-0.020850 -0.015946 0.000000
-0.015946 -0.027749 0.000000
0.000000 0.000000 0.000000
-0.003091 -0.002893 0.000000
-0.002893 -0.006555 0.000000
0.000000 0.000000 0.000000
0.009680 -0.009696 0.000000
-0.009696 0.035048 0.000000
0.000000 0.000000 0.000000
-0.010049 -0.016726 0.000000
-0.016726 -0.006544 0.000000
0.000000 0.000000 0.000000
0.009813 -0.006724 0.000000
-0.006724 -0.003624 0.000000
0.000000 0.000000 0.000000
0.010153 -0.002449 0.000000
-0.002449 0.017186 0.000000
0.000000 0.000000 0.000000
-0.011677 0.008532 0.000000
0.008532 -0.038539 0.000000
0.000000 0.000000 0.000000
0.009406 -0.019227 0.000000
-0.019227 -0.005865 0.000000
0.000000 0.000000 0.000000
0.010643 0.000272 0.000000
0.000272 0.002633 0.000000
0.000000 0.000000 0.000000
0.007994 -0.004817 0.000000
-0.004817 0.024582 0.000000
0.000000 0.000000 0.000000
-0.033649 0.002507 0.000000
0.002507 -0.009326 0.000000
0.000000 0.000000 0.000000
-0.001810 0.004187 0.000000
0.004187 -0.011975 0.000000
0.000000 0.000000 0.000000
-0.000261 0.010812 0.000000
0.010812 -0.007804 0.000000
0.000000 0.000000 0.000000
-0.012575 -0.000058 0.000000
-0.000058 0.000868 0.000000
0.000000 0.000000 0.000000
-0.022163 0.004641 0.000000
0.004641 -0.005963 0.000000
0.000000 0.000000 0.000000
0.012615 0.001417 0.000000
0.001417 0.001715 0.000000
0.000000 0.000000 0.000000
0.003523 0.008981 0.000000
0.008981 -0.007462 0.000000
0.000000 0.000000 0.000000
0.001933 -0.004478 0.000000
-0.004478 0.000438 0.000000
0.000000 0.000000 0.000000
0.001592 0.004400 0.000000
0.004400 0.002848 0.000000
0.000000 0.000000 0.000000
0.004123 -0.012464 0.000000
-0.012464 -0.002966 0.000000
0.000000 0.000000 0.000000
-0.004793 0.005136 0.000000
0.005136 -0.000433 0.000000
0.000000 0.000000 0.000000
-0.011913 -0.001303 0.000000
-0.001303 0.003965 0.000000
0.000000 0.000000 0.000000
0.005100 -0.003511 0.000000
-0.003511 0.008455 0.000000
0.000000 0.000000 0.000000
0.011912 -0.006898 0.000000
-0.006898 0.009038 0.000000
0.000000 0.000000 0.000000
-0.005228 -0.005185 0.000000
-0.005185 -0.002969 0.000000
0.000000 0.000000 0.000000
0.008566 0.002232 0.000000
0.002232 0.004649 0.000000
0.000000 0.000000 0.000000
0.001546 0.000500 0.000000
0.000500 0.009653 0.000000
0.000000 0.000000 0.000000
0.002163 0.000932 0.000000
0.000932 0.006567 0.000000
0.000000 0.000000 0.000000
-0.020494 0.000628 0.000000
0.000628 0.000179 0.000000
0.000000 0.000000 0.000000
0.016714 -0.003077 0.000000
-0.003077 0.009706 0.000000
0.000000 0.000000 0.000000
-0.024778 0.003107 0.000000
0.003107 -0.012209 0.000000
0.000000 0.000000 0.000000
-0.008879 0.003353 0.000000
0.003353 -0.013015 0.000000
0.000000 0.000000 0.000000
-0.003961 0.005530 0.000000
0.005530 -0.017325 0.000000
0.000000 0.000000 0.000000
-0.000271 0.000294 0.000000
0.000294 0.001964 0.000000
0.000000 0.000000 0.000000
-0.001407 -0.008842 0.000000
-0.008842 -0.004987 0.000000
0.000000 0.000000 0.000000
0.002922 -0.002983 0.000000
-0.002983 0.001798 0.000000
0.000000 0.000000 0.000000
-0.001869 -0.010541 0.000000
-0.010541 -0.005312 0.000000
0.000000 0.000000 0.000000
-0.005820 -0.002770 0.000000
-0.002770 0.012742 0.000000
0.000000 0.000000 0.000000
0.001453 -0.006455 0.000000
-0.006455 0.009491 0.000000
0.000000 0.000000 0.000000
-0.001795 -0.010309 0.000000
-0.010309 0.012426 0.000000
0.000000 0.000000 0.000000
0.002632 -0.003769 0.000000
-0.003769 0.018916 0.000000
0.000000 0.000000 0.000000
-0.000831 -0.004331 0.000000
-0.004331 0.004931 0.000000
0.000000 0.000000 0.000000
0.004952 -0.004711 0.000000
-0.004711 -0.002027 0.000000
0.000000 0.000000 0.000000
0.009021 -0.006403 0.000000
-0.006403 0.000371 0.000000
0.000000 0.000000 0.000000
-0.030061 0.007194 0.000000
0.007194 -0.015845 0.000000
0.000000 0.000000 0.000000
0.000344 -0.000476 0.000000
-0.000476 0.007134 0.000000
0.000000 0.000000 0.000000
-0.002671 0.003389 0.000000
0.003389 -0.006836 0.000000
0.000000 0.000000 0.000000
-0.001238 0.003780 0.000000
0.003780 0.003933 0.000000
0.000000 0.000000 0.000000
0.011734 -0.001749 0.000000
-0.001749 0.010348 0.000000
0.000000 0.000000 0.000000
-0.008423 0.008114 0.000000
0.008114 -0.006210 0.000000
0.000000 0.000000 0.000000
0.004664 -0.005335 0.000000
-0.005335 -0.003134 0.000000
0.000000 0.000000 0.000000
-0.002218 -0.008579 0.000000
-0.008579 0.008572 0.000000
0.000000 0.000000 0.000000
-0.005245 0.014160 0.000000
0.014160 0.000672 0.000000
0.000000 0.000000 0.000000
-0.004747 -0.015208 0.000000
-0.015208 -0.000118 0.000000
0.000000 0.000000 0.000000
0.004270 -0.003846 0.000000
-0.003846 -0.005877 0.000000
0.000000 0.000000 0.000000
-0.017358 -0.010872 0.000000
-0.010872 -0.006654 0.000000
0.000000 0.000000 0.000000
0.014965 0.002773 0.000000
0.002773 0.024284 0.000000
0.000000 0.000000 0.000000
0.011167 0.004499 0.000000
0.004499 0.004426 0.000000
0.000000 0.000000 0.000000
-0.004247 -0.002420 0.000000
-0.002420 -0.004469 0.000000
0.000000 0.000000 0.000000
0.006683 0.018633 0.000000
0.018633 -0.023761 0.000000
0.000000 0.000000 0.000000
-0.009312 -0.001815 0.000000
-0.001815 -0.007856 0.000000
0.000000 0.000000 0.000000
0.003932 0.007459 0.000000
0.007459 0.005812 0.000000
0.000000 0.000000 0.000000
0.019393 -0.015088 0.000000
-0.015088 0.020489 0.000000
0.000000 0.000000 0.000000
-0.006656 -0.000991 0.000000
-0.000991 -0.007370 0.000000
0.000000 0.000000 0.000000
0.002947 0.001802 0.000000
0.001802 0.001012 0.000000
0.000000 0.000000 0.000000
-0.001837 0.004487 0.000000
0.004487 -0.003154 0.000000
0.000000 0.000000 0.000000
-0.005698 -0.000780 0.000000
-0.000780 -0.003858 0.000000
0.000000 0.000000 0.000000
0.004416 0.006213 0.000000
0.006213 -0.004565 0.000000
0.000000 0.000000 0.000000
-0.003610 -0.006221 0.000000
-0.006221 -0.004294 0.000000
0.000000 0.000000 0.000000
0.013257 -0.004784 0.000000
-0.004784 0.007026 0.000000
0.000000 0.000000 0.000000
0.010164 -0.001950 0.000000
-0.001950 0.015666 0.000000
0.000000 0.000000 0.000000
0.009227 -0.011454 0.000000
-0.011454 0.012205 0.000000
0.000000 0.000000 0.000000
0.011792 -0.010908 0.000000
-0.010908 0.011265 0.000000
0.000000 0.000000 0.000000
0.002715 -0.010144 0.000000
-0.010144 0.005126 0.000000
0.000000 0.000000 0.000000
0.007807 -0.001883 0.000000
-0.001883 -0.005367 0.000000
0.000000 0.000000 0.000000
-0.005117 -0.000098 0.000000
-0.000098 0.005406 0.000000
0.000000 0.000000 0.000000
0.001089 -0.009851 0.000000
-0.009851 0.005511 0.000000
0.000000 0.000000 0.000000
-0.002709 0.005622 0.000000
0.005622 -0.005562 0.000000
0.000000 0.000000 0.000000
-0.008022 0.008001 0.000000
0.008001 -0.008170 0.000000
0.000000 0.000000 0.000000
-0.003373 -0.010184 0.000000
-0.010184 -0.035332 0.000000
0.000000 0.000000 0.000000
-0.020020 -0.008782 0.000000
-0.008782 0.015144 0.000000
0.000000 0.000000 0.000000
0.006824 -0.004270 0.000000
-0.004270 0.018538 0.000000
0.000000 0.000000 0.000000
-0.000225 -0.006621 0.000000
-0.006621 0.000338 0.000000
0.000000 0.000000 0.000000
-0.009376 0.003412 0.000000
0.003412 0.006986 0.000000
0.000000 0.000000 0.000000
-0.008900 0.008255 0.000000
0.008255 -0.000864 0.000000
0.000000 0.000000 0.000000
0.009746 0.006938 0.000000
0.006938 0.013271 0.000000
0.000000 0.000000 0.000000
0.006483 0.002053 0.000000
0.002053 0.006866 0.000000
0.000000 0.000000 0.000000
-0.015493 -0.006605 0.000000
-0.006605 -0.028264 0.000000
0.000000 0.000000 0.000000
0.003186 0.008259 0.000000
0.008259 0.017924 0.000000
0.000000 0.000000 0.000000
-0.004836 0.000060 0.000000
0.000060 -0.008526 0.000000
0.000000 0.000000 0.000000
-0.013817 -0.006323 0.000000
-0.006323 -0.027686 0.000000
0.000000 0.000000 0.000000
-0.006506 0.009389 0.000000
0.009389 -0.020671 0.000000
0.000000 0.000000 0.000000
0.002947 -0.001229 0.000000
-0.001229 0.008993 0.000000
0.000000 0.000000 0.000000
0.001965 0.002646 0.000000
0.002646 0.000305 0.000000
0.000000 0.000000 0.000000
0.000303 -0.006842 0.000000
-0.006842 -0.014389 0.000000
0.000000 0.000000 0.000000
0.002463 -0.012286 0.000000
-0.012286 -0.019357 0.000000
0.000000 0.000000 0.000000
-0.005071 0.001023 0.000000
0.001023 0.016055 0.000000
0.000000 0.000000 0.000000
-0.004854 0.003543 0.000000
0.003543 0.021879 0.000000
0.000000 0.000000 0.000000
0.000576 0.001016 0.000000
0.001016 -0.005794 0.000000
0.000000 0.000000 0.000000
0.006014 -0.003025 0.000000
-0.003025 -0.001291 0.000000
0.000000 0.000000 0.000000
0.005371 0.003270 0.000000
0.003270 0.004350 0.000000
0.000000 0.000000 0.000000
-0.002982 -0.001184 0.000000
-0.001184 -0.007949 0.000000
0.000000 0.000000 0.000000
-0.014394 -0.000082 0.000000
-0.000082 -0.008700 0.000000
0.000000 0.000000 0.000000
0.006462 -0.001153 0.000000
-0.001153 -0.007860 0.000000
0.000000 0.000000 0.000000
-0.017135 0.002325 0.000000
0.002325 -0.004362 0.000000
0.000000 0.000000 0.000000
0.008011 0.003468 0.000000
0.003468 0.001514 0.000000
0.000000 0.000000 0.000000
-0.011337 -0.002991 0.000000
-0.002991 -0.033706 0.000000
0.000000 0.000000 0.000000
-0.009211 -0.001715 0.000000
-0.001715 -0.031003 0.000000
0.000000 0.000000 0.000000
-0.002044 0.001524 0.000000
0.001524 0.004307 0.000000
0.000000 0.000000 0.000000
0.005423 0.005627 0.000000
0.005627 0.011899 0.000000
0.000000 0.000000 0.000000
0.003003 -0.001413 0.000000
-0.001413 0.007919 0.000000
0.000000 0.000000 0.000000
0.004188 -0.000981 0.000000
-0.000981 0.012097 0.000000
0.000000 0.000000 0.000000
-0.011753 -0.000100 0.000000
-0.000100 -0.008397 0.000000
0.000000 0.000000 0.000000
-0.014590 -0.001245 0.000000
-0.001245 -0.017491 0.000000
0.000000 0.000000 0.000000
0.003417 -0.000678 0.000000
-0.000678 -0.008862 0.000000
0.000000 0.000000 0.000000
0.010971 0.000714 0.000000
0.000714 -0.007895 0.000000
0.000000 0.000000 0.000000
0.018630 -0.000980 0.000000
-0.000980 -0.001092 0.000000
0.000000 0.000000 0.000000
0.011727 -0.004692 0.000000
-0.004692 -0.005407 0.000000
0.000000 0.000000 0.000000
-0.005766 0.002833 0.000000
0.002833 -0.011220 0.000000
0.000000 0.000000 0.000000
-0.005673 0.003210 0.000000
0.003210 -0.011377 0.000000
0.000000 0.000000 0.000000
0.000271 0.000253 0.000000
0.000253 0.001222 0.000000
0.000000 0.000000 0.000000
0.000447 0.000529 0.000000
0.000529 0.001151 0.000000
0.000000 0.000000 0.000000
-0.010610 -0.000454 0.000000
-0.000454 -0.022083 0.000000
0.000000 0.000000 0.000000
-0.010062 0.001300 0.000000
0.001300 -0.029576 0.000000
0.000000 0.000000 0.000000
-0.006885 -0.000272 0.000000
-0.000272 -0.011803 0.000000
0.000000 0.000000 0.000000
-0.004910 0.000171 0.000000
0.000171 0.001313 0.000000
0.000000 0.000000 0.000000
-0.000250 0.004037 0.000000
0.004037 -0.002374 0.000000
0.000000 0.000000 0.000000
-0.003876 0.008055 0.000000
0.008055 -0.009015 0.000000
0.000000 0.000000 0.000000
0.004448 0.002863 0.000000
0.002863 0.003153 0.000000
0.000000 0.000000 0.000000
0.006629 -0.005618 0.000000
-0.005618 0.012625 0.000000
0.000000 0.000000 0.000000
-0.001323 0.000602 0.000000
0.000602 0.000126 0.000000
0.000000 0.000000 0.000000
0.011828 0.001468 0.000000
0.001468 -0.006268 0.000000
0.000000 0.000000 0.000000
0.007179 -0.007323 0.000000
-0.007323 0.007110 0.000000
0.000000 0.000000 0.000000
-0.004065 0.008686 0.000000
0.008686 0.009354 0.000000
0.000000 0.000000 0.000000
0.001485 -0.002188 0.000000
-0.002188 0.004951 0.000000
0.000000 0.000000 0.000000
0.024360 0.000642 0.000000
0.000642 -0.016153 0.000000
0.000000 0.000000 0.000000
0.002983 0.000206 0.000000
0.000206 0.010679 0.000000
0.000000 0.000000 0.000000
0.014792 -0.002634 0.000000
-0.002634 0.002546 0.000000
0.000000 0.000000 0.000000
-0.011810 -0.006896 0.000000
-0.006896 0.000090 0.000000
0.000000 0.000000 0.000000
-0.015158 -0.008610 0.000000
-0.008610 0.000805 0.000000
0.000000 0.000000 0.000000
0.003212 -0.011507 0.000000
-0.011507 -0.013647 0.000000
0.000000 0.000000 0.000000
0.013649 -0.003656 0.000000
-0.003656 -0.030020 0.000000
0.000000 0.000000 0.000000
-0.016299 -0.000832 0.000000
-0.000832 0.001377 0.000000
0.000000 0.000000 0.000000
-0.007805 -0.001706 0.000000
-0.001706 -0.010821 0.000000
0.000000 0.000000 0.000000
-0.001787 0.002412 0.000000
0.002412 0.001960 0.000000
0.000000 0.000000 0.000000
-0.000319 0.011710 0.000000
0.011710 0.004398 0.000000
0.000000 0.000000 0.000000
0.007976 0.012754 0.000000
0.012754 -0.000884 0.000000
0.000000 0.000000 0.000000
0.003815 -0.003194 0.000000
-0.003194 -0.001795 0.000000
0.000000 0.000000 0.000000
0.011942 0.000733 0.000000
0.000733 -0.014826 0.000000
0.000000 0.000000 0.000000
0.006285 0.004200 0.000000
0.004200 0.011121 0.000000
0.000000 0.000000 0.000000
0.011541 0.002904 0.000000
0.002904 -0.005766 0.000000
0.000000 0.000000 0.000000
-0.000213 0.004130 0.000000
0.004130 0.008367 0.000000
0.000000 0.000000 0.000000
-0.008583 0.002942 0.000000
0.002942 -0.029645 0.000000
0.000000 0.000000 0.000000
-0.004836 0.002076 0.000000
0.002076 -0.028191 0.000000
0.000000 0.000000 0.000000
0.005149 0.005862 0.000000
0.005862 0.000348 0.000000
0.000000 0.000000 0.000000
0.001493 0.004742 0.000000
0.004742 -0.000830 0.000000
0.000000 0.000000 0.000000
-0.002700 0.001623 0.000000
0.001623 0.010539 0.000000
0.000000 0.000000 0.000000
-0.005418 0.015554 0.000000
0.015554 0.006771 0.000000
0.000000 0.000000 0.000000
-0.012397 0.009798 0.000000
0.009798 -0.034913 0.000000
0.000000 0.000000 0.000000
-0.003264 0.008457 0.000000
0.008457 -0.000214 0.000000
0.000000 0.000000 0.000000
-0.010522 0.007215 0.000000
0.007215 -0.002791 0.000000
0.000000 0.000000 0.000000
-0.010683 0.023115 0.000000
0.023115 -0.017160 0.000000
0.000000 0.000000 0.000000
-0.032877 0.039680 0.000000
0.039680 0.008954 0.000000
0.000000 0.000000 0.000000
-0.001579 0.001511 0.000000
0.001511 0.001038 0.000000
0.000000 0.000000 0.000000
-0.002782 -0.002412 0.000000
-0.002412 0.006214 0.000000
0.000000 0.000000 0.000000
-0.006049 -0.004255 0.000000
-0.004255 0.003209 0.000000
0.000000 0.000000 0.000000
0.009168 0.011046 0.000000
0.011046 0.018704 0.000000
0.000000 0.000000 0.000000
0.000262 -0.001637 0.000000
-0.001637 -0.011773 0.000000
0.000000 0.000000 0.000000
-0.003167 -0.003028 0.000000
-0.003028 0.003186 0.000000
0.000000 0.000000 0.000000
-0.001404 -0.001145 0.000000
-0.001145 0.010384 0.000000
0.000000 0.000000 0.000000
-0.008798 0.003285 0.000000
0.003285 0.001570 0.000000
0.000000 0.000000 0.000000
-0.007315 -0.003115 0.000000
-0.003115 0.002745 0.000000
0.000000 0.000000 0.000000
-0.006102 -0.002311 0.000000
-0.002311 -0.009973 0.000000
0.000000 0.000000 0.000000
0.003102 0.002359 0.000000
0.002359 -0.002010 0.000000
0.000000 0.000000 0.000000
0.014651 0.011763 0.000000
0.011763 -0.008140 0.000000
0.000000 0.000000 0.000000
0.022306 0.000214 0.000000
0.000214 0.001207 0.000000
0.000000 0.000000 0.000000
0.005443 0.001293 0.000000
0.001293 0.001309 0.000000
0.000000 0.000000 0.000000
-0.002054 0.002049 0.000000
0.002049 -0.025075 0.000000
0.000000 0.000000 0.000000
-0.013477 -0.002905 0.000000
-0.002905 -0.029904 0.000000
0.000000 0.000000 0.000000
0.010866 0.001882 0.000000
0.001882 0.018780 0.000000
0.000000 0.000000 0.000000
0.004959 -0.001454 0.000000
-0.001454 0.012252 0.000000
0.000000 0.000000 0.000000
-0.034410 0.038930 0.000000
0.038930 -0.000130 0.000000
0.000000 0.000000 0.000000
-0.003598 -0.007179 0.000000
-0.007179 -0.004887 0.000000
0.000000 0.000000 0.000000
-0.004738 -0.000388 0.000000
-0.000388 0.003764 0.000000
0.000000 0.000000 0.000000
0.005980 0.007471 0.000000
0.007471 0.007500 0.000000
0.000000 0.000000 0.000000
-0.006556 -0.002314 0.000000
-0.002314 0.014566 0.000000
0.000000 0.000000 0.000000
0.018103 0.003346 0.000000
0.003346 -0.004058 0.000000
0.000000 0.000000 0.000000
-0.004659 0.003137 0.000000
0.003137 0.001272 0.000000
0.000000 0.000000 0.000000
-0.002398 -0.000466 0.000000
-0.000466 0.013189 0.000000
0.000000 0.000000 0.000000
0.003507 -0.001155 0.000000
-0.001155 0.003999 0.000000
0.000000 0.000000 0.000000
-0.004012 0.004088 0.000000
0.004088 -0.007567 0.000000
0.000000 0.000000 0.000000
-0.005619 0.001893 0.000000
0.001893 0.004124 0.000000
0.000000 0.000000 0.000000
-0.012298 0.000087 0.000000
0.000087 -0.005436 0.000000
0.000000 0.000000 0.000000
-0.002076 -0.005970 0.000000
-0.005970 0.001916 0.000000
0.000000 0.000000 0.000000
0.025200 0.008598 0.000000
0.008598 0.000983 0.000000
0.000000 0.000000 0.000000
0.029563 0.015913 0.000000
0.015913 0.007265 0.000000
0.000000 0.000000 0.000000
-0.000496 0.002036 0.000000
0.002036 0.006618 0.000000
0.000000 0.000000 0.000000
-0.003248 0.001130 0.000000
0.001130 -0.002130 0.000000
0.000000 0.000000 0.000000
-0.002015 0.000414 0.000000
0.000414 0.000560 0.000000
0.000000 0.000000 0.000000
-0.006208 -0.000685 0.000000
-0.000685 -0.014308 0.000000
0.000000 0.000000 0.000000
0.001920 -0.000780 0.000000
-0.000780 0.005168 0.000000
0.000000 0.000000 0.000000
-0.003395 0.003101 0.000000
0.003101 0.005916 0.000000
0.000000 0.000000 0.000000
-0.008825 0.000687 0.000000
0.000687 -0.012448 0.000000
0.000000 0.000000 0.000000
-0.001666 0.001475 0.000000
0.001475 -0.017294 0.000000
0.000000 0.000000 0.000000
0.008606 0.000015 0.000000
0.000015 0.019973 0.000000
0.000000 0.000000 0.000000
0.010324 0.001372 0.000000
0.001372 0.023267 0.000000
0.000000 0.000000 0.000000
-0.010085 0.009045 0.000000
0.009045 -0.021632 0.000000
0.000000 0.000000 0.000000
-0.011285 0.002687 0.000000
0.002687 -0.006523 0.000000
0.000000 0.000000 0.000000
-0.003374 0.008461 0.000000
0.008461 0.005870 0.000000
0.000000 0.000000 0.000000
-0.011465 -0.002897 0.000000
-0.002897 -0.012261 0.000000
0.000000 0.000000 0.000000
-0.005233 -0.000299 0.000000
-0.000299 -0.003070 0.000000
0.000000 0.000000 0.000000
0.000753 -0.006213 0.000000
-0.006213 -0.003542 0.000000
0.000000 0.000000 0.000000
0.011673 0.001690 0.000000
0.001690 0.019722 0.000000
0.000000 0.000000 0.000000
-0.016617 -0.006925 0.000000
-0.006925 -0.029606 0.000000
0.000000 0.000000 0.000000
-0.002894 0.005866 0.000000
0.005866 -0.013470 0.000000
0.000000 0.000000 0.000000
-0.002950 0.001241 0.000000
0.001241 -0.018526 0.000000
0.000000 0.000000 0.000000
-0.007690 0.002654 0.000000
0.002654 -0.005299 0.000000
0.000000 0.000000 0.000000
0.001899 0.015852 0.000000
0.015852 0.006140 0.000000
0.000000 0.000000 0.000000
0.015596 0.000629 0.000000
0.000629 0.008839 0.000000
0.000000 0.000000 0.000000
-0.000525 -0.001224 0.000000
-0.001224 0.005291 0.000000
0.000000 0.000000 0.000000
0.002674 0.003395 0.000000
0.003395 -0.002325 0.000000
0.000000 0.000000 0.000000
0.007262 0.000463 0.000000
0.000463 -0.009079 0.000000
0.000000 0.000000 0.000000
-0.007702 0.017152 0.000000
0.017152 -0.010445 0.000000
0.000000 0.000000 0.000000
-0.004434 -0.007357 0.000000
-0.007357 0.009017 0.000000
0.000000 0.000000 0.000000
0.005514 0.010037 0.000000
0.010037 -0.000030 0.000000
0.000000 0.000000 0.000000
-0.002830 0.008921 0.000000
0.008921 0.001407 0.000000
0.000000 0.000000 0.000000
-0.007159 0.000385 0.000000
0.000385 -0.002606 0.000000
0.000000 0.000000 0.000000
0.008200 -0.005248 0.000000
-0.005248 -0.000176 0.000000
0.000000 0.000000 0.000000
0.010387 -0.003827 0.000000
-0.003827 0.001188 0.000000
0.000000 0.000000 0.000000
0.005676 0.001689 0.000000
0.001689 0.042077 0.000000
0.000000 0.000000 0.000000
-0.002386 -0.002813 0.000000
-0.002813 0.009787 0.000000
0.000000 0.000000 0.000000
0.019208 -0.012561 0.000000
-0.012561 -0.001009 0.000000
0.000000 0.000000 0.000000
0.016678 -0.011538 0.000000
-0.011538 -0.019791 0.000000
0.000000 0.000000 0.000000
0.026213 -0.011157 0.000000
-0.011157 0.002557 0.000000
0.000000 0.000000 0.000000
-0.001567 0.020927 0.000000
0.020927 -0.008787 0.000000
0.000000 0.000000 0.000000
-0.002878 -0.002575 0.000000
-0.002575 -0.009689 0.000000
0.000000 0.000000 0.000000
0.016964 -0.016001 0.000000
-0.016001 -0.004487 0.000000
0.000000 0.000000 0.000000
0.009678 -0.010362 0.000000
-0.010362 -0.009332 0.000000
0.000000 0.000000 0.000000
0.013744 -0.007626 0.000000
-0.007626 0.000898 0.000000
0.000000 0.000000 0.000000
-0.000996 0.001140 0.000000
0.001140 -0.015591 0.000000
0.000000 0.000000 0.000000
0.008675 -0.002775 0.000000
-0.002775 0.021983 0.000000
0.000000 0.000000 0.000000
-0.004322 0.003423 0.000000
0.003423 0.011813 0.000000
0.000000 0.000000 0.000000
0.020742 -0.002560 0.000000
-0.002560 0.013830 0.000000
0.000000 0.000000 0.000000
0.017519 0.004325 0.000000
0.004325 0.041582 0.000000
0.000000 0.000000 0.000000
0.001485 0.001951 0.000000
0.001951 -0.006864 0.000000
0.000000 0.000000 0.000000
0.005000 0.004774 0.000000
0.004774 0.040521 0.000000
0.000000 0.000000 0.000000
-0.005435 0.011591 0.000000
0.011591 0.019172 0.000000
0.000000 0.000000 0.000000
0.024031 0.006119 0.000000
0.006119 0.002198 0.000000
0.000000 0.000000 0.000000
0.012578 0.021073 0.000000
0.021073 0.005844 0.000000
0.000000 0.000000 0.000000
-0.009983 0.007422 0.000000
0.007422 0.016795 0.000000
0.000000 0.000000 0.000000
-0.009478 -0.012356 0.000000
-0.012356 -0.007758 0.000000
0.000000 0.000000 0.000000
-0.011638 -0.009735 0.000000
-0.009735 -0.010922 0.000000
0.000000 0.000000 0.000000
-0.006219 0.003416 0.000000
0.003416 0.005258 0.000000
0.000000 0.000000 0.000000
-0.005528 -0.004825 0.000000
-0.004825 0.008272 0.000000
0.000000 0.000000 0.000000
-0.017712 0.040197 0.000000
0.040197 0.043547 0.000000
0.000000 0.000000 0.000000
-0.000539 0.042848 0.000000
0.042848 -0.000800 0.000000
0.000000 0.000000 0.000000
-0.004609 -0.000720 0.000000
-0.000720 -0.006101 0.000000
0.000000 0.000000 0.000000
-0.005203 0.004268 0.000000
0.004268 0.001020 0.000000
0.000000 0.000000 0.000000
-0.010015 0.001374 0.000000
0.001374 -0.005250 0.000000
0.000000 0.000000 0.000000
-0.000653 -0.004628 0.000000
-0.004628 0.003267 0.000000
0.000000 0.000000 0.000000
-0.002757 -0.003493 0.000000
-0.003493 0.008439 0.000000
0.000000 0.000000 0.000000
-0.001990 -0.005725 0.000000
-0.005725 0.005951 0.000000
0.000000 0.000000 0.000000
-0.007252 0.004752 0.000000
0.004752 -0.000730 0.000000
0.000000 0.000000 0.000000
-0.006798 -0.000926 0.000000
-0.000926 -0.001943 0.000000
0.000000 0.000000 0.000000
0.001200 -0.011534 0.000000
-0.011534 0.011204 0.000000
0.000000 0.000000 0.000000
-0.003700 0.001058 0.000000
0.001058 0.001527 0.000000
0.000000 0.000000 0.000000
-0.006247 -0.001723 0.000000
-0.001723 0.004910 0.000000
0.000000 0.000000 0.000000
0.000443 0.002133 0.000000
0.002133 0.005135 0.000000
0.000000 0.000000 0.000000
0.006123 -0.003131 0.000000
-0.003131 0.035804 0.000000
0.000000 0.000000 0.000000
0.013788 -0.003904 0.000000
-0.003904 -0.002081 0.000000
0.000000 0.000000 0.000000
0.010111 -0.006668 0.000000
-0.006668 -0.010434 0.000000
0.000000 0.000000 0.000000
0.006661 -0.008794 0.000000
-0.008794 -0.014906 0.000000
0.000000 0.000000 0.000000
0.020280 0.004940 0.000000
0.004940 0.003647 0.000000
0.000000 0.000000 0.000000
0.023419 0.019878 0.000000
0.019878 0.003709 0.000000
0.000000 0.000000 0.000000
0.008204 0.004221 0.000000
0.004221 0.014229 0.000000
0.000000 0.000000 0.000000
0.016093 0.003798 0.000000
0.003798 0.008247 0.000000
0.000000 0.000000 0.000000
0.000519 0.001391 0.000000
0.001391 -0.002577 0.000000
0.000000 0.000000 0.000000
-0.009042 -0.010445 0.000000
-0.010445 0.019068 0.000000
0.000000 0.000000 0.000000
0.012641 -0.003698 0.000000
-0.003698 0.038566 0.000000
0.000000 0.000000 0.000000
0.005095 -0.002929 0.000000
-0.002929 0.012335 0.000000
0.000000 0.000000 0.000000
-0.011260 -0.009125 0.000000
-0.009125 0.013303 0.000000
0.000000 0.000000 0.000000
-0.003217 -0.000957 0.000000
-0.000957 -0.025934 0.000000
0.000000 0.000000 0.000000
0.004471 0.015487 0.000000
0.015487 -0.005704 0.000000
0.000000 0.000000 0.000000
-0.017630 -0.010029 0.000000
-0.010029 -0.023903 0.000000
0.000000 0.000000 0.000000
0.001672 -0.006760 0.000000
-0.006760 0.005206 0.000000
0.000000 0.000000 0.000000
0.006926 -0.009775 0.000000
-0.009775 0.000913 0.000000
0.000000 0.000000 0.000000
0.011438 -0.006987 0.000000
-0.006987 0.021108 0.000000
0.000000 0.000000 0.000000
-0.010100 -0.010619 0.000000
-0.010619 -0.004061 0.000000
0.000000 0.000000 0.000000
-0.003754 -0.003359 0.000000
-0.003359 0.011165 0.000000
0.000000 0.000000 0.000000
-0.000390 -0.004727 0.000000
-0.004727 0.004918 0.000000
0.000000 0.000000 0.000000
0.012873 0.004406 0.000000
0.004406 0.005741 0.000000
0.000000 0.000000 0.000000
0.000672 -0.027381 0.000000
-0.027381 0.030499 0.000000
0.000000 0.000000 0.000000
0.009967 0.002427 0.000000
0.002427 -0.001114 0.000000
0.000000 0.000000 0.000000
0.000116 0.000021 0.000000
0.000021 -0.009319 0.000000
0.000000 0.000000 0.000000
-0.011071 0.011849 0.000000
0.011849 -0.013161 0.000000
0.000000 0.000000 0.000000
0.002240 0.000778 0.000000
0.000778 -0.002401 0.000000
0.000000 0.000000 0.000000
-0.009313 0.001132 0.000000
0.001132 -0.002508 0.000000
0.000000 0.000000 0.000000
0.009234 0.007261 0.000000
0.007261 -0.007247 0.000000
0.000000 0.000000 0.000000
-0.004948 -0.001635 0.000000
-0.001635 -0.010132 0.000000
0.000000 0.000000 0.000000
-0.007356 0.002630 0.000000
0.002630 -0.006221 0.000000
0.000000 0.000000 0.000000
-0.010732 0.000587 0.000000
0.000587 -0.002709 0.000000
0.000000 0.000000 0.000000
0.005239 0.010318 0.000000
0.010318 -0.005280 0.000000
0.000000 0.000000 0.000000
0.004908 -0.006912 0.000000
-0.006912 0.003999 0.000000
0.000000 0.000000 0.000000
-0.017401 -0.008079 0.000000
-0.008079 0.033998 0.000000
0.000000 0.000000 0.000000
-0.003275 -0.016253 0.000000
-0.016253 0.017470 0.000000
0.000000 0.000000 0.000000
0.002823 0.009085 0.000000
0.009085 -0.003651 0.000000
0.000000 0.000000 0.000000
-0.015484 -0.002791 0.000000
-0.002791 -0.006560 0.000000
0.000000 0.000000 0.000000
-0.008330 0.001461 0.000000
0.001461 -0.014183 0.000000
0.000000 0.000000 0.000000
0.007240 0.011774 0.000000
0.011774 -0.009932 0.000000
0.000000 0.000000 0.000000
-0.015768 0.000624 0.000000
0.000624 0.014961 0.000000
0.000000 0.000000 0.000000
-0.006242 -0.001772 0.000000
-0.001772 0.007944 0.000000
0.000000 0.000000 0.000000
-0.001282 -0.002577 0.000000
-0.002577 0.002056 0.000000
0.000000 0.000000 0.000000
-0.010472 -0.003722 0.000000
-0.003722 -0.006033 0.000000
0.000000 0.000000 0.000000
0.002114 0.007635 0.000000
0.007635 -0.000032 0.000000
0.000000 0.000000 0.000000
0.006878 -0.005445 0.000000
-0.005445 0.001809 0.000000
0.000000 0.000000 0.000000
-0.002568 -0.002965 0.000000
-0.002965 0.001891 0.000000
0.000000 0.000000 0.000000
-0.001434 0.001467 0.000000
0.001467 -0.000903 0.000000
0.000000 0.000000 0.000000
-0.024889 -0.009391 0.000000
-0.009391 0.019129 0.000000
0.000000 0.000000 0.000000
-0.015366 -0.009923 0.000000
-0.009923 -0.004593 0.000000
0.000000 0.000000 0.000000
-0.025013 -0.013367 0.000000
-0.013367 -0.001739 0.000000
0.000000 0.000000 0.000000
0.001461 -0.008141 0.000000
-0.008141 -0.020257 0.000000
0.000000 0.000000 0.000000
-0.012649 0.011290 0.000000
0.011290 -0.036157 0.000000
0.000000 0.000000 0.000000
-0.007297 -0.018817 0.000000
-0.018817 -0.032458 0.000000
0.000000 0.000000 0.000000
0.004722 -0.027331 0.000000
-0.027331 -0.018930 0.000000
0.000000 0.000000 0.000000
-0.007977 -0.011828 0.000000
-0.011828 0.003531 0.000000
0.000000 0.000000 0.000000
-0.013445 0.021138 0.000000
0.021138 -0.012238 0.000000
0.000000 0.000000 0.000000
-0.004762 -0.006693 0.000000
-0.006693 0.002250 0.000000
0.000000 0.000000 0.000000
0.005538 -0.006299 0.000000
-0.006299 0.001827 0.000000
0.000000 0.000000 0.000000
-0.002170 0.000495 0.000000
0.000495 -0.007788 0.000000
0.000000 0.000000 0.000000
0.005053 0.004493 0.000000
0.004493 -0.000169 0.000000
0.000000 0.000000 0.000000
-0.003269 -0.008825 0.000000
-0.008825 0.005118 0.000000
0.000000 0.000000 0.000000
-0.019317 0.001362 0.000000
0.001362 -0.021229 0.000000
0.000000 0.000000 0.000000
0.012948 -0.005615 0.000000
-0.005615 0.013691 0.000000
0.000000 0.000000 0.000000
0.000712 -0.016162 0.000000
-0.016162 -0.022136 0.000000
0.000000 0.000000 0.000000
0.017666 -0.004818 0.000000
-0.004818 0.016812 0.000000
0.000000 0.000000 0.000000
0.000934 -0.001889 0.000000
-0.001889 -0.006034 0.000000
0.000000 0.000000 0.000000
-0.000198 0.002906 0.000000
0.002906 0.014615 0.000000
0.000000 0.000000 0.000000
0.004011 0.012296 0.000000
0.012296 0.006312 0.000000
0.000000 0.000000 0.000000
-0.015104 -0.006149 0.000000
-0.006149 0.007688 0.000000
0.000000 0.000000 0.000000
0.018680 -0.008923 0.000000
-0.008923 -0.007286 0.000000
0.000000 0.000000 0.000000
0.023547 -0.005816 0.000000
-0.005816 0.007162 0.000000
0.000000 0.000000 0.000000
0.005393 -0.003989 0.000000
-0.003989 -0.002820 0.000000
0.000000 0.000000 0.000000
-0.004569 -0.005222 0.000000
-0.005222 -0.000626 0.000000
0.000000 0.000000 0.000000
0.000801 -0.001797 0.000000
-0.001797 -0.005398 0.000000
0.000000 0.000000 0.000000
0.012393 -0.007128 0.000000
-0.007128 0.044197 0.000000
0.000000 0.000000 0.000000
-0.002179 0.001985 0.000000
0.001985 0.037370 0.000000
0.000000 0.000000 0.000000
0.020577 0.002152 0.000000
0.002152 0.003661 0.000000
0.000000 0.000000 0.000000
-0.007318 0.002387 0.000000
0.002387 -0.004640 0.000000
0.000000 0.000000 0.000000
0.009820 -0.003032 0.000000
-0.003032 0.000343 0.000000
0.000000 0.000000 0.000000
0.010085 -0.002404 0.000000
-0.002404 -0.014721 0.000000
0.000000 0.000000 0.000000
0.032440 0.035861 0.000000
0.035861 -0.001189 0.000000
0.000000 0.000000 0.000000
0.022636 0.012198 0.000000
0.012198 0.019936 0.000000
0.000000 0.000000 0.000000
-0.003205 0.005921 0.000000
0.005921 -0.078159 0.000000
0.000000 0.000000 0.000000
-0.002700 -0.000962 0.000000
-0.000962 0.015331 0.000000
0.000000 0.000000 0.000000
0.019108 -0.003014 0.000000
-0.003014 0.016570 0.000000
0.000000 0.000000 0.000000
0.001975 -0.006824 0.000000
-0.006824 -0.003679 0.000000
0.000000 0.000000 0.000000
-0.011900 0.004497 0.000000
0.004497 -0.005713 0.000000
0.000000 0.000000 0.000000
0.020822 0.006939 0.000000
0.006939 0.006933 0.000000
0.000000 0.000000 0.000000
0.007053 0.002107 0.000000
0.002107 0.009397 0.000000
0.000000 0.000000 0.000000
0.025329 0.002918 0.000000
0.002918 -0.021832 0.000000
0.000000 0.000000 0.000000
0.008233 0.003837 0.000000
0.003837 0.001097 0.000000
0.000000 0.000000 0.000000
-0.003684 0.002364 0.000000
0.002364 -0.015050 0.000000
0.000000 0.000000 0.000000
-0.003870 0.002521 0.000000
0.002521 -0.015588 0.000000
0.000000 0.000000 0.000000
-0.018405 0.002104 0.000000
0.002104 -0.004269 0.000000
0.000000 0.000000 0.000000
-0.016441 0.005082 0.000000
0.005082 -0.004087 0.000000
0.000000 0.000000 0.000000
-0.002985 -0.000235 0.000000
-0.000235 0.008460 0.000000
0.000000 0.000000 0.000000
0.000394 -0.005791 0.000000
-0.005791 -0.001857 0.000000
0.000000 0.000000 0.000000
-0.010542 0.003549 0.000000
0.003549 -0.008199 0.000000
0.000000 0.000000 0.000000
0.002498 -0.001158 0.000000
-0.001158 0.005112 0.000000
0.000000 0.000000 0.000000
-0.001455 0.006580 0.000000
0.006580 0.005147 0.000000
0.000000 0.000000 0.000000
0.004528 0.004901 0.000000
0.004901 0.001054 0.000000
0.000000 0.000000 0.000000
-0.009455 -0.011999 0.000000
-0.011999 0.003325 0.000000
0.000000 0.000000 0.000000
-0.000815 0.000911 0.000000
0.000911 -0.001149 0.000000
0.000000 0.000000 0.000000
-0.002198 -0.004901 0.000000
-0.004901 0.006090 0.000000
0.000000 0.000000 0.000000
0.003229 0.001288 0.000000
0.001288 -0.000342 0.000000
0.000000 0.000000 0.000000
0.010312 -0.013924 0.000000
-0.013924 -0.006019 0.000000
0.000000 0.000000 0.000000
-0.009820 -0.001384 0.000000
-0.001384 0.005074 0.000000
0.000000 0.000000 0.000000
-0.005257 0.001183 0.000000
0.001183 -0.000123 0.000000
0.000000 0.000000 0.000000
-0.008474 -0.013136 0.000000
-0.013136 -0.006772 0.000000
0.000000 0.000000 0.000000
0.007411 0.000306 0.000000
0.000306 -0.018233 0.000000
0.000000 0.000000 0.000000
0.021220 -0.006147 0.000000
-0.006147 -0.012826 0.000000
0.000000 0.000000 0.000000
-0.010313 0.012397 0.000000
0.012397 0.005572 0.000000
0.000000 0.000000 0.000000
-0.006684 0.011830 0.000000
0.011830 -0.007122 0.000000
0.000000 0.000000 0.000000
0.010228 -0.011735 0.000000
-0.011735 0.016132 0.000000
0.000000 0.000000 0.000000
0.001714 -0.021069 0.000000
-0.021069 -0.009543 0.000000
0.000000 0.000000 0.000000
-0.000285 -0.009213 0.000000
-0.009213 0.001011 0.000000
0.000000 0.000000 0.000000
0.004073 0.014005 0.000000
0.014005 0.006083 0.000000
0.000000 0.000000 0.000000
-0.026391 0.013399 0.000000
0.013399 0.013655 0.000000
0.000000 0.000000 0.000000
-0.000393 0.000464 0.000000
0.000464 0.008426 0.000000
0.000000 0.000000 0.000000
-0.005446 0.004636 0.000000
0.004636 0.006990 0.000000
0.000000 0.000000 0.000000
-0.002852 0.002212 0.000000
0.002212 -0.005096 0.000000
0.000000 0.000000 0.000000
-0.002237 -0.001906 0.000000
-0.001906 -0.003735 0.000000
0.000000 0.000000 0.000000
-0.003358 -0.003034 0.000000
-0.003034 -0.003971 0.000000
0.000000 0.000000 0.000000
0.016468 0.005126 0.000000
0.005126 0.011998 0.000000
0.000000 0.000000 0.000000
-0.008199 -0.004205 0.000000
-0.004205 -0.001800 0.000000
0.000000 0.000000 0.000000
0.003728 0.002071 0.000000
0.002071 -0.000570 0.000000
0.000000 0.000000 0.000000
-0.007391 0.001300 0.000000
0.001300 -0.003997 0.000000
0.000000 0.000000 0.000000
0.001371 0.000584 0.000000
0.000584 0.012800 0.000000
0.000000 0.000000 0.000000
0.035709 0.006375 0.000000
0.006375 -0.000842 0.000000
0.000000 0.000000 0.000000
0.023208 -0.005447 0.000000
-0.005447 -0.006264 0.000000
0.000000 0.000000 0.000000
-0.019875 -0.003570 0.000000
-0.003570 0.011480 0.000000
0.000000 0.000000 0.000000
-0.015326 -0.012482 0.000000
-0.012482 0.010594 0.000000
0.000000 0.000000 0.000000
0.000591 -0.002058 0.000000
-0.002058 0.003081 0.000000
0.000000 0.000000 0.000000
-0.006609 0.006666 0.000000
0.006666 0.003937 0.000000
0.000000 0.000000 0.000000
0.010046 0.000593 0.000000
0.000593 0.014461 0.000000
0.000000 0.000000 0.000000
-0.011346 0.000817 0.000000
0.000817 0.001848 0.000000
0.000000 0.000000 0.000000
-0.007129 -0.021987 0.000000
-0.021987 0.010443 0.000000
0.000000 0.000000 0.000000
-0.004540 0.000871 0.000000
0.000871 0.028192 0.000000
0.000000 0.000000 0.000000
0.004916 0.006308 0.000000
0.006308 0.000963 0.000000
0.000000 0.000000 0.000000
0.000603 0.001324 0.000000
0.001324 -0.000058 0.000000
0.000000 0.000000 0.000000
-0.018070 -0.015924 0.000000
-0.015924 0.006639 0.000000
0.000000 0.000000 0.000000
-0.005441 0.001895 0.000000
0.001895 -0.018925 0.000000
0.000000 0.000000 0.000000
-0.000042 0.000185 0.000000
0.000185 -0.000406 0.000000
0.000000 0.000000 0.000000
-0.002014 0.002679 0.000000
0.002679 -0.018839 0.000000
0.000000 0.000000 0.000000
-0.007268 -0.000104 0.000000
-0.000104 -0.016601 0.000000
0.000000 0.000000 0.000000
0.012541 -0.000650 0.000000
-0.000650 0.004485 0.000000
0.000000 0.000000 0.000000
0.004764 -0.007397 0.000000
-0.007397 0.009481 0.000000
0.000000 0.000000 0.000000
0.008737 -0.004662 0.000000
-0.004662 0.029904 0.000000
0.000000 0.000000 0.000000
-0.011627 0.000825 0.000000
0.000825 -0.020798 0.000000
0.000000 0.000000 0.000000
-0.006195 0.002112 0.000000
0.002112 -0.021700 0.000000
0.000000 0.000000 0.000000
0.006669 0.001045 0.000000
0.001045 0.013214 0.000000
0.000000 0.000000 0.000000
0.014716 -0.006504 0.000000
-0.006504 0.023545 0.000000
0.000000 0.000000 0.000000
-0.003183 0.002679 0.000000
0.002679 0.007611 0.000000
0.000000 0.000000 0.000000
0.006946 -0.001129 0.000000
-0.001129 0.025843 0.000000
0.000000 0.000000 0.000000
0.008610 0.000003 0.000000
0.000003 0.028141 0.000000
0.000000 0.000000 0.000000
0.010064 -0.005371 0.000000
-0.005371 -0.011416 0.000000
0.000000 0.000000 0.000000
0.012968 -0.013894 0.000000
-0.013894 0.001289 0.000000
0.000000 0.000000 0.000000
-0.000091 -0.011176 0.000000
-0.011176 -0.006912 0.000000
0.000000 0.000000 0.000000
-0.002829 -0.005130 0.000000
-0.005130 -0.004548 0.000000
0.000000 0.000000 0.000000
0.004430 0.025514 0.000000
0.025514 -0.009440 0.000000
0.000000 0.000000 0.000000
-0.008229 0.039131 0.000000
0.039131 0.022924 0.000000
0.000000 0.000000 0.000000
-0.002902 -0.021415 0.000000
-0.021415 -0.041978 0.000000
0.000000 0.000000 0.000000
-0.000727 -0.016411 0.000000
-0.016411 -0.001452 0.000000
0.000000 0.000000 0.000000
0.006889 -0.003870 0.000000
-0.003870 -0.013191 0.000000
0.000000 0.000000 0.000000
0.002330 -0.006282 0.000000
-0.006282 -0.007950 0.000000
0.000000 0.000000 0.000000
0.016518 0.000644 0.000000
0.000644 -0.013693 0.000000
0.000000 0.000000 0.000000
0.001369 -0.008338 0.000000
-0.008338 0.014950 0.000000
0.000000 0.000000 0.000000
0.009913 -0.002607 0.000000
-0.002607 -0.010858 0.000000
0.000000 0.000000 0.000000
0.000860 -0.006715 0.000000
-0.006715 -0.007439 0.000000
0.000000 0.000000 0.000000
0.002870 0.003995 0.000000
0.003995 0.005590 0.000000
0.000000 0.000000 0.000000
-0.007137 0.000130 0.000000
0.000130 0.000517 0.000000
0.000000 0.000000 0.000000
-0.002557 0.008045 0.000000
0.008045 0.010168 0.000000
0.000000 0.000000 0.000000
0.006014 -0.006896 0.000000
-0.006896 -0.014966 0.000000
0.000000 0.000000 0.000000
0.008846 0.008777 0.000000
0.008777 -0.008249 0.000000
0.000000 0.000000 0.000000
0.009393 -0.004827 0.000000
-0.004827 0.004061 0.000000
0.000000 0.000000 0.000000
0.005498 -0.004271 0.000000
-0.004271 -0.014033 0.000000
0.000000 0.000000 0.000000
-0.005031 -0.004277 0.000000
-0.004277 0.004464 0.000000
0.000000 0.000000 0.000000
0.000937 -0.001346 0.000000
-0.001346 -0.008650 0.000000
0.000000 0.000000 0.000000
0.006458 -0.004961 0.000000
-0.004961 0.002631 0.000000
0.000000 0.000000 0.000000
0.006634 0.005132 0.000000
0.005132 -0.007140 0.000000
0.000000 0.000000 0.000000
0.009500 0.002772 0.000000
0.002772 -0.000278 0.000000
0.000000 0.000000 0.000000
-0.009652 0.005716 0.000000
0.005716 -0.001000 0.000000
0.000000 0.000000 0.000000
0.003683 -0.001229 0.000000
-0.001229 -0.008555 0.000000
0.000000 0.000000 0.000000
-0.006247 0.002584 0.000000
0.002584 -0.002721 0.000000
0.000000 0.000000 0.000000
-0.003307 -0.003685 0.000000
-0.003685 -0.011305 0.000000
0.000000 0.000000 0.000000
0.006130 0.004296 0.000000
0.004296 0.004067 0.000000
0.000000 0.000000 0.000000
0.002280 0.003868 0.000000
0.003868 0.001294 0.000000
0.000000 0.000000 0.000000
-0.024472 0.006986 0.000000
0.006986 0.000212 0.000000
0.000000 0.000000 0.000000
-0.007522 -0.000060 0.000000
-0.000060 -0.011377 0.000000
0.000000 0.000000 0.000000
-0.001488 -0.005214 0.000000
-0.005214 -0.001300 0.000000
0.000000 0.000000 0.000000
-0.011201 -0.005308 0.000000
-0.005308 0.003833 0.000000
0.000000 0.000000 0.000000
-0.029078 -0.014585 0.000000
-0.014585 -0.005052 0.000000
0.000000 0.000000 0.000000
0.005243 0.004294 0.000000
0.004294 -0.010728 0.000000
0.000000 0.000000 0.000000
0.011545 0.005377 0.000000
0.005377 -0.012891 0.000000
0.000000 0.000000 0.000000
-0.016056 0.002428 0.000000
0.002428 0.003875 0.000000
0.000000 0.000000 0.000000
-0.012030 0.029189 0.000000
0.029189 -0.000098 0.000000
0.000000 0.000000 0.000000
-0.018416 0.015605 0.000000
0.015605 -0.013331 0.000000
0.000000 0.000000 0.000000
0.002398 0.000762 0.000000
0.000762 0.000947 0.000000
0.000000 0.000000 0.000000
-0.010070 -0.005678 0.000000
-0.005678 0.010871 0.000000
0.000000 0.000000 0.000000
0.000505 -0.003478 0.000000
-0.003478 -0.004887 0.000000
0.000000 0.000000 0.000000
0.008559 -0.008897 0.000000
-0.008897 0.009094 0.000000
0.000000 0.000000 0.000000
0.010228 0.002400 0.000000
0.002400 0.005984 0.000000
0.000000 0.000000 0.000000
-0.002622 -0.002616 0.000000
-0.002616 -0.003008 0.000000
0.000000 0.000000 0.000000
0.006679 -0.006243 0.000000
-0.006243 -0.002342 0.000000
0.000000 0.000000 0.000000
0.003047 -0.009394 0.000000
-0.009394 -0.008239 0.000000
0.000000 0.000000 0.000000
-0.006878 -0.007124 0.000000
-0.007124 -0.000498 0.000000
0.000000 0.000000 0.000000
-0.002231 0.000183 0.000000
0.000183 -0.004807 0.000000
0.000000 0.000000 0.000000
0.003279 -0.002409 0.000000
-0.002409 -0.000208 0.000000
0.000000 0.000000 0.000000
-0.000877 -0.001320 0.000000
-0.001320 0.000551 0.000000
0.000000 0.000000 0.000000
-0.001988 0.001460 0.000000
0.001460 -0.006212 0.000000
0.000000 0.000000 0.000000
-0.005635 -0.006357 0.000000
-0.006357 -0.001641 0.000000
0.000000 0.000000 0.000000
0.002820 0.001322 0.000000
0.001322 -0.001610 0.000000
0.000000 0.000000 0.000000
-0.001051 0.000498 0.000000
0.000498 -0.001839 0.000000
0.000000 0.000000 0.000000
0.004405 -0.007127 0.000000
-0.007127 0.019904 0.000000
0.000000 0.000000 0.000000
-0.000523 -0.003662 0.000000
-0.003662 -0.006587 0.000000
0.000000 0.000000 0.000000
0.006383 0.000743 0.000000
0.000743 0.001890 0.000000
0.000000 0.000000 0.000000
0.002474 0.003725 0.000000
0.003725 -0.003676 0.000000
0.000000 0.000000 0.000000
0.015750 0.004129 0.000000
0.004129 0.011124 0.000000
0.000000 0.000000 0.000000
-0.006288 0.005537 0.000000
0.005537 0.018596 0.000000
0.000000 0.000000 0.000000
0.013947 0.009249 0.000000
0.009249 0.008952 0.000000
0.000000 0.000000 0.000000
-0.009470 0.007612 0.000000
0.007612 -0.015866 0.000000
0.000000 0.000000 0.000000
-0.008789 0.010102 0.000000
0.010102 0.018846 0.000000
0.000000 0.000000 0.000000
0.001135 -0.008078 0.000000
-0.008078 0.004933 0.000000
0.000000 0.000000 0.000000
-0.023432 -0.000672 0.000000
-0.000672 0.007234 0.000000
0.000000 0.000000 0.000000
0.002238 0.006003 0.000000
0.006003 0.018161 0.000000
0.000000 0.000000 0.000000
0.005251 0.007114 0.000000
0.007114 0.017420 0.000000
0.000000 0.000000 0.000000
-0.011031 0.001475 0.000000
0.001475 -0.007793 0.000000
0.000000 0.000000 0.000000
0.012340 0.007943 0.000000
0.007943 -0.010845 0.000000
0.000000 0.000000 0.000000
0.010535 0.007009 0.000000
0.007009 -0.016557 0.000000
0.000000 0.000000 0.000000
-0.003236 -0.001171 0.000000
-0.001171 -0.009730 0.000000
0.000000 0.000000 0.000000
0.000302 0.001150 0.000000
0.001150 -0.003042 0.000000
0.000000 0.000000 0.000000
0.006961 -0.004933 0.000000
-0.004933 0.016401 0.000000
0.000000 0.000000 0.000000
-0.009559 -0.005648 0.000000
-0.005648 0.003832 0.000000
0.000000 0.000000 0.000000
0.000554 0.008511 0.000000
0.008511 -0.010193 0.000000
0.000000 0.000000 0.000000
0.011610 -0.001994 0.000000
-0.001994 -0.009517 0.000000
0.000000 0.000000 0.000000
0.001219 0.004904 0.000000
0.004904 -0.011826 0.000000
0.000000 0.000000 0.000000
0.021843 -0.000624 0.000000
-0.000624 0.002396 0.000000
0.000000 0.000000 0.000000
0.018852 -0.000240 0.000000
-0.000240 -0.023527 0.000000
0.000000 0.000000 0.000000
0.021378 0.000075 0.000000
0.000075 -0.014550 0.000000
0.000000 0.000000 0.000000
-0.000004 -0.009093 0.000000
-0.009093 -0.009111 0.000000
0.000000 0.000000 0.000000
-0.018262 0.003134 0.000000
0.003134 0.000521 0.000000
0.000000 0.000000 0.000000
-0.015489 0.005889 0.000000
0.005889 0.002209 0.000000
0.000000 0.000000 0.000000
-0.012518 0.004035 0.000000
0.004035 -0.000590 0.000000
0.000000 0.000000 0.000000
0.003452 -0.001508 0.000000
-0.001508 0.000388 0.000000
0.000000 0.000000 0.000000
0.016370 0.003402 0.000000
0.003402 0.012888 0.000000
0.000000 0.000000 0.000000
0.006425 0.000962 0.000000
0.000962 -0.000522 0.000000
0.000000 0.000000 0.000000
0.002666 0.004445 0.000000
0.004445 0.000130 0.000000
0.000000 0.000000 0.000000
-0.009914 -0.002700 0.000000
-0.002700 -0.023974 0.000000
0.000000 0.000000 0.000000
0.000987 0.004553 0.000000
0.004553 -0.018326 0.000000
0.000000 0.000000 0.000000
-0.011310 -0.004412 0.000000
-0.004412 0.007185 0.000000
0.000000 0.000000 0.000000
-0.002095 -0.002940 0.000000
-0.002940 -0.003604 0.000000
0.000000 0.000000 0.000000
-0.014591 -0.008774 0.000000
-0.008774 0.007729 0.000000
0.000000 0.000000 0.000000
0.009007 0.001060 0.000000
0.001060 0.008546 0.000000
0.000000 0.000000 0.000000
0.010154 0.000137 0.000000
0.000137 -0.004993 0.000000
0.000000 0.000000 0.000000
0.006290 0.008122 0.000000
0.008122 0.004651 0.000000
0.000000 0.000000 0.000000
-0.013182 0.004038 0.000000
0.004038 -0.022293 0.000000
0.000000 0.000000 0.000000
0.003755 -0.000540 0.000000
-0.000540 -0.002348 0.000000
0.000000 0.000000 0.000000
0.020671 -0.001577 0.000000
-0.001577 0.009184 0.000000
0.000000 0.000000 0.000000
-0.003192 -0.003701 0.000000
-0.003701 0.014013 0.000000
0.000000 0.000000 0.000000
-0.010136 -0.000120 0.000000
-0.000120 -0.001857 0.000000
0.000000 0.000000 0.000000
0.010845 -0.010579 0.000000
-0.010579 0.013448 0.000000
0.000000 0.000000 0.000000
0.011686 -0.010253 0.000000
-0.010253 0.009608 0.000000
0.000000 0.000000 0.000000
0.004702 0.000636 0.000000
0.000636 -0.003603 0.000000
0.000000 0.000000 0.000000
0.001145 0.001439 0.000000
0.001439 -0.005014 0.000000
0.000000 0.000000 0.000000
0.000961 0.005595 0.000000
0.005595 -0.003046 0.000000
0.000000 0.000000 0.000000
0.000489 -0.000002 0.000000
-0.000002 -0.011873 0.000000
0.000000 0.000000 0.000000
0.018638 0.013582 0.000000
0.013582 0.008720 0.000000
0.000000 0.000000 0.000000
-0.002903 -0.004327 0.000000
-0.004327 -0.024615 0.000000
0.000000 0.000000 0.000000
-0.007547 0.001986 0.000000
0.001986 -0.016126 0.000000
0.000000 0.000000 0.000000
0.001801 0.008034 0.000000
0.008034 0.005000 0.000000
0.000000 0.000000 0.000000
0.001574 0.003484 0.000000
0.003484 -0.004241 0.000000
0.000000 0.000000 0.000000
0.007050 0.001587 0.000000
0.001587 -0.002886 0.000000
0.000000 0.000000 0.000000
-0.005003 -0.000307 0.000000
-0.000307 -0.007124 0.000000
0.000000 0.000000 0.000000
-0.010896 -0.003275 0.000000
-0.003275 -0.023116 0.000000
0.000000 0.000000 0.000000
0.010745 -0.000272 0.000000
-0.000272 0.033892 0.000000
0.000000 0.000000 0.000000
0.007972 -0.002330 0.000000
-0.002330 0.028787 0.000000
0.000000 0.000000 0.000000
-0.003370 0.005880 0.000000
0.005880 -0.007516 0.000000
0.000000 0.000000 0.000000
-0.004699 0.004836 0.000000
0.004836 -0.005697 0.000000
0.000000 0.000000 0.000000
-0.000273 -0.004919 0.000000
-0.004919 -0.000659 0.000000
0.000000 0.000000 0.000000
-0.004136 -0.007608 0.000000
-0.007608 -0.003102 0.000000
0.000000 0.000000 0.000000
0.011102 0.010321 0.000000
0.010321 0.001629 0.000000
0.000000 0.000000 0.000000
-0.008696 0.001969 0.000000
0.001969 -0.011784 0.000000
0.000000 0.000000 0.000000
-0.010565 -0.002619 0.000000
-0.002619 -0.007819 0.000000
0.000000 0.000000 0.000000
-0.003287 -0.004369 0.000000
-0.004369 -0.010809 0.000000
0.000000 0.000000 0.000000
-0.000444 -0.000858 0.000000
-0.000858 -0.003214 0.000000
0.000000 0.000000 0.000000
-0.002353 -0.002967 0.000000
-0.002967 -0.010679 0.000000
0.000000 0.000000 0.000000
-0.018951 -0.030494 0.000000
-0.030494 0.012721 0.000000
0.000000 0.000000 0.000000
0.014448 0.026204 0.000000
0.026204 -0.000592 0.000000
0.000000 0.000000 0.000000
-0.005224 0.004086 0.000000
0.004086 -0.019609 0.000000
0.000000 0.000000 0.000000
-0.002713 -0.011264 0.000000
-0.011264 0.015678 0.000000
0.000000 0.000000 0.000000
-0.008357 0.009645 0.000000
0.009645 -0.035482 0.000000
0.000000 0.000000 0.000000
-0.003959 0.001660 0.000000
0.001660 0.002105 0.000000
0.000000 0.000000 0.000000
0.010344 0.006267 0.000000
0.006267 0.005187 0.000000
0.000000 0.000000 0.000000
0.003152 0.012514 0.000000
0.012514 -0.015837 0.000000
0.000000 0.000000 0.000000
-0.004163 0.016551 0.000000
0.016551 -0.016877 0.000000
0.000000 0.000000 0.000000
-0.007452 0.016104 0.000000
0.016104 -0.028801 0.000000
0.000000 0.000000 0.000000
0.014167 -0.018615 0.000000
-0.018615 0.000970 0.000000
0.000000 0.000000 0.000000
0.002726 0.002286 0.000000
0.002286 0.004183 0.000000
0.000000 0.000000 0.000000
-0.027378 -0.005957 0.000000
-0.005957 0.038620 0.000000
0.000000 0.000000 0.000000
0.011042 0.003728 0.000000
0.003728 -0.006317 0.000000
0.000000 0.000000 0.000000
0.014951 -0.007057 0.000000
-0.007057 0.012364 0.000000
0.000000 0.000000 0.000000
-0.011920 0.014059 0.000000
0.014059 0.035385 0.000000
0.000000 0.000000 0.000000
-0.001567 -0.000217 0.000000
-0.000217 -0.007821 0.000000
0.000000 0.000000 0.000000
-0.008224 -0.004274 0.000000
-0.004274 -0.008192 0.000000
0.000000 0.000000 0.000000
-0.009628 0.013395 0.000000
0.013395 0.011924 0.000000
0.000000 0.000000 0.000000
0.003052 0.003089 0.000000
0.003089 -0.000000 0.000000
0.000000 0.000000 0.000000
0.003067 -0.001098 0.000000
-0.001098 0.003749 0.000000
0.000000 0.000000 0.000000
-0.002189 -0.003349 0.000000
-0.003349 0.000575 0.000000
0.000000 0.000000 0.000000
0.002973 0.001988 0.000000
0.001988 0.011541 0.000000
0.000000 0.000000 0.000000
0.000613 -0.000319 0.000000
-0.000319 0.006333 0.000000
0.000000 0.000000 0.000000
0.004985 -0.000081 0.000000
-0.000081 -0.018052 0.000000
0.000000 0.000000 0.000000
-0.000721 0.003023 0.000000
0.003023 -0.021631 0.000000
0.000000 0.000000 0.000000
0.006059 -0.002393 0.000000
-0.002393 0.000170 0.000000
0.000000 0.000000 0.000000
0.015104 -0.007135 0.000000
-0.007135 0.003145 0.000000
0.000000 0.000000 0.000000
0.001485 0.002278 0.000000
0.002278 -0.009034 0.000000
0.000000 0.000000 0.000000
-0.003510 0.005338 0.000000
0.005338 -0.014146 0.000000
0.000000 0.000000 0.000000
-0.011123 -0.006366 0.000000
-0.006366 -0.036160 0.000000
0.000000 0.000000 0.000000
-0.003608 -0.006854 0.000000
-0.006854 0.020300 0.000000
0.000000 0.000000 0.000000
-0.007986 -0.005432 0.000000
-0.005432 0.022113 0.000000
0.000000 0.000000 0.000000
0.009453 -0.001170 0.000000
-0.001170 -0.017837 0.000000
0.000000 0.000000 0.000000
0.000089 -0.002394 0.000000
-0.002394 0.002495 0.000000
0.000000 0.000000 0.000000
-0.000379 0.000679 0.000000
0.000679 0.005878 0.000000
0.000000 0.000000 0.000000
0.000444 -0.002023 0.000000
-0.002023 0.003135 0.000000
0.000000 0.000000 0.000000
0.002357 -0.001730 0.000000
-0.001730 0.000182 0.000000
0.000000 0.000000 0.000000
0.001896 -0.001050 0.000000
-0.001050 -0.000197 0.000000
0.000000 0.000000 0.000000
0.002367 -0.001555 0.000000
-0.001555 0.001209 0.000000
0.000000 0.000000 0.000000
-0.013763 0.005180 0.000000
0.005180 0.003277 0.000000
0.000000 0.000000 0.000000
0.007831 0.003817 0.000000
0.003817 0.002250 0.000000
0.000000 0.000000 0.000000
0.017791 -0.019557 0.000000
-0.019557 -0.003477 0.000000
0.000000 0.000000 0.000000
0.005380 -0.012690 0.000000
-0.012690 0.004844 0.000000
0.000000 0.000000 0.000000
0.008347 -0.000334 0.000000
-0.000334 -0.019134 0.000000
0.000000 0.000000 0.000000
-0.007066 0.001165 0.000000
0.001165 -0.010324 0.000000
0.000000 0.000000 0.000000
0.003724 0.013481 0.000000
0.013481 -0.022098 0.000000
0.000000 0.000000 0.000000
0.004840 0.017692 0.000000
0.017692 -0.013706 0.000000
0.000000 0.000000 0.000000
-0.000254 0.004397 0.000000
0.004397 0.012459 0.000000
0.000000 0.000000 0.000000
0.005822 0.006920 0.000000
0.006920 0.024785 0.000000
0.000000 0.000000 0.000000
0.008965 0.001853 0.000000
0.001853 0.030618 0.000000
0.000000 0.000000 0.000000
0.007525 0.002076 0.000000
0.002076 -0.009484 0.000000
0.000000 0.000000 0.000000
0.009707 0.009989 0.000000
0.009989 -0.003722 0.000000
0.000000 0.000000 0.000000
0.002286 -0.000809 0.000000
-0.000809 0.000927 0.000000
0.000000 0.000000 0.000000
0.015373 0.008148 0.000000
0.008148 0.016251 0.000000
0.000000 0.000000 0.000000
0.007939 0.002867 0.000000
0.002867 0.004852 0.000000
0.000000 0.000000 0.000000
-0.004324 0.012534 0.000000
0.012534 -0.002396 0.000000
0.000000 0.000000 0.000000
-0.017805 0.004626 0.000000
0.004626 -0.018199 0.000000
0.000000 0.000000 0.000000
0.018466 -0.003423 0.000000
-0.003423 0.004878 0.000000
0.000000 0.000000 0.000000
0.003585 -0.002915 0.000000
-0.002915 -0.001466 0.000000
0.000000 0.000000 0.000000
-0.000405 0.001012 0.000000
0.001012 0.015308 0.000000
0.000000 0.000000 0.000000
-0.004400 -0.000429 0.000000
-0.000429 -0.010268 0.000000
0.000000 0.000000 0.000000
0.005247 0.025742 0.000000
0.025742 0.009029 0.000000
0.000000 0.000000 0.000000
-0.001038 0.021662 0.000000
0.021662 -0.010689 0.000000
0.000000 0.000000 0.000000
-0.005095 -0.003035 0.000000
-0.003035 0.005335 0.000000
0.000000 0.000000 0.000000
-0.016149 -0.004829 0.000000
-0.004829 0.003782 0.000000
0.000000 0.000000 0.000000
-0.019123 0.003497 0.000000
0.003497 -0.011943 0.000000
0.000000 0.000000 0.000000
-0.011625 0.008001 0.000000
0.008001 -0.009525 0.000000
0.000000 0.000000 0.000000
-0.003103 0.005746 0.000000
0.005746 0.027113 0.000000
0.000000 0.000000 0.000000
0.000457 -0.001191 0.000000
-0.001191 -0.000566 0.000000
0.000000 0.000000 0.000000
-0.007505 0.000163 0.000000
0.000163 0.010120 0.000000
0.000000 0.000000 0.000000
-0.002964 -0.002702 0.000000
-0.002702 0.002158 0.000000
0.000000 0.000000 0.000000
0.001294 0.001093 0.000000
0.001093 0.016467 0.000000
0.000000 0.000000 0.000000
0.003533 0.004689 0.000000
0.004689 0.013257 0.000000
0.000000 0.000000 0.000000
-0.008096 -0.003604 0.000000
-0.003604 0.004249 0.000000
0.000000 0.000000 0.000000
0.001669 -0.003844 0.000000
-0.003844 -0.002867 0.000000
0.000000 0.000000 0.000000
-0.014782 -0.005828 0.000000
-0.005828 0.001195 0.000000
0.000000 0.000000 0.000000
0.014844 0.009631 0.000000
0.009631 -0.000519 0.000000
0.000000 0.000000 0.000000
0.003849 0.004010 0.000000
0.004010 -0.006675 0.000000
0.000000 0.000000 0.000000
-0.002114 0.001890 0.000000
0.001890 0.006038 0.000000
0.000000 0.000000 0.000000
-0.009872 -0.005185 0.000000
-0.005185 -0.021218 0.000000
0.000000 0.000000 0.000000
0.008439 -0.006117 0.000000
-0.006117 0.017565 0.000000
0.000000 0.000000 0.000000
0.008708 0.003319 0.000000
0.003319 0.010750 0.000000
0.000000 0.000000 0.000000
0.004776 0.001376 0.000000
0.001376 -0.006924 0.000000
0.000000 0.000000 0.000000
-0.004304 -0.007916 0.000000
-0.007916 0.017805 0.000000
0.000000 0.000000 0.000000
-0.005011 -0.007634 0.000000
-0.007634 0.018797 0.000000
0.000000 0.000000 0.000000
-0.000967 0.008106 0.000000
0.008106 -0.003339 0.000000
0.000000 0.000000 0.000000
-0.000135 0.007297 0.000000
0.007297 0.005423 0.000000
0.000000 0.000000 0.000000
-0.000581 0.001524 0.000000
0.001524 0.002561 0.000000
0.000000 0.000000 0.000000
-0.014834 0.011057 0.000000
0.011057 0.006804 0.000000
0.000000 0.000000 0.000000
-0.011238 -0.004683 0.000000
-0.004683 -0.014437 0.000000
0.000000 0.000000 0.000000
-0.009129 -0.005507 0.000000
-0.005507 0.023822 0.000000
0.000000 0.000000 0.000000
-0.011531 -0.004949 0.000000
-0.004949 -0.015285 0.000000
0.000000 0.000000 0.000000
0.007005 0.003904 0.000000
0.003904 -0.017546 0.000000
0.000000 0.000000 0.000000
0.003058 -0.002353 0.000000
-0.002353 -0.002941 0.000000
0.000000 0.000000 0.000000
-0.007577 0.001388 0.000000
0.001388 0.011826 0.000000
0.000000 0.000000 0.000000
-0.012903 0.003313 0.000000
0.003313 -0.033758 0.000000
0.000000 0.000000 0.000000
-0.000898 -0.016711 0.000000
-0.016711 -0.010593 0.000000
0.000000 0.000000 0.000000
0.022554 0.004692 0.000000
0.004692 0.007670 0.000000
0.000000 0.000000 0.000000
0.003234 0.005026 0.000000
0.005026 0.010539 0.000000
0.000000 0.000000 0.000000
-0.015841 0.000561 0.000000
0.000561 -0.019839 0.000000
0.000000 0.000000 0.000000
-0.004072 0.004355 0.000000
0.004355 -0.009040 0.000000
0.000000 0.000000 0.000000
-0.007507 -0.000026 0.000000
-0.000026 -0.006689 0.000000
0.000000 0.000000 0.000000
-0.021315 -0.007680 0.000000
-0.007680 0.001213 0.000000
0.000000 0.000000 0.000000
0.013046 0.004771 0.000000
0.004771 -0.008898 0.000000
0.000000 0.000000 0.000000
-0.006235 0.002882 0.000000
0.002882 -0.008832 0.000000
0.000000 0.000000 0.000000
0.013330 -0.001708 0.000000
-0.001708 -0.001823 0.000000
0.000000 0.000000 0.000000
-0.009505 -0.004388 0.000000
-0.004388 -0.010832 0.000000
0.000000 0.000000 0.000000
0.008272 -0.001797 0.000000
-0.001797 -0.002795 0.000000
0.000000 0.000000 0.000000
-0.008136 0.002897 0.000000
0.002897 0.014638 0.000000
0.000000 0.000000 0.000000
-0.018907 0.002932 0.000000
0.002932 0.001801 0.000000
0.000000 0.000000 0.000000
0.003630 0.001633 0.000000
0.001633 0.015350 0.000000
0.000000 0.000000 0.000000
-0.017294 -0.009348 0.000000
-0.009348 0.021062 0.000000
0.000000 0.000000 0.000000
0.017324 -0.004884 0.000000
-0.004884 0.009128 0.000000
0.000000 0.000000 0.000000
0.008841 -0.002065 0.000000
-0.002065 0.005170 0.000000
0.000000 0.000000 0.000000
0.006545 -0.005495 0.000000
-0.005495 0.006423 0.000000
0.000000 0.000000 0.000000
0.010574 -0.002994 0.000000
-0.002994 0.010113 0.000000
0.000000 0.000000 0.000000
0.010734 0.000704 0.000000
0.000704 -0.008642 0.000000
0.000000 0.000000 0.000000
0.005250 -0.001302 0.000000
-0.001302 0.012682 0.000000
0.000000 0.000000 0.000000
0.007181 -0.001198 0.000000
-0.001198 -0.010979 0.000000
0.000000 0.000000 0.000000
-0.012654 -0.000598 0.000000
-0.000598 0.013654 0.000000
0.000000 0.000000 0.000000
0.013145 -0.008782 0.000000
-0.008782 -0.006658 0.000000
0.000000 0.000000 0.000000
0.002424 -0.001531 0.000000
-0.001531 0.003790 0.000000
0.000000 0.000000 0.000000
0.006687 -0.005741 0.000000
-0.005741 -0.006209 0.000000
0.000000 0.000000 0.000000
0.008972 -0.002305 0.000000
-0.002305 -0.002390 0.000000
0.000000 0.000000 0.000000
0.012782 -0.007389 0.000000
-0.007389 0.008575 0.000000
0.000000 0.000000 0.000000
0.001073 0.006622 0.000000
0.006622 -0.000082 0.000000
0.000000 0.000000 0.000000
0.013629 -0.007280 0.000000
-0.007280 0.008342 0.000000
0.000000 0.000000 0.000000
0.005133 -0.000213 0.000000
-0.000213 -0.032615 0.000000
0.000000 0.000000 0.000000
0.003999 -0.008765 0.000000
-0.008765 0.008729 0.000000
0.000000 0.000000 0.000000
-0.004316 0.004491 0.000000
0.004491 0.003339 0.000000
0.000000 0.000000 0.000000
-0.002550 -0.001013 0.000000
-0.001013 -0.005688 0.000000
0.000000 0.000000 0.000000
-0.011403 -0.009208 0.000000
-0.009208 0.005471 0.000000
0.000000 0.000000 0.000000
-0.010808 0.000953 0.000000
0.000953 -0.032349 0.000000
0.000000 0.000000 0.000000
-0.002094 0.012553 0.000000
0.012553 -0.013498 0.000000
0.000000 0.000000 0.000000
-0.015419 0.004285 0.000000
0.004285 -0.000101 0.000000
0.000000 0.000000 0.000000
-0.012060 -0.001138 0.000000
-0.001138 -0.002345 0.000000
0.000000 0.000000 0.000000
-0.005567 0.000886 0.000000
0.000886 0.000123 0.000000
0.000000 0.000000 0.000000
-0.001949 0.010303 0.000000
0.010303 0.018336 0.000000
0.000000 0.000000 0.000000
0.008271 0.010835 0.000000
0.010835 0.017969 0.000000
0.000000 0.000000 0.000000
-0.003844 -0.001584 0.000000
-0.001584 -0.005524 0.000000
0.000000 0.000000 0.000000
0.002230 -0.001795 0.000000
-0.001795 -0.010800 0.000000
0.000000 0.000000 0.000000
-0.003001 -0.004848 0.000000
-0.004848 -0.011100 0.000000
0.000000 0.000000 0.000000
0.010286 0.009207 0.000000
0.009207 0.017569 0.000000
0.000000 0.000000 0.000000
0.018510 -0.006610 0.000000
-0.006610 0.006410 0.000000
0.000000 0.000000 0.000000
-0.004915 -0.000673 0.000000
-0.000673 -0.008024 0.000000
0.000000 0.000000 0.000000
-0.004616 0.002465 0.000000
0.002465 -0.003140 0.000000
0.000000 0.000000 0.000000
0.004242 -0.003366 0.000000
-0.003366 0.017989 0.000000
0.000000 0.000000 0.000000
0.005439 -0.004822 0.000000
-0.004822 0.003124 0.000000
0.000000 0.000000 0.000000
0.008829 0.016437 0.000000
0.016437 0.014389 0.000000
0.000000 0.000000 0.000000
-0.001702 0.010090 0.000000
0.010090 -0.010496 0.000000
0.000000 0.000000 0.000000
-0.002554 0.000964 0.000000
0.000964 -0.001732 0.000000
0.000000 0.000000 0.000000
-0.003072 -0.013242 0.000000
-0.013242 -0.003382 0.000000
0.000000 0.000000 0.000000
0.021122 -0.008218 0.000000
-0.008218 -0.009982 0.000000
0.000000 0.000000 0.000000
0.005519 -0.014413 0.000000
-0.014413 -0.000634 0.000000
0.000000 0.000000 0.000000
-0.005932 0.004654 0.000000
0.004654 -0.003615 0.000000
0.000000 0.000000 0.000000
-0.006826 -0.000609 0.000000
-0.000609 -0.010481 0.000000
0.000000 0.000000 0.000000
0.015990 0.023608 0.000000
0.023608 0.013749 0.000000
0.000000 0.000000 0.000000
0.018537 0.004571 0.000000
0.004571 -0.001392 0.000000
0.000000 0.000000 0.000000
0.002578 0.013257 0.000000
0.013257 0.013513 0.000000
0.000000 0.000000 0.000000
-0.010486 0.009897 0.000000
0.009897 -0.016039 0.000000
0.000000 0.000000 0.000000
0.009901 0.019612 0.000000
0.019612 0.008838 0.000000
0.000000 0.000000 0.000000
0.008214 -0.006747 0.000000
-0.006747 -0.013362 0.000000
0.000000 0.000000 0.000000
0.020238 -0.001765 0.000000
-0.001765 -0.003684 0.000000
0.000000 0.000000 0.000000
-0.011140 -0.001068 0.000000
-0.001068 -0.020293 0.000000
0.000000 0.000000 0.000000
-0.008106 -0.012245 0.000000
-0.012245 0.020626 0.000000
0.000000 0.000000 0.000000
-0.018045 0.000597 0.000000
0.000597 -0.010832 0.000000
0.000000 0.000000 0.000000
-0.004374 0.003109 0.000000
0.003109 -0.011338 0.000000
0.000000 0.000000 0.000000
0.001395 0.005177 0.000000
0.005177 -0.004692 0.000000
0.000000 0.000000 0.000000
-0.003064 0.006215 0.000000
0.006215 0.008146 0.000000
0.000000 0.000000 0.000000
-0.004627 0.004226 0.000000
0.004226 0.011569 0.000000
0.000000 0.000000 0.000000
0.001332 0.009983 0.000000
0.009983 0.012808 0.000000
0.000000 0.000000 0.000000
0.001794 -0.002308 0.000000
-0.002308 0.013139 0.000000
0.000000 0.000000 0.000000
-0.016967 -0.000102 0.000000
-0.000102 -0.006882 0.000000
0.000000 0.000000 0.000000
-0.012587 -0.003078 0.000000
-0.003078 -0.020067 0.000000
0.000000 0.000000 0.000000
-0.014442 -0.005488 0.000000
-0.005488 0.004851 0.000000
0.000000 0.000000 0.000000
-0.005164 -0.005066 0.000000
-0.005066 0.000408 0.000000
0.000000 0.000000 0.000000
0.006196 0.000167 0.000000
0.000167 0.001865 0.000000
0.000000 0.000000 0.000000
-0.006483 0.008758 0.000000
0.008758 0.002509 0.000000
0.000000 0.000000 0.000000
-0.002223 -0.003958 0.000000
-0.003958 0.027408 0.000000
0.000000 0.000000 0.000000
0.017948 -0.022367 0.000000
-0.022367 0.000802 0.000000
0.000000 0.000000 0.000000
-0.020328 -0.001822 0.000000
-0.001822 -0.018675 0.000000
0.000000 0.000000 0.000000
-0.007104 -0.003314 0.000000
-0.003314 -0.027009 0.000000
0.000000 0.000000 0.000000
-0.001683 0.013753 0.000000
0.013753 0.025277 0.000000
0.000000 0.000000 0.000000
0.002646 -0.005289 0.000000
-0.005289 -0.026409 0.000000
0.000000 0.000000 0.000000
-0.011462 -0.006522 0.000000
-0.006522 -0.014640 0.000000
0.000000 0.000000 0.000000
-0.012071 -0.004594 0.000000
-0.004594 -0.028385 0.000000
0.000000 0.000000 0.000000
-0.008321 -0.003769 0.000000
-0.003769 -0.015086 0.000000
0.000000 0.000000 0.000000
0.004405 -0.006126 0.000000
-0.006126 0.017737 0.000000
0.000000 0.000000 0.000000
-0.005826 0.007575 0.000000
0.007575 -0.010032 0.000000
0.000000 0.000000 0.000000
-0.003912 0.006461 0.000000
0.006461 0.010043 0.000000
0.000000 0.000000 0.000000
0.007898 -0.005555 0.000000
-0.005555 0.003515 0.000000
0.000000 0.000000 0.000000
0.010877 -0.008581 0.000000
-0.008581 0.003780 0.000000
0.000000 0.000000 0.000000
0.001062 0.003974 0.000000
0.003974 0.001777 0.000000
0.000000 0.000000 0.000000
-0.008432 0.001034 0.000000
0.001034 -0.012707 0.000000
0.000000 0.000000 0.000000
0.000692 0.001098 0.000000
0.001098 -0.009836 0.000000
0.000000 0.000000 0.000000
-0.023172 -0.002721 0.000000
-0.002721 -0.000564 0.000000
0.000000 0.000000 0.000000
-0.017814 0.000880 0.000000
0.000880 -0.001072 0.000000
0.000000 0.000000 0.000000
0.003439 -0.000759 0.000000
-0.000759 -0.003602 0.000000
0.000000 0.000000 0.000000
-0.002320 -0.007136 0.000000
-0.007136 -0.024075 0.000000
0.000000 0.000000 0.000000
-0.000212 -0.015330 0.000000
-0.015330 -0.003859 0.000000
0.000000 0.000000 0.000000
0.008876 0.006799 0.000000
0.006799 0.001095 0.000000
0.000000 0.000000 0.000000
0.038084 -0.007370 0.000000
-0.007370 -0.001053 0.000000
0.000000 0.000000 0.000000
-0.005323 0.000769 0.000000
0.000769 0.010627 0.000000
0.000000 0.000000 0.000000
-0.002913 0.004923 0.000000
0.004923 0.002325 0.000000
0.000000 0.000000 0.000000
0.008292 0.012547 0.000000
0.012547 0.011565 0.000000
0.000000 0.000000 0.000000
-0.015684 -0.005900 0.000000
-0.005900 -0.035172 0.000000
0.000000 0.000000 0.000000
0.010481 -0.008395 0.000000
-0.008395 0.018074 0.000000
0.000000 0.000000 0.000000
-0.005267 -0.000895 0.000000
-0.000895 -0.015613 0.000000
0.000000 0.000000 0.000000
0.003120 0.005270 0.000000
0.005270 0.007421 0.000000
0.000000 0.000000 0.000000
0.001717 0.018634 0.000000
0.018634 0.006261 0.000000
0.000000 0.000000 0.000000
0.013083 -0.008000 0.000000
-0.008000 -0.003638 0.000000
0.000000 0.000000 0.000000
-0.004066 0.006232 0.000000
0.006232 -0.000023 0.000000
0.000000 0.000000 0.000000
-0.005650 -0.001316 0.000000
-0.001316 0.001179 0.000000
0.000000 0.000000 0.000000
-0.002330 0.012891 0.000000
0.012891 0.009633 0.000000
0.000000 0.000000 0.000000
0.000481 -0.000721 0.000000
-0.000721 -0.000290 0.000000
0.000000 0.000000 0.000000
0.008054 -0.009937 0.000000
-0.009937 0.018067 0.000000
0.000000 0.000000 0.000000
-0.002098 -0.001347 0.000000
-0.001347 -0.001298 0.000000
0.000000 0.000000 0.000000
-0.024653 0.005187 0.000000
0.005187 -0.000248 0.000000
0.000000 0.000000 0.000000
-0.000580 -0.011960 0.000000
-0.011960 -0.000714 0.000000
0.000000 0.000000 0.000000
0.005844 0.006089 0.000000
0.006089 0.013587 0.000000
0.000000 0.000000 0.000000
-0.006239 0.007829 0.000000
0.007829 -0.026293 0.000000
0.000000 0.000000 0.000000
0.013467 -0.041144 0.000000
-0.041144 0.051212 0.000000
0.000000 0.000000 0.000000
-0.003724 0.001989 0.000000
0.001989 -0.007833 0.000000
0.000000 0.000000 0.000000
-0.002730 0.001656 0.000000
0.001656 -0.007618 0.000000
0.000000 0.000000 0.000000
0.012707 0.001488 0.000000
0.001488 0.042196 0.000000
0.000000 0.000000 0.000000
-0.009364 -0.000678 0.000000
-0.000678 -0.016208 0.000000
0.000000 0.000000 0.000000
0.024557 0.003574 0.000000
0.003574 0.042680 0.000000
0.000000 0.000000 0.000000
0.018362 0.010696 0.000000
0.010696 0.037126 0.000000
0.000000 0.000000 0.000000
0.030368 -0.003982 0.000000
-0.003982 0.046958 0.000000
0.000000 0.000000 0.000000
-0.005270 -0.001473 0.000000
-0.001473 -0.003491 0.000000
0.000000 0.000000 0.000000
0.022946 -0.001491 0.000000
-0.001491 0.049614 0.000000
0.000000 0.000000 0.000000
0.005701 -0.010082 0.000000
-0.010082 0.001452 0.000000
0.000000 0.000000 0.000000
-0.011304 -0.023953 0.000000
-0.023953 -0.002006 0.000000
0.000000 0.000000 0.000000
0.004101 -0.023153 0.000000
-0.023153 -0.014052 0.000000
0.000000 0.000000 0.000000
0.003522 -0.018474 0.000000
-0.018474 -0.005616 0.000000
0.000000 0.000000 0.000000
0.011789 0.003159 0.000000
0.003159 -0.012229 0.000000
0.000000 0.000000 0.000000
-0.001723 -0.011770 0.000000
-0.011770 -0.009211 0.000000
0.000000 0.000000 0.000000
-0.014110 -0.013054 0.000000
-0.013054 0.008364 0.000000
0.000000 0.000000 0.000000
0.000504 0.011054 0.000000
0.011054 0.026152 0.000000
0.000000 0.000000 0.000000
-0.002744 0.011258 0.000000
0.011258 0.007760 0.000000
0.000000 0.000000 0.000000
0.007366 -0.010521 0.000000
-0.010521 -0.015821 0.000000
0.000000 0.000000 0.000000
0.010725 0.009951 0.000000
0.009951 0.021436 0.000000
0.000000 0.000000 0.000000
0.073902 0.001987 0.000000
0.001987 -0.018066 0.000000
0.000000 0.000000 0.000000
-0.007021 0.017615 0.000000
0.017615 0.005823 0.000000
0.000000 0.000000 0.000000
-0.010801 0.008868 0.000000
0.008868 -0.024551 0.000000
0.000000 0.000000 0.000000
-0.013592 -0.003313 0.000000
-0.003313 0.000297 0.000000
0.000000 0.000000 0.000000
0.006045 -0.003841 0.000000
-0.003841 0.002736 0.000000
0.000000 0.000000 0.000000
0.011923 0.001107 0.000000
0.001107 -0.031338 0.000000
0.000000 0.000000 0.000000
0.001887 0.007026 0.000000
0.007026 -0.017246 0.000000
0.000000 0.000000 0.000000
-0.017712 0.000015 0.000000
0.000015 -0.003954 0.000000
0.000000 0.000000 0.000000
0.001070 0.011810 0.000000
0.011810 -0.002668 0.000000
0.000000 0.000000 0.000000
-0.012853 0.001711 0.000000
0.001711 -0.024963 0.000000
0.000000 0.000000 0.000000
-0.011904 -0.000743 0.000000
-0.000743 -0.024860 0.000000
0.000000 0.000000 0.000000
-0.007546 -0.007345 0.000000
-0.007345 -0.013224 0.000000
0.000000 0.000000 0.000000
0.000375 -0.008591 0.000000
-0.008591 0.012937 0.000000
0.000000 0.000000 0.000000
0.007222 0.013538 0.000000
0.013538 0.007363 0.000000
0.000000 0.000000 0.000000
0.006936 -0.005283 0.000000
-0.005283 -0.004728 0.000000
0.000000 0.000000 0.000000
0.001356 -0.002371 0.000000
-0.002371 0.004447 0.000000
0.000000 0.000000 0.000000
-0.002856 0.006110 0.000000
0.006110 -0.003645 0.000000
0.000000 0.000000 0.000000
-0.021057 -0.003681 0.000000
-0.003681 -0.037150 0.000000
0.000000 0.000000 0.000000
0.007445 0.010982 0.000000
0.010982 0.000278 0.000000
0.000000 0.000000 0.000000
-0.025441 -0.000840 0.000000
-0.000840 -0.044339 0.000000
0.000000 0.000000 0.000000
0.012586 0.006807 0.000000
0.006807 -0.014495 0.000000
0.000000 0.000000 0.000000
0.001219 -0.000837 0.000000
-0.000837 0.005844 0.000000
0.000000 0.000000 0.000000
0.005819 -0.001628 0.000000
-0.001628 0.006661 0.000000
0.000000 0.000000 0.000000
0.003035 0.001781 0.000000
0.001781 0.009510 0.000000
0.000000 0.000000 0.000000
0.018579 -0.001183 0.000000
-0.001183 0.016239 0.000000
0.000000 0.000000 0.000000
0.004454 0.004016 0.000000
0.004016 0.007296 0.000000
0.000000 0.000000 0.000000
0.001197 0.002014 0.000000
0.002014 0.011531 0.000000
0.000000 0.000000 0.000000
0.005346 -0.007495 0.000000
-0.007495 -0.009495 0.000000
0.000000 0.000000 0.000000
0.007846 -0.002246 0.000000
-0.002246 0.012590 0.000000
0.000000 0.000000 0.000000
0.001284 -0.002479 0.000000
-0.002479 -0.011462 0.000000
0.000000 0.000000 0.000000
-0.021483 -0.005897 0.000000
-0.005897 0.010782 0.000000
0.000000 0.000000 0.000000
-0.023067 -0.001153 0.000000
-0.001153 0.003027 0.000000
0.000000 0.000000 0.000000
0.006495 -0.004807 0.000000
-0.004807 0.015273 0.000000
0.000000 0.000000 0.000000
0.025682 -0.000286 0.000000
-0.000286 0.005968 0.000000
0.000000 0.000000 0.000000
0.004679 0.011941 0.000000
0.011941 -0.008031 0.000000
0.000000 0.000000 0.000000
-0.003174 0.001903 0.000000
0.001903 -0.024960 0.000000
0.000000 0.000000 0.000000
0.012296 0.006882 0.000000
0.006882 -0.017176 0.000000
0.000000 0.000000 0.000000
-0.001292 0.001816 0.000000
0.001816 -0.004405 0.000000
0.000000 0.000000 0.000000
0.004252 0.002139 0.000000
0.002139 0.001241 0.000000
0.000000 0.000000 0.000000
0.002130 -0.002529 0.000000
-0.002529 0.000958 0.000000
0.000000 0.000000 0.000000
0.038199 0.009176 0.000000
0.009176 -0.000006 0.000000
0.000000 0.000000 0.000000
-0.004278 -0.015942 0.000000
-0.015942 0.013506 0.000000
0.000000 0.000000 0.000000
-0.001817 0.001495 0.000000
0.001495 0.000251 0.000000
0.000000 0.000000 0.000000
-0.013612 0.001245 0.000000
0.001245 -0.021713 0.000000
0.000000 0.000000 0.000000
0.018344 0.005688 0.000000
0.005688 0.020783 0.000000
0.000000 0.000000 0.000000
-0.013128 0.012348 0.000000
0.012348 -0.011948 0.000000
0.000000 0.000000 0.000000
-0.002568 0.004415 0.000000
0.004415 0.001849 0.000000
0.000000 0.000000 0.000000
-0.001194 0.009083 0.000000
0.009083 0.014071 0.000000
0.000000 0.000000 0.000000
-0.008625 -0.003100 0.000000
-0.003100 -0.031963 0.000000
0.000000 0.000000 0.000000
-0.005490 -0.004934 0.000000
-0.004934 -0.028620 0.000000
0.000000 0.000000 0.000000
0.006495 -0.005663 0.000000
-0.005663 0.014393 0.000000
0.000000 0.000000 0.000000
0.004053 0.001321 0.000000
0.001321 0.012833 0.000000
0.000000 0.000000 0.000000
0.003678 0.000282 0.000000
0.000282 0.010518 0.000000
0.000000 0.000000 0.000000
-0.009584 0.006869 0.000000
0.006869 0.004166 0.000000
0.000000 0.000000 0.000000
0.000396 0.010899 0.000000
0.010899 0.023280 0.000000
0.000000 0.000000 0.000000
0.001048 -0.001024 0.000000
-0.001024 0.009541 0.000000
0.000000 0.000000 0.000000
0.005360 -0.001157 0.000000
-0.001157 0.010036 0.000000
0.000000 0.000000 0.000000
-0.008696 0.001860 0.000000
0.001860 0.013224 0.000000
0.000000 0.000000 0.000000
-0.006349 0.000403 0.000000
0.000403 0.019122 0.000000
0.000000 0.000000 0.000000
0.000456 -0.004348 0.000000
-0.004348 0.004709 0.000000
0.000000 0.000000 0.000000
0.002131 0.017614 0.000000
0.017614 0.003329 0.000000
0.000000 0.000000 0.000000
0.001865 -0.000901 0.000000
-0.000901 -0.000317 0.000000
0.000000 0.000000 0.000000
-0.012842 -0.004718 0.000000
-0.004718 -0.024539 0.000000
0.000000 0.000000 0.000000
-0.009237 -0.007337 0.000000
-0.007337 -0.020584 0.000000
0.000000 0.000000 0.000000
0.000552 0.005041 0.000000
0.005041 -0.003154 0.000000
0.000000 0.000000 0.000000
0.005855 0.001893 0.000000
0.001893 0.010004 0.000000
0.000000 0.000000 0.000000
-0.001723 -0.000034 0.000000
-0.000034 0.006084 0.000000
0.000000 0.000000 0.000000
0.013567 0.009668 0.000000
0.009668 0.003102 0.000000
0.000000 0.000000 0.000000
-0.009327 -0.001668 0.000000
-0.001668 -0.004434 0.000000
0.000000 0.000000 0.000000
-0.001967 -0.004885 0.000000
-0.004885 0.004210 0.000000
0.000000 0.000000 0.000000
-0.004278 -0.004687 0.000000
-0.004687 0.005095 0.000000
0.000000 0.000000 0.000000
0.001162 -0.001715 0.000000
-0.001715 -0.008828 0.000000
0.000000 0.000000 0.000000
0.002514 -0.004831 0.000000
-0.004831 -0.009682 0.000000
0.000000 0.000000 0.000000
0.006187 -0.005883 0.000000
-0.005883 0.007021 0.000000
0.000000 0.000000 0.000000
0.007191 0.003525 0.000000
0.003525 -0.004981 0.000000
0.000000 0.000000 0.000000
-0.021048 0.002507 0.000000
0.002507 -0.005460 0.000000
0.000000 0.000000 0.000000
-0.013643 0.000879 0.000000
0.000879 -0.004116 0.000000
0.000000 0.000000 0.000000
0.008059 0.004352 0.000000
0.004352 -0.011770 0.000000
0.000000 0.000000 0.000000
-0.018050 -0.000019 0.000000
-0.000019 0.017336 0.000000
0.000000 0.000000 0.000000
-0.005846 -0.003940 0.000000
-0.003940 -0.008261 0.000000
0.000000 0.000000 0.000000
-0.012834 0.005435 0.000000
0.005435 -0.025080 0.000000
0.000000 0.000000 0.000000
-0.003804 0.001442 0.000000
0.001442 0.000842 0.000000
0.000000 0.000000 0.000000
0.010222 -0.006513 0.000000
-0.006513 0.003798 0.000000
0.000000 0.000000 0.000000
-0.015485 0.004075 0.000000
0.004075 -0.010753 0.000000
0.000000 0.000000 0.000000
-0.019170 0.006439 0.000000
0.006439 -0.014509 0.000000
0.000000 0.000000 0.000000
0.020210 -0.010857 0.000000
-0.010857 0.010443 0.000000
0.000000 0.000000 0.000000
0.006168 0.004217 0.000000
0.004217 0.002626 0.000000
0.000000 0.000000 0.000000
-0.014938 -0.017212 0.000000
-0.017212 -0.009831 0.000000
0.000000 0.000000 0.000000
0.011175 0.001893 0.000000
0.001893 -0.005399 0.000000
0.000000 0.000000 0.000000
-0.001247 0.001630 0.000000
0.001630 0.004852 0.000000
0.000000 0.000000 0.000000
-0.001617 -0.010599 0.000000
-0.010599 -0.021809 0.000000
0.000000 0.000000 0.000000
-0.001060 0.001506 0.000000
0.001506 0.005430 0.000000
0.000000 0.000000 0.000000
-0.001486 0.000170 0.000000
0.000170 -0.015097 0.000000
0.000000 0.000000 0.000000
-0.003778 -0.000493 0.000000
-0.000493 -0.000978 0.000000
0.000000 0.000000 0.000000
-0.000337 0.008944 0.000000
0.008944 -0.012357 0.000000
0.000000 0.000000 0.000000
0.000230 0.002865 0.000000
0.002865 0.004969 0.000000
0.000000 0.000000 0.000000
-0.000071 0.007718 0.000000
0.007718 0.000300 0.000000
0.000000 0.000000 0.000000
0.002323 -0.008431 0.000000
-0.008431 0.025208 0.000000
0.000000 0.000000 0.000000
-0.001632 -0.010272 0.000000
-0.010272 -0.035848 0.000000
0.000000 0.000000 0.000000
-0.002105 -0.005270 0.000000
-0.005270 0.003162 0.000000
0.000000 0.000000 0.000000
0.006608 0.009593 0.000000
0.009593 -0.013457 0.000000
0.000000 0.000000 0.000000
0.006866 0.007799 0.000000
0.007799 0.021859 0.000000
0.000000 0.000000 0.000000
-0.007464 -0.013335 0.000000
-0.013335 0.019927 0.000000
0.000000 0.000000 0.000000
-0.019114 -0.004773 0.000000
-0.004773 -0.003084 0.000000
0.000000 0.000000 0.000000
-0.001920 0.013718 0.000000
0.013718 0.014574 0.000000
0.000000 0.000000 0.000000
0.022228 -0.002324 0.000000
-0.002324 0.003876 0.000000
0.000000 0.000000 0.000000
0.004894 0.002805 0.000000
0.002805 0.000441 0.000000
0.000000 0.000000 0.000000
0.011893 0.003134 0.000000
0.003134 -0.006076 0.000000
0.000000 0.000000 0.000000
0.005685 0.003012 0.000000
0.003012 0.002973 0.000000
0.000000 0.000000 0.000000
0.001036 0.001377 0.000000
0.001377 0.007417 0.000000
0.000000 0.000000 0.000000
-0.000458 0.001033 0.000000
0.001033 0.002477 0.000000
0.000000 0.000000 0.000000
-0.012783 0.006765 0.000000
0.006765 0.001990 0.000000
0.000000 0.000000 0.000000
0.009461 0.012124 0.000000
0.012124 0.002554 0.000000
0.000000 0.000000 0.000000
0.023669 -0.005426 0.000000
-0.005426 -0.006721 0.000000
0.000000 0.000000 0.000000
0.015998 0.018491 0.000000
0.018491 -0.005968 0.000000
0.000000 0.000000 0.000000
-0.020452 -0.006170 0.000000
-0.006170 -0.011464 0.000000
0.000000 0.000000 0.000000
-0.023387 -0.004217 0.000000
-0.004217 -0.016678 0.000000
0.000000 0.000000 0.000000
0.013714 -0.007780 0.000000
-0.007780 0.000563 0.000000
0.000000 0.000000 0.000000
0.034650 -0.005054 0.000000
-0.005054 0.014130 0.000000
0.000000 0.000000 0.000000
-0.000465 0.006706 0.000000
0.006706 0.003487 0.000000
0.000000 0.000000 0.000000
0.022559 -0.004846 0.000000
-0.004846 0.011132 0.000000
0.000000 0.000000 0.000000
-0.003522 0.008694 0.000000
0.008694 -0.000352 0.000000
0.000000 0.000000 0.000000
-0.022829 0.001617 0.000000
0.001617 -0.002361 0.000000
0.000000 0.000000 0.000000
-0.007323 0.010340 0.000000
0.010340 -0.009219 0.000000
0.000000 0.000000 0.000000
-0.004938 -0.006453 0.000000
-0.006453 0.021796 0.000000
0.000000 0.000000 0.000000
-0.019519 -0.007452 0.000000
-0.007452 -0.009036 0.000000
0.000000 0.000000 0.000000
-0.006957 0.001845 0.000000
0.001845 -0.013655 0.000000
0.000000 0.000000 0.000000
-0.007339 -0.003716 0.000000
-0.003716 -0.003600 0.000000
0.000000 0.000000 0.000000
-0.019533 0.003002 0.000000
0.003002 0.000833 0.000000
0.000000 0.000000 0.000000
0.003588 0.006030 0.000000
0.006030 -0.000960 0.000000
0.000000 0.000000 0.000000
-0.002087 -0.012451 0.000000
-0.012451 -0.010025 0.000000
0.000000 0.000000 0.000000
-0.002384 0.023115 0.000000
0.023115 -0.024665 0.000000
0.000000 0.000000 0.000000
-0.009858 -0.003314 0.000000
-0.003314 0.007792 0.000000
0.000000 0.000000 0.000000
0.010732 -0.006013 0.000000
-0.006013 0.026440 0.000000
0.000000 0.000000 0.000000
0.025890 -0.004285 0.000000
-0.004285 0.022819 0.000000
0.000000 0.000000 0.000000
0.010532 0.001320 0.000000
0.001320 -0.004005 0.000000
0.000000 0.000000 0.000000
-0.015067 0.028956 0.000000
0.028956 -0.019768 0.000000
0.000000 0.000000 0.000000
0.026091 0.000743 0.000000
0.000743 0.001835 0.000000
0.000000 0.000000 0.000000
0.016348 0.014580 0.000000
0.014580 0.007267 0.000000
0.000000 0.000000 0.000000
0.013853 -0.003024 0.000000
-0.003024 0.005951 0.000000
0.000000 0.000000 0.000000
0.025045 -0.009059 0.000000
-0.009059 -0.004985 0.000000
0.000000 0.000000 0.000000
-0.010388 0.019649 0.000000
0.019649 0.006071 0.000000
0.000000 0.000000 0.000000
0.020068 0.009549 0.000000
0.009549 0.022177 0.000000
0.000000 0.000000 0.000000
-0.003140 -0.002152 0.000000
-0.002152 -0.009066 0.000000
0.000000 0.000000 0.000000
0.008403 0.010781 0.000000
0.010781 0.019036 0.000000
0.000000 0.000000 0.000000
0.000918 0.003676 0.000000
0.003676 0.006807 0.000000
0.000000 0.000000 0.000000
-0.007876 0.000198 0.000000
0.000198 -0.000441 0.000000
0.000000 0.000000 0.000000
-0.013843 -0.005981 0.000000
-0.005981 0.006468 0.000000
0.000000 0.000000 0.000000
-0.033763 0.019630 0.000000
0.019630 0.000218 0.000000
0.000000 0.000000 0.000000
0.000456 -0.000848 0.000000
-0.000848 -0.015910 0.000000
0.000000 0.000000 0.000000
-0.004946 0.001593 0.000000
0.001593 -0.009068 0.000000
0.000000 0.000000 0.000000
-0.009826 0.004973 0.000000
0.004973 -0.014792 0.000000
0.000000 0.000000 0.000000
-0.000780 -0.002390 0.000000
-0.002390 0.003495 0.000000
0.000000 0.000000 0.000000
-0.005261 0.000707 0.000000
0.000707 -0.003134 0.000000
0.000000 0.000000 0.000000
-0.007495 0.005151 0.000000
0.005151 -0.016347 0.000000
0.000000 0.000000 0.000000
-0.011135 -0.006888 0.000000
-0.006888 -0.024382 0.000000
0.000000 0.000000 0.000000
-0.002178 0.000941 0.000000
0.000941 0.020851 0.000000
0.000000 0.000000 0.000000
-0.001456 0.003346 0.000000
0.003346 0.001438 0.000000
0.000000 0.000000 0.000000
-0.003590 0.002485 0.000000
0.002485 -0.015160 0.000000
0.000000 0.000000 0.000000
-0.000661 0.002658 0.000000
0.002658 -0.014887 0.000000
0.000000 0.000000 0.000000
-0.009391 -0.000486 0.000000
-0.000486 -0.027683 0.000000
0.000000 0.000000 0.000000
-0.006878 -0.001118 0.000000
-0.001118 -0.027979 0.000000
0.000000 0.000000 0.000000
-0.009349 0.002604 0.000000
0.002604 -0.016709 0.000000
0.000000 0.000000 0.000000
-0.006698 0.003832 0.000000
0.003832 -0.019133 0.000000
0.000000 0.000000 0.000000
0.013836 -0.001254 0.000000
-0.001254 0.015796 0.000000
0.000000 0.000000 0.000000
0.006747 0.002384 0.000000
0.002384 0.009525 0.000000
0.000000 0.000000 0.000000
-0.029067 0.000382 0.000000
0.000382 -0.014423 0.000000
0.000000 0.000000 0.000000
-0.013764 0.003678 0.000000
0.003678 -0.009594 0.000000
0.000000 0.000000 0.000000
-0.004616 -0.000125 0.000000
-0.000125 -0.009491 0.000000
0.000000 0.000000 0.000000
0.005504 -0.000369 0.000000
-0.000369 -0.006881 0.000000
0.000000 0.000000 0.000000
0.010280 -0.007979 0.000000
-0.007979 -0.013128 0.000000
0.000000 0.000000 0.000000
0.016443 -0.004827 0.000000
-0.004827 0.003683 0.000000
0.000000 0.000000 0.000000
0.005860 0.008619 0.000000
0.008619 0.021359 0.000000
0.000000 0.000000 0.000000
-0.009576 -0.009946 0.000000
-0.009946 0.004849 0.000000
0.000000 0.000000 0.000000
-0.007526 -0.001929 0.000000
-0.001929 0.016284 0.000000
0.000000 0.000000 0.000000
0.002569 0.008207 0.000000
0.008207 0.003041 0.000000
0.000000 0.000000 0.000000
0.008519 0.008180 0.000000
0.008180 -0.005813 0.000000
0.000000 0.000000 0.000000
-0.000810 -0.002413 0.000000
-0.002413 0.004296 0.000000
0.000000 0.000000 0.000000
-0.000707 -0.002870 0.000000
-0.002870 0.014035 0.000000
0.000000 0.000000 0.000000
0.014448 0.002845 0.000000
0.002845 -0.003827 0.000000
0.000000 0.000000 0.000000
-0.013915 -0.007771 0.000000
-0.007771 -0.025618 0.000000
0.000000 0.000000 0.000000
0.017284 -0.001501 0.000000
-0.001501 -0.003999 0.000000
0.000000 0.000000 0.000000
0.007711 0.007131 0.000000
0.007131 -0.000737 0.000000
0.000000 0.000000 0.000000
-0.000866 -0.003604 0.000000
-0.003604 -0.002360 0.000000
0.000000 0.000000 0.000000
-0.003905 0.003623 0.000000
0.003623 -0.006165 0.000000
0.000000 0.000000 0.000000
-0.000584 -0.003988 0.000000
-0.003988 -0.001848 0.000000
0.000000 0.000000 0.000000
-0.008927 -0.001419 0.000000
-0.001419 -0.004003 0.000000
0.000000 0.000000 0.000000
-0.008171 -0.004013 0.000000
-0.004013 -0.009722 0.000000
0.000000 0.000000 0.000000
-0.007089 0.008903 0.000000
0.008903 -0.026875 0.000000
0.000000 0.000000 0.000000
-0.009192 -0.003302 0.000000
-0.003302 -0.005175 0.000000
0.000000 0.000000 0.000000
0.000705 0.002056 0.000000
0.002056 -0.003678 0.000000
0.000000 0.000000 0.000000
0.007084 -0.002171 0.000000
-0.002171 0.008022 0.000000
0.000000 0.000000 0.000000
0.000499 0.002239 0.000000
0.002239 0.022916 0.000000
0.000000 0.000000 0.000000
0.011239 0.000088 0.000000
0.000088 0.031922 0.000000
0.000000 0.000000 0.000000
0.010403 -0.000866 0.000000
-0.000866 0.034998 0.000000
0.000000 0.000000 0.000000
-0.017523 -0.014434 0.000000
-0.014434 -0.006018 0.000000
0.000000 0.000000 0.000000
-0.005903 0.009657 0.000000
0.009657 -0.020304 0.000000
0.000000 0.000000 0.000000
-0.018218 -0.001350 0.000000
-0.001350 0.005745 0.000000
0.000000 0.000000 0.000000
-0.005942 -0.000781 0.000000
-0.000781 -0.003486 0.000000
0.000000 0.000000 0.000000
-0.012566 0.028995 0.000000
0.028995 -0.013327 0.000000
0.000000 0.000000 0.000000
0.002121 -0.003825 0.000000
-0.003825 0.001173 0.000000
0.000000 0.000000 0.000000
0.002833 0.022211 0.000000
0.022211 -0.014743 0.000000
0.000000 0.000000 0.000000
-0.002548 0.002880 0.000000
0.002880 -0.005235 0.000000
0.000000 0.000000 0.000000
-0.000876 0.000146 0.000000
0.000146 0.002271 0.000000
0.000000 0.000000 0.000000
-0.012396 -0.004913 0.000000
-0.004913 0.023814 0.000000
0.000000 0.000000 0.000000
-0.014987 -0.006871 0.000000
-0.006871 0.016934 0.000000
0.000000 0.000000 0.000000
-0.003548 0.000647 0.000000
0.000647 -0.007219 0.000000
0.000000 0.000000 0.000000
-0.007263 0.004391 0.000000
0.004391 -0.012669 0.000000
0.000000 0.000000 0.000000
0.002876 0.008887 0.000000
0.008887 -0.006872 0.000000
0.000000 0.000000 0.000000
0.004625 -0.002032 0.000000
-0.002032 0.028609 0.000000
0.000000 0.000000 0.000000
0.004198 -0.001288 0.000000
-0.001288 0.019296 0.000000
0.000000 0.000000 0.000000
0.006358 0.002260 0.000000
0.002260 0.013932 0.000000
0.000000 0.000000 0.000000
-0.003819 0.001781 0.000000
0.001781 -0.002729 0.000000
0.000000 0.000000 0.000000
-0.001794 0.002771 0.000000
0.002771 -0.002988 0.000000
0.000000 0.000000 0.000000
0.013658 0.007463 0.000000
0.007463 -0.022010 0.000000
0.000000 0.000000 0.000000
0.006572 0.003634 0.000000
0.003634 -0.024503 0.000000
0.000000 0.000000 0.000000
-0.001930 0.008240 0.000000
0.008240 0.000267 0.000000
0.000000 0.000000 0.000000
-0.000165 0.008527 0.000000
0.008527 0.000753 0.000000
0.000000 0.000000 0.000000
-0.004667 -0.003085 0.000000
-0.003085 0.022686 0.000000
0.000000 0.000000 0.000000
-0.009616 -0.007382 0.000000
-0.007382 0.020757 0.000000
0.000000 0.000000 0.000000
-0.003804 -0.012110 0.000000
-0.012110 -0.009498 0.000000
0.000000 0.000000 0.000000
0.003369 -0.007595 0.000000
-0.007595 0.005432 0.000000
0.000000 0.000000 0.000000
-0.011741 -0.002545 0.000000
-0.002545 0.007100 0.000000
0.000000 0.000000 0.000000
0.009407 0.009077 0.000000
0.009077 -0.010949 0.000000
0.000000 0.000000 0.000000
-0.004221 -0.005287 0.000000
-0.005287 -0.009107 0.000000
0.000000 0.000000 0.000000
0.000604 0.001612 0.000000
0.001612 0.022201 0.000000
0.000000 0.000000 0.000000
0.008570 0.008450 0.000000
0.008450 -0.010784 0.000000
0.000000 0.000000 0.000000
0.032806 0.021306 0.000000
0.021306 0.002912 0.000000
0.000000 0.000000 0.000000
0.003549 0.001359 0.000000
0.001359 0.005528 0.000000
0.000000 0.000000 0.000000
-0.006533 0.015498 0.000000
0.015498 0.003517 0.000000
0.000000 0.000000 0.000000
0.019362 0.003622 0.000000
0.003622 0.022476 0.000000
0.000000 0.000000 0.000000
0.003544 -0.002495 0.000000
-0.002495 -0.004076 0.000000
0.000000 0.000000 0.000000
-0.015119 -0.001815 0.000000
-0.001815 -0.009481 0.000000
0.000000 0.000000 0.000000
0.000716 0.001404 0.000000
0.001404 -0.007291 0.000000
0.000000 0.000000 0.000000
0.009895 -0.018499 0.000000
-0.018499 0.021629 0.000000
0.000000 0.000000 0.000000
-0.000748 0.001418 0.000000
0.001418 -0.016014 0.000000
0.000000 0.000000 0.000000
-0.009002 0.003289 0.000000
0.003289 0.005658 0.000000
0.000000 0.000000 0.000000
-0.010684 0.007138 0.000000
0.007138 0.005231 0.000000
0.000000 0.000000 0.000000
-0.007778 0.009774 0.000000
0.009774 0.011557 0.000000
0.000000 0.000000 0.000000
0.004279 -0.003645 0.000000
-0.003645 0.021000 0.000000
0.000000 0.000000 0.000000
0.000896 -0.001614 0.000000
-0.001614 0.011487 0.000000
0.000000 0.000000 0.000000
0.009075 -0.004242 0.000000
-0.004242 0.002182 0.000000
0.000000 0.000000 0.000000
-0.020874 -0.009239 0.000000
-0.009239 0.008157 0.000000
0.000000 0.000000 0.000000
-0.019379 -0.005431 0.000000
-0.005431 0.015729 0.000000
0.000000 0.000000 0.000000
0.006740 -0.013655 0.000000
-0.013655 0.007894 0.000000
0.000000 0.000000 0.000000
0.000331 -0.009028 0.000000
-0.009028 0.000629 0.000000
0.000000 0.000000 0.000000
-0.010852 0.002157 0.000000
0.002157 -0.003904 0.000000
0.000000 0.000000 0.000000
0.024195 0.003147 0.000000
0.003147 0.012543 0.000000
0.000000 0.000000 0.000000
-0.000100 -0.002347 0.000000
-0.002347 0.003047 0.000000
0.000000 0.000000 0.000000
0.002247 -0.005225 0.000000
-0.005225 -0.023366 0.000000
0.000000 0.000000 0.000000
0.006540 -0.010656 0.000000
-0.010656 -0.023420 0.000000
0.000000 0.000000 0.000000
0.005218 0.006173 0.000000
0.006173 0.008550 0.000000
0.000000 0.000000 0.000000
0.007816 0.001391 0.000000
0.001391 -0.000277 0.000000
0.000000 0.000000 0.000000
0.005932 0.001685 0.000000
0.001685 0.008987 0.000000
0.000000 0.000000 0.000000
-0.019377 -0.003660 0.000000
-0.003660 0.002184 0.000000
0.000000 0.000000 0.000000
-0.004371 -0.001471 0.000000
-0.001471 -0.030404 0.000000
0.000000 0.000000 0.000000
-0.010203 -0.009130 0.000000
-0.009130 0.004770 0.000000
0.000000 0.000000 0.000000
-0.004989 0.000803 0.000000
0.000803 -0.020349 0.000000
0.000000 0.000000 0.000000
-0.000937 0.003609 0.000000
0.003609 0.006872 0.000000
0.000000 0.000000 0.000000
-0.014551 0.011954 0.000000
0.011954 -0.003351 0.000000
0.000000 0.000000 0.000000
0.005994 -0.003145 0.000000
-0.003145 0.008175 0.000000
0.000000 0.000000 0.000000
-0.001746 0.019300 0.000000
0.019300 0.009690 0.000000
0.000000 0.000000 0.000000
-0.007818 0.003337 0.000000
0.003337 -0.021434 0.000000
0.000000 0.000000 0.000000
0.013683 0.000533 0.000000
0.000533 0.022251 0.000000
0.000000 0.000000 0.000000
-0.002931 0.001531 0.000000
0.001531 -0.022650 0.000000
0.000000 0.000000 0.000000
-0.006480 -0.003955 0.000000
-0.003955 0.008381 0.000000
0.000000 0.000000 0.000000
-0.009691 -0.001576 0.000000
-0.001576 0.001522 0.000000
0.000000 0.000000 0.000000
0.004609 -0.000227 0.000000
-0.000227 0.009014 0.000000
0.000000 0.000000 0.000000
0.000869 -0.000650 0.000000
-0.000650 -0.001146 0.000000
0.000000 0.000000 0.000000
0.001813 0.005049 0.000000
0.005049 0.004483 0.000000
0.000000 0.000000 0.000000
0.000889 0.006211 0.000000
0.006211 -0.011751 0.000000
0.000000 0.000000 0.000000
0.002456 0.004537 0.000000
0.004537 -0.009865 0.000000
0.000000 0.000000 0.000000
-0.002765 0.001508 0.000000
0.001508 0.002935 0.000000
0.000000 0.000000 0.000000
-0.011262 0.011524 0.000000
0.011524 -0.012610 0.000000
0.000000 0.000000 0.000000
-0.013722 0.013147 0.000000
0.013147 -0.006023 0.000000
0.000000 0.000000 0.000000
0.007305 -0.004422 0.000000
-0.004422 0.007663 0.000000
0.000000 0.000000 0.000000
0.011330 0.002845 0.000000
0.002845 0.000134 0.000000
0.000000 0.000000 0.000000
-0.001888 0.006025 0.000000
0.006025 0.001175 0.000000
0.000000 0.000000 0.000000
-0.000559 0.009981 0.000000
0.009981 0.004754 0.000000
0.000000 0.000000 0.000000
0.003535 -0.001952 0.000000
-0.001952 -0.004007 0.000000
0.000000 0.000000 0.000000
-0.005319 -0.000266 0.000000
-0.000266 0.003346 0.000000
0.000000 0.000000 0.000000
0.013742 -0.006976 0.000000
-0.006976 -0.004866 0.000000
0.000000 0.000000 0.000000
0.006772 -0.007209 0.000000
-0.007209 -0.002821 0.000000
0.000000 0.000000 0.000000
0.013907 -0.007305 0.000000
-0.007305 -0.003941 0.000000
0.000000 0.000000 0.000000
0.015187 -0.002808 0.000000
-0.002808 -0.020718 0.000000
0.000000 0.000000 0.000000
-0.006155 0.002567 0.000000
0.002567 -0.012037 0.000000
0.000000 0.000000 0.000000
0.009773 0.005740 0.000000
0.005740 -0.016153 0.000000
0.000000 0.000000 0.000000
-0.004510 -0.017513 0.000000
-0.017513 0.002073 0.000000
0.000000 0.000000 0.000000
-0.005056 0.000657 0.000000
0.000657 -0.002538 0.000000
0.000000 0.000000 0.000000
0.012789 0.010376 0.000000
0.010376 -0.011299 0.000000
0.000000 0.000000 0.000000
-0.033005 0.009407 0.000000
0.009407 0.002546 0.000000
0.000000 0.000000 0.000000
-0.025775 0.007543 0.000000
0.007543 0.000649 0.000000
0.000000 0.000000 0.000000
0.006501 0.006166 0.000000
0.006166 0.005827 0.000000
0.000000 0.000000 0.000000
0.006555 0.002002 0.000000
0.002002 0.002354 0.000000
0.000000 0.000000 0.000000
-0.008782 -0.008289 0.000000
-0.008289 0.011530 0.000000
0.000000 0.000000 0.000000
-0.004685 0.000868 0.000000
0.000868 -0.000162 0.000000
0.000000 0.000000 0.000000
-0.002162 -0.014913 0.000000
-0.014913 -0.007266 0.000000
0.000000 0.000000 0.000000
0.022313 -0.010384 0.000000
-0.010384 -0.022811 0.000000
0.000000 0.000000 0.000000
0.027931 -0.007047 0.000000
-0.007047 -0.006367 0.000000
0.000000 0.000000 0.000000
-0.007350 -0.001408 0.000000
-0.001408 -0.009140 0.000000
0.000000 0.000000 0.000000
-0.023191 -0.006305 0.000000
-0.006305 -0.000791 0.000000
0.000000 0.000000 0.000000
0.009970 -0.010232 0.000000
-0.010232 0.036112 0.000000
0.000000 0.000000 0.000000
-0.011420 0.003258 0.000000
0.003258 0.011008 0.000000
0.000000 0.000000 0.000000
-0.008418 -0.003415 0.000000
-0.003415 0.008894 0.000000
0.000000 0.000000 0.000000
0.002775 0.001258 0.000000
0.001258 0.006828 0.000000
0.000000 0.000000 0.000000
0.015577 0.012534 0.000000
0.012534 0.002037 0.000000
0.000000 0.000000 0.000000
-0.006771 0.002023 0.000000
0.002023 -0.005031 0.000000
0.000000 0.000000 0.000000
-0.012261 -0.010696 0.000000
-0.010696 0.009257 0.000000
0.000000 0.000000 0.000000
0.001318 -0.004381 0.000000
-0.004381 0.000795 0.000000
0.000000 0.000000 0.000000
0.021259 0.003293 0.000000
0.003293 0.020864 0.000000
0.000000 0.000000 0.000000
0.003038 0.004645 0.000000
0.004645 0.026876 0.000000
0.000000 0.000000 0.000000
0.002546 0.002234 0.000000
0.002234 0.008524 0.000000
0.000000 0.000000 0.000000
0.011076 0.000770 0.000000
0.000770 -0.003385 0.000000
0.000000 0.000000 0.000000
0.010086 -0.003239 0.000000
-0.003239 -0.013938 0.000000
0.000000 0.000000 0.000000
0.005388 0.004343 0.000000
0.004343 0.021252 0.000000
0.000000 0.000000 0.000000
-0.024610 -0.012136 0.000000
-0.012136 -0.002626 0.000000
0.000000 0.000000 0.000000
-0.011244 -0.012075 0.000000
-0.012075 -0.002052 0.000000
0.000000 0.000000 0.000000
-0.003526 -0.005286 0.000000
-0.005286 -0.000495 0.000000
0.000000 0.000000 0.000000
0.000028 0.002846 0.000000
0.002846 0.006484 0.000000
0.000000 0.000000 0.000000
-0.001063 0.002581 0.000000
0.002581 -0.005701 0.000000
0.000000 0.000000 0.000000
0.000690 0.003198 0.000000
0.003198 0.004904 0.000000
0.000000 0.000000 0.000000
0.000695 0.003228 0.000000
0.003228 0.006024 0.000000
0.000000 0.000000 0.000000
0.001294 0.004461 0.000000
0.004461 0.005529 0.000000
0.000000 0.000000 0.000000
0.024114 -0.004234 0.000000
-0.004234 -0.015167 0.000000
0.000000 0.000000 0.000000
-0.000366 0.006420 0.000000
0.006420 0.002476 0.000000
0.000000 0.000000 0.000000
-0.010655 0.001160 0.000000
0.001160 -0.016080 0.000000
0.000000 0.000000 0.000000
-0.003155 -0.002247 0.000000
-0.002247 -0.016784 0.000000
0.000000 0.000000 0.000000
-0.002822 0.004261 0.000000
0.004261 -0.005861 0.000000
0.000000 0.000000 0.000000
-0.005860 0.008084 0.000000
0.008084 -0.006104 0.000000
0.000000 0.000000 0.000000
-0.014289 0.005571 0.000000
0.005571 -0.002102 0.000000
0.000000 0.000000 0.000000
0.007244 0.003244 0.000000
0.003244 0.004187 0.000000
0.000000 0.000000 0.000000
-0.013564 -0.000363 0.000000
-0.000363 -0.016311 0.000000
0.000000 0.000000 0.000000
-0.046251 0.002448 0.000000
0.002448 0.010072 0.000000
0.000000 0.000000 0.000000
-0.021744 -0.003927 0.000000
-0.003927 0.018837 0.000000
0.000000 0.000000 0.000000
0.029056 -0.017175 0.000000
-0.017175 0.001141 0.000000
0.000000 0.000000 0.000000
0.025765 -0.015835 0.000000
-0.015835 -0.000830 0.000000
0.000000 0.000000 0.000000
-0.006810 -0.003660 0.000000
-0.003660 0.022496 0.000000
0.000000 0.000000 0.000000
-0.014049 -0.007699 0.000000
-0.007699 0.018846 0.000000
0.000000 0.000000 0.000000
0.026719 0.006880 0.000000
0.006880 -0.015765 0.000000
0.000000 0.000000 0.000000
-0.014113 0.000214 0.000000
0.000214 -0.023995 0.000000
0.000000 0.000000 0.000000
-0.012229 0.002017 0.000000
0.002017 -0.018290 0.000000
0.000000 0.000000 0.000000
0.023184 0.000361 0.000000
0.000361 0.010331 0.000000
0.000000 0.000000 0.000000
-0.007433 -0.015969 0.000000
-0.015969 -0.008601 0.000000
0.000000 0.000000 0.000000
-0.025867 -0.009562 0.000000
-0.009562 0.028900 0.000000
0.000000 0.000000 0.000000
-0.003213 0.004726 0.000000
0.004726 0.016951 0.000000
0.000000 0.000000 0.000000
-0.017646 0.006310 0.000000
0.006310 -0.007371 0.000000
0.000000 0.000000 0.000000
-0.013005 0.002455 0.000000
0.002455 -0.009205 0.000000
0.000000 0.000000 0.000000
0.005672 0.004588 0.000000
0.004588 0.000578 0.000000
0.000000 0.000000 0.000000
-0.009586 0.018316 0.000000
0.018316 -0.015795 0.000000
0.000000 0.000000 0.000000
0.006691 0.011289 0.000000
0.011289 -0.004526 0.000000
0.000000 0.000000 0.000000
0.016712 0.006666 0.000000
0.006666 0.020526 0.000000
0.000000 0.000000 0.000000
0.004698 0.012897 0.000000
0.012897 0.013055 0.000000
0.000000 0.000000 0.000000
0.001402 -0.008359 0.000000
-0.008359 -0.009694 0.000000
0.000000 0.000000 0.000000
0.004255 -0.004651 0.000000
-0.004651 -0.001922 0.000000
0.000000 0.000000 0.000000
0.013345 0.000753 0.000000
0.000753 0.007493 0.000000
0.000000 0.000000 0.000000
0.005193 0.004944 0.000000
0.004944 -0.000539 0.000000
0.000000 0.000000 0.000000
-0.009660 -0.006735 0.000000
-0.006735 -0.009575 0.000000
0.000000 0.000000 0.000000
-0.006827 -0.008980 0.000000
-0.008980 -0.012847 0.000000
0.000000 0.000000 0.000000
0.012202 -0.009062 0.000000
-0.009062 0.021070 0.000000
0.000000 0.000000 0.000000
0.020655 -0.006215 0.000000
-0.006215 0.006183 0.000000
0.000000 0.000000 0.000000
0.006466 -0.005224 0.000000
-0.005224 0.009685 0.000000
0.000000 0.000000 0.000000
-0.008347 0.005014 0.000000
0.005014 0.000430 0.000000
0.000000 0.000000 0.000000
-0.006356 -0.004363 0.000000
-0.004363 -0.016118 0.000000
0.000000 0.000000 0.000000
-0.003627 0.009872 0.000000
0.009872 -0.010525 0.000000
0.000000 0.000000 0.000000
0.015888 -0.001635 0.000000
-0.001635 0.001189 0.000000
0.000000 0.000000 0.000000
-0.003810 -0.002191 0.000000
-0.002191 0.001634 0.000000
0.000000 0.000000 0.000000
0.019973 0.013625 0.000000
0.013625 0.004946 0.000000
0.000000 0.000000 0.000000
0.016537 0.001520 0.000000
0.001520 0.006381 0.000000
0.000000 0.000000 0.000000
0.007009 0.003881 0.000000
0.003881 0.002618 0.000000
0.000000 0.000000 0.000000
0.005954 0.019075 0.000000
0.019075 -0.000982 0.000000
0.000000 0.000000 0.000000
0.004988 0.003765 0.000000
0.003765 0.004444 0.000000
0.000000 0.000000 0.000000
0.006142 0.003886 0.000000
0.003886 0.008309 0.000000
0.000000 0.000000 0.000000
0.007895 0.002751 0.000000
0.002751 -0.013878 0.000000
0.000000 0.000000 0.000000
-0.009936 0.006013 0.000000
0.006013 0.014642 0.000000
0.000000 0.000000 0.000000
0.008010 0.003493 0.000000
0.003493 -0.014252 0.000000
0.000000 0.000000 0.000000
0.009918 -0.007568 0.000000
-0.007568 0.007234 0.000000
0.000000 0.000000 0.000000
0.012593 -0.009083 0.000000
-0.009083 0.007926 0.000000
0.000000 0.000000 0.000000
-0.000708 -0.004206 0.000000
-0.004206 -0.002915 0.000000
0.000000 0.000000 0.000000
0.000304 -0.001780 0.000000
-0.001780 -0.002265 0.000000
0.000000 0.000000 0.000000
-0.006027 -0.005438 0.000000
-0.005438 -0.000468 0.000000
0.000000 0.000000 0.000000
-0.012507 0.000107 0.000000
0.000107 -0.007984 0.000000
0.000000 0.000000 0.000000
-0.007941 0.004592 0.000000
0.004592 -0.029770 0.000000
0.000000 0.000000 0.000000
0.030113 -0.002957 0.000000
-0.002957 -0.016999 0.000000
0.000000 0.000000 0.000000
0.011855 0.005189 0.000000
0.005189 0.002336 0.000000
0.000000 0.000000 0.000000
0.012840 0.003029 0.000000
0.003029 0.003882 0.000000
0.000000 0.000000 0.000000
-0.012086 -0.001787 0.000000
-0.001787 -0.005929 0.000000
0.000000 0.000000 0.000000
-0.010761 -0.003384 0.000000
-0.003384 -0.006829 0.000000
0.000000 0.000000 0.000000
0.007243 0.005110 0.000000
0.005110 -0.014728 0.000000
0.000000 0.000000 0.000000
0.009416 0.003972 0.000000
0.003972 -0.008331 0.000000
0.000000 0.000000 0.000000
-0.002723 0.004743 0.000000
0.004743 -0.007279 0.000000
0.000000 0.000000 0.000000
-0.000526 0.002870 0.000000
0.002870 0.002623 0.000000
0.000000 0.000000 0.000000
-0.002123 -0.001446 0.000000
-0.001446 -0.001747 0.000000
0.000000 0.000000 0.000000
0.000008 0.007435 0.000000
0.007435 -0.005611 0.000000
0.000000 0.000000 0.000000
0.004060 -0.002969 0.000000
-0.002969 0.012591 0.000000
0.000000 0.000000 0.000000
-0.002989 0.002346 0.000000
0.002346 -0.013971 0.000000
0.000000 0.000000 0.000000
-0.011347 -0.003130 0.000000
-0.003130 -0.012672 0.000000
0.000000 0.000000 0.000000
-0.014916 -0.004819 0.000000
-0.004819 0.012830 0.000000
0.000000 0.000000 0.000000
-0.004707 0.002074 0.000000
0.002074 -0.002554 0.000000
0.000000 0.000000 0.000000
0.018713 -0.000981 0.000000
-0.000981 0.001262 0.000000
0.000000 0.000000 0.000000
0.007741 0.003632 0.000000
0.003632 -0.017625 0.000000
0.000000 0.000000 0.000000
0.003425 0.014510 0.000000
0.014510 0.014652 0.000000
0.000000 0.000000 0.000000
0.016408 -0.002852 0.000000
-0.002852 -0.010184 0.000000
0.000000 0.000000 0.000000
0.007120 0.004627 0.000000
0.004627 -0.015006 0.000000
0.000000 0.000000 0.000000
0.000247 -0.000629 0.000000
-0.000629 -0.000058 0.000000
0.000000 0.000000 0.000000
-0.006427 0.009807 0.000000
0.009807 -0.013190 0.000000
0.000000 0.000000 0.000000
-0.007049 -0.003060 0.000000
-0.003060 -0.000128 0.000000
0.000000 0.000000 0.000000
-0.010720 0.008681 0.000000
0.008681 -0.011995 0.000000
0.000000 0.000000 0.000000
-0.015732 0.005288 0.000000
0.005288 -0.019345 0.000000
0.000000 0.000000 0.000000
-0.018258 0.005473 0.000000
0.005473 -0.029921 0.000000
0.000000 0.000000 0.000000
-0.001844 0.003623 0.000000
0.003623 -0.004637 0.000000
0.000000 0.000000 0.000000
-0.010760 0.004133 0.000000
0.004133 -0.006431 0.000000
0.000000 0.000000 0.000000
-0.008302 0.005326 0.000000
0.005326 0.005921 0.000000
0.000000 0.000000 0.000000
0.016774 -0.012300 0.000000
-0.012300 0.010297 0.000000
0.000000 0.000000 0.000000
-0.012605 0.006607 0.000000
0.006607 -0.029340 0.000000
0.000000 0.000000 0.000000
-0.014326 -0.001392 0.000000
-0.001392 -0.020664 0.000000
0.000000 0.000000 0.000000
-0.003694 0.000909 0.000000
0.000909 -0.010668 0.000000
0.000000 0.000000 0.000000
0.016878 -0.004754 0.000000
-0.004754 0.010991 0.000000
0.000000 0.000000 0.000000
0.018439 -0.003916 0.000000
-0.003916 0.025017 0.000000
0.000000 0.000000 0.000000
0.013503 -0.002763 0.000000
-0.002763 -0.014423 0.000000
0.000000 0.000000 0.000000
-0.007908 -0.009492 0.000000
-0.009492 0.001628 0.000000
0.000000 0.000000 0.000000
-0.013819 -0.006015 0.000000
-0.006015 -0.012618 0.000000
0.000000 0.000000 0.000000
0.012591 -0.004012 0.000000
-0.004012 -0.012297 0.000000
0.000000 0.000000 0.000000
-0.000347 0.002185 0.000000
0.002185 -0.014137 0.000000
0.000000 0.000000 0.000000
-0.021410 -0.006130 0.000000
-0.006130 0.006560 0.000000
0.000000 0.000000 0.000000
-0.015817 -0.001623 0.000000
-0.001623 -0.015589 0.000000
0.000000 0.000000 0.000000
-0.018684 -0.000349 0.000000
-0.000349 0.003372 0.000000
0.000000 0.000000 0.000000
-0.015236 -0.001095 0.000000
-0.001095 0.016259 0.000000
0.000000 0.000000 0.000000
0.017714 0.000672 0.000000
0.000672 -0.026923 0.000000
0.000000 0.000000 0.000000
-0.006842 -0.010428 0.000000
-0.010428 0.015550 0.000000
0.000000 0.000000 0.000000
0.021466 0.001516 0.000000
0.001516 -0.014737 0.000000
0.000000 0.000000 0.000000
0.009696 0.005268 0.000000
0.005268 0.007160 0.000000
0.000000 0.000000 0.000000
0.005076 0.004714 0.000000
0.004714 -0.013331 0.000000
0.000000 0.000000 0.000000
-0.003899 -0.000434 0.000000
-0.000434 0.000402 0.000000
0.000000 0.000000 0.000000
-0.001162 -0.002867 0.000000
-0.002867 0.003133 0.000000
0.000000 0.000000 0.000000
0.002699 0.007124 0.000000
0.007124 -0.005720 0.000000
0.000000 0.000000 0.000000
-0.004292 -0.002425 0.000000
-0.002425 -0.006425 0.000000
0.000000 0.000000 0.000000
0.006992 0.005678 0.000000
0.005678 -0.015330 0.000000
0.000000 0.000000 0.000000
0.002957 -0.000352 0.000000
-0.000352 -0.007673 0.000000
0.000000 0.000000 0.000000
-0.004473 0.000084 0.000000
0.000084 0.026375 0.000000
0.000000 0.000000 0.000000
-0.014656 -0.001122 0.000000
-0.001122 0.023075 0.000000
0.000000 0.000000 0.000000
-0.008585 -0.001712 0.000000
-0.001712 -0.034464 0.000000
0.000000 0.000000 0.000000
-0.005338 0.000274 0.000000
0.000274 -0.026377 0.000000
0.000000 0.000000 0.000000
-0.005482 0.001199 0.000000
0.001199 -0.012870 0.000000
0.000000 0.000000 0.000000
0.002757 0.000341 0.000000
0.000341 0.017757 0.000000
0.000000 0.000000 0.000000
0.018791 -0.011004 0.000000
-0.011004 0.002856 0.000000
0.000000 0.000000 0.000000
-0.006709 0.010783 0.000000
0.010783 -0.024707 0.000000
0.000000 0.000000 0.000000
-0.004363 0.009352 0.000000
0.009352 -0.007688 0.000000
0.000000 0.000000 0.000000
0.000633 0.010183 0.000000
0.010183 0.009454 0.000000
0.000000 0.000000 0.000000
0.003509 -0.007773 0.000000
-0.007773 0.019974 0.000000
0.000000 0.000000 0.000000
0.002127 0.000822 0.000000
0.000822 -0.002878 0.000000
0.000000 0.000000 0.000000
-0.001498 -0.006304 0.000000
-0.006304 -0.002567 0.000000
0.000000 0.000000 0.000000
-0.000849 -0.000529 0.000000
-0.000529 -0.011534 0.000000
0.000000 0.000000 0.000000
-0.024205 0.003062 0.000000
0.003062 -0.009066 0.000000
0.000000 0.000000 0.000000
0.013960 -0.003492 0.000000
-0.003492 -0.001872 0.000000
0.000000 0.000000 0.000000
0.004604 0.006936 0.000000
0.006936 -0.007917 0.000000
0.000000 0.000000 0.000000
0.003106 -0.003426 0.000000
-0.003426 -0.001077 0.000000
0.000000 0.000000 0.000000
0.021835 -0.003652 0.000000
-0.003652 0.006885 0.000000
0.000000 0.000000 0.000000
0.022108 -0.002340 0.000000
-0.002340 0.007788 0.000000
0.000000 0.000000 0.000000
0.006423 -0.010125 0.000000
-0.010125 0.003265 0.000000
0.000000 0.000000 0.000000
-0.023246 0.001924 0.000000
0.001924 -0.003449 0.000000
0.000000 0.000000 0.000000
-0.016111 -0.012180 0.000000
-0.012180 0.006087 0.000000
0.000000 0.000000 0.000000
-0.008010 -0.001128 0.000000
-0.001128 0.011019 0.000000
0.000000 0.000000 0.000000
0.010592 0.001963 0.000000
0.001963 -0.009237 0.000000
0.000000 0.000000 0.000000
0.010428 0.000738 0.000000
0.000738 0.004461 0.000000
0.000000 0.000000 0.000000
0.001223 0.003426 0.000000
0.003426 0.004094 0.000000
0.000000 0.000000 0.000000
-0.000752 0.001587 0.000000
0.001587 0.001881 0.000000
0.000000 0.000000 0.000000
0.017542 -0.003213 0.000000
-0.003213 -0.006724 0.000000
0.000000 0.000000 0.000000
0.011721 0.000861 0.000000
0.000861 -0.009956 0.000000
0.000000 0.000000 0.000000
0.018825 -0.001036 0.000000
-0.001036 -0.003625 0.000000
0.000000 0.000000 0.000000
-0.018915 -0.006463 0.000000
-0.006463 -0.000266 0.000000
0.000000 0.000000 0.000000
-0.016392 -0.005022 0.000000
-0.005022 0.008380 0.000000
0.000000 0.000000 0.000000
-0.009182 -0.003327 0.000000
-0.003327 -0.011217 0.000000
0.000000 0.000000 0.000000
0.012833 0.010245 0.000000
0.010245 0.001848 0.000000
0.000000 0.000000 0.000000
-0.016252 0.015527 0.000000
0.015527 -0.008284 0.000000
0.000000 0.000000 0.000000
0.007013 -0.000903 0.000000
-0.000903 0.002759 0.000000
0.000000 0.000000 0.000000
0.002064 0.007831 0.000000
0.007831 0.014890 0.000000
0.000000 0.000000 0.000000
0.001863 0.000111 0.000000
0.000111 -0.001771 0.000000
0.000000 0.000000 0.000000
-0.011557 -0.008144 0.000000
-0.008144 -0.018939 0.000000
0.000000 0.000000 0.000000
-0.015056 0.002084 0.000000
0.002084 0.007730 0.000000
0.000000 0.000000 0.000000
-0.009553 0.010665 0.000000
0.010665 0.002853 0.000000
0.000000 0.000000 0.000000
0.002766 -0.002366 0.000000
-0.002366 -0.017886 0.000000
0.000000 0.000000 0.000000
0.004409 0.000645 0.000000
0.000645 -0.008456 0.000000
0.000000 0.000000 0.000000
-0.023043 0.013395 0.000000
0.013395 -0.008655 0.000000
0.000000 0.000000 0.000000
-0.029119 0.009520 0.000000
0.009520 -0.031177 0.000000
0.000000 0.000000 0.000000
-0.003916 -0.003475 0.000000
-0.003475 -0.010310 0.000000
0.000000 0.000000 0.000000
-0.000138 0.018917 0.000000
0.018917 0.000751 0.000000
0.000000 0.000000 0.000000
0.008387 0.006630 0.000000
0.006630 0.017461 0.000000
0.000000 0.000000 0.000000
0.000207 0.001992 0.000000
0.001992 -0.016154 0.000000
0.000000 0.000000 0.000000
-0.000480 -0.002585 0.000000
-0.002585 -0.002729 0.000000
0.000000 0.000000 0.000000
0.004907 -0.005288 0.000000
-0.005288 -0.008027 0.000000
0.000000 0.000000 0.000000
0.002662 0.004922 0.000000
0.004922 -0.012874 0.000000
0.000000 0.000000 0.000000
-0.002898 0.000980 0.000000
0.000980 0.005032 0.000000
0.000000 0.000000 0.000000
0.006747 -0.000040 0.000000
-0.000040 0.003054 0.000000
0.000000 0.000000 0.000000
-0.001124 -0.001914 0.000000
-0.001914 0.004346 0.000000
0.000000 0.000000 0.000000
-0.004410 0.004206 0.000000
0.004206 -0.015032 0.000000
0.000000 0.000000 0.000000
0.003256 0.005441 0.000000
0.005441 0.005457 0.000000
0.000000 0.000000 0.000000
0.004282 0.000768 0.000000
0.000768 0.006601 0.000000
0.000000 0.000000 0.000000
0.002375 -0.001138 0.000000
-0.001138 0.002719 0.000000
0.000000 0.000000 0.000000
-0.013238 0.008510 0.000000
0.008510 -0.021561 0.000000
0.000000 0.000000 0.000000
-0.001354 -0.003262 0.000000
-0.003262 -0.012079 0.000000
0.000000 0.000000 0.000000
-0.002048 -0.010935 0.000000
-0.010935 -0.013319 0.000000
0.000000 0.000000 0.000000
0.004942 0.003014 0.000000
0.003014 0.016463 0.000000
0.000000 0.000000 0.000000
0.000906 -0.001404 0.000000
-0.001404 -0.009891 0.000000
0.000000 0.000000 0.000000
-0.005446 0.000278 0.000000
0.000278 -0.009366 0.000000
0.000000 0.000000 0.000000
0.002168 0.005292 0.000000
0.005292 0.010343 0.000000
0.000000 0.000000 0.000000
0.005435 0.002852 0.000000
0.002852 0.002880 0.000000
0.000000 0.000000 0.000000
-0.012575 0.007458 0.000000
0.007458 -0.022940 0.000000
0.000000 0.000000 0.000000
-0.013650 -0.008735 0.000000
-0.008735 -0.017528 0.000000
0.000000 0.000000 0.000000
0.008666 -0.001521 0.000000
-0.001521 0.014147 0.000000
0.000000 0.000000 0.000000
-0.013601 0.005831 0.000000
0.005831 -0.020592 0.000000
0.000000 0.000000 0.000000
0.008279 0.011697 0.000000
0.011697 0.000644 0.000000
0.000000 0.000000 0.000000
-0.004692 0.004630 0.000000
0.004630 -0.000530 0.000000
0.000000 0.000000 0.000000
0.007846 -0.008795 0.000000
-0.008795 -0.024889 0.000000
0.000000 0.000000 0.000000
-0.014960 0.003407 0.000000
0.003407 -0.014517 0.000000
0.000000 0.000000 0.000000
-0.014625 0.004394 0.000000
0.004394 -0.012142 0.000000
0.000000 0.000000 0.000000
-0.005755 -0.001527 0.000000
-0.001527 -0.007121 0.000000
0.000000 0.000000 0.000000
-0.003559 -0.007374 0.000000
-0.007374 0.003883 0.000000
0.000000 0.000000 0.000000
-0.004386 -0.000056 0.000000
-0.000056 -0.007291 0.000000
0.000000 0.000000 0.000000
-0.005269 -0.001973 0.000000
-0.001973 -0.007232 0.000000
0.000000 0.000000 0.000000
-0.000235 0.001694 0.000000
0.001694 0.001512 0.000000
0.000000 0.000000 0.000000
0.001887 -0.000163 0.000000
-0.000163 0.012964 0.000000
0.000000 0.000000 0.000000
0.001899 -0.004758 0.000000
-0.004758 0.005030 0.000000
0.000000 0.000000 0.000000
0.006670 -0.001860 0.000000
-0.001860 0.008974 0.000000
0.000000 0.000000 0.000000
-0.018674 -0.000253 0.000000
-0.000253 0.001295 0.000000
0.000000 0.000000 0.000000
0.003715 -0.000222 0.000000
-0.000222 0.006569 0.000000
0.000000 0.000000 0.000000
0.010557 -0.004565 0.000000
-0.004565 -0.005091 0.000000
0.000000 0.000000 0.000000
-0.005881 -0.004770 0.000000
-0.004770 0.005806 0.000000
0.000000 0.000000 0.000000
-0.008268 -0.002463 0.000000
-0.002463 0.007920 0.000000
0.000000 0.000000 0.000000
0.004159 -0.005814 0.000000
-0.005814 -0.010848 0.000000
0.000000 0.000000 0.000000
0.011455 0.002412 0.000000
0.002412 0.018312 0.000000
0.000000 0.000000 0.000000
-0.007908 -0.004692 0.000000
-0.004692 0.008971 0.000000
0.000000 0.000000 0.000000
0.014598 -0.007479 0.000000
-0.007479 -0.003091 0.000000
0.000000 0.000000 0.000000
0.002914 -0.003182 0.000000
-0.003182 0.002457 0.000000
0.000000 0.000000 0.000000
-0.004845 0.003240 0.000000
0.003240 -0.005030 0.000000
0.000000 0.000000 0.000000
0.009612 0.006142 0.000000
0.006142 0.021548 0.000000
0.000000 0.000000 0.000000
0.000555 -0.001826 0.000000
-0.001826 -0.008770 0.000000
0.000000 0.000000 0.000000
-0.000706 0.007050 0.000000
0.007050 -0.000646 0.000000
0.000000 0.000000 0.000000
0.004375 -0.002282 0.000000
-0.002282 0.006219 0.000000
0.000000 0.000000 0.000000
-0.001580 -0.002131 0.000000
-0.002131 0.003003 0.000000
0.000000 0.000000 0.000000
-0.001880 -0.001346 0.000000
-0.001346 0.014748 0.000000
0.000000 0.000000 0.000000
0.002393 -0.005397 0.000000
-0.005397 0.015335 0.000000
0.000000 0.000000 0.000000
0.002036 -0.000392 0.000000
-0.000392 0.005632 0.000000
0.000000 0.000000 0.000000
-0.000085 -0.002009 0.000000
-0.002009 0.009666 0.000000
0.000000 0.000000 0.000000
0.010176 0.003015 0.000000
0.003015 0.001946 0.000000
0.000000 0.000000 0.000000
0.005548 0.000553 0.000000
0.000553 -0.031855 0.000000
0.000000 0.000000 0.000000
0.010094 0.023787 0.000000
0.023787 -0.002645 0.000000
0.000000 0.000000 0.000000
0.016531 0.019929 0.000000
0.019929 -0.003801 0.000000
0.000000 0.000000 0.000000
0.000294 0.000379 0.000000
0.000379 0.000435 0.000000
0.000000 0.000000 0.000000
-0.000836 -0.004495 0.000000
-0.004495 -0.005729 0.000000
0.000000 0.000000 0.000000
0.004360 -0.003772 0.000000
-0.003772 -0.004225 0.000000
0.000000 0.000000 0.000000
-0.010620 0.003841 0.000000
0.003841 -0.002739 0.000000
0.000000 0.000000 0.000000
0.004864 0.002165 0.000000
0.002165 0.000984 0.000000
0.000000 0.000000 0.000000
-0.001203 0.000860 0.000000
0.000860 -0.002768 0.000000
0.000000 0.000000 0.000000
-0.004525 0.000640 0.000000
0.000640 -0.000659 0.000000
0.000000 0.000000 0.000000
0.002357 -0.003232 0.000000
-0.003232 -0.014753 0.000000
0.000000 0.000000 0.000000
-0.005603 0.003726 0.000000
0.003726 0.001247 0.000000
0.000000 0.000000 0.000000
-0.005860 -0.001996 0.000000
-0.001996 0.022235 0.000000
0.000000 0.000000 0.000000
-0.001306 0.013030 0.000000
0.013030 0.018876 0.000000
0.000000 0.000000 0.000000
-0.015513 0.005276 0.000000
0.005276 -0.019497 0.000000
0.000000 0.000000 0.000000
0.023187 0.022968 0.000000
0.022968 -0.017863 0.000000
0.000000 0.000000 0.000000
0.015083 0.022923 0.000000
0.022923 0.004707 0.000000
0.000000 0.000000 0.000000
-0.001452 0.002822 0.000000
0.002822 -0.001987 0.000000
0.000000 0.000000 0.000000
-0.000629 0.003377 0.000000
0.003377 -0.001159 0.000000
0.000000 0.000000 0.000000
0.014921 0.005779 0.000000
0.005779 -0.002645 0.000000
0.000000 0.000000 0.000000
0.024704 -0.001441 0.000000
-0.001441 0.003178 0.000000
0.000000 0.000000 0.000000
0.005110 -0.002095 0.000000
-0.002095 -0.005456 0.000000
0.000000 0.000000 0.000000
-0.018012 0.002261 0.000000
0.002261 -0.002049 0.000000
0.000000 0.000000 0.000000
0.002897 0.000428 0.000000
0.000428 0.012267 0.000000
0.000000 0.000000 0.000000
0.002811 0.001637 0.000000
0.001637 0.016013 0.000000
0.000000 0.000000 0.000000
-0.022698 -0.004915 0.000000
-0.004915 -0.016830 0.000000
0.000000 0.000000 0.000000
-0.019660 -0.010400 0.000000
-0.010400 0.001088 0.000000
0.000000 0.000000 0.000000
-0.003841 0.003745 0.000000
0.003745 -0.001766 0.000000
0.000000 0.000000 0.000000
0.004041 0.008340 0.000000
0.008340 0.007364 0.000000
0.000000 0.000000 0.000000
-0.017573 0.008404 0.000000
0.008404 -0.012920 0.000000
0.000000 0.000000 0.000000
0.012877 0.005576 0.000000
0.005576 0.009112 0.000000
0.000000 0.000000 0.000000
-0.003740 0.002621 0.000000
0.002621 -0.000561 0.000000
0.000000 0.000000 0.000000
0.002780 -0.001313 0.000000
-0.001313 -0.000022 0.000000
0.000000 0.000000 0.000000
0.005652 -0.000487 0.000000
-0.000487 -0.008258 0.000000
0.000000 0.000000 0.000000
0.007728 0.000861 0.000000
0.000861 0.025232 0.000000
0.000000 0.000000 0.000000
0.017210 0.020407 0.000000
0.020407 0.010393 0.000000
0.000000 0.000000 0.000000
0.003038 -0.003033 0.000000
-0.003033 0.012608 0.000000
0.000000 0.000000 0.000000
0.006904 -0.001551 0.000000
-0.001551 0.017705 0.000000
0.000000 0.000000 0.000000
-0.018097 0.007248 0.000000
0.007248 -0.000529 0.000000
0.000000 0.000000 0.000000
-0.002119 -0.002252 0.000000
-0.002252 0.009040 0.000000
0.000000 0.000000 0.000000
0.005658 0.006761 0.000000
0.006761 -0.009590 0.000000
0.000000 0.000000 0.000000
0.003485 -0.011303 0.000000
-0.011303 -0.005320 0.000000
0.000000 0.000000 0.000000
-0.003248 0.011833 0.000000
0.011833 0.007936 0.000000
0.000000 0.000000 0.000000
0.001029 0.024018 0.000000
0.024018 0.014013 0.000000
0.000000 0.000000 0.000000
-0.009562 0.007343 0.000000
0.007343 -0.003916 0.000000
0.000000 0.000000 0.000000
0.016058 0.000619 0.000000
0.000619 0.005571 0.000000
0.000000 0.000000 0.000000
-0.006009 0.001902 0.000000
0.001902 -0.020987 0.000000
0.000000 0.000000 0.000000
-0.006573 -0.001798 0.000000
-0.001798 -0.006750 0.000000
0.000000 0.000000 0.000000
0.005310 -0.004220 0.000000
-0.004220 0.030104 0.000000
0.000000 0.000000 0.000000
0.011497 -0.011508 0.000000
-0.011508 0.011856 0.000000
0.000000 0.000000 0.000000
-0.002499 0.001777 0.000000
0.001777 -0.002086 0.000000
0.000000 0.000000 0.000000
0.001108 -0.000234 0.000000
-0.000234 -0.001791 0.000000
0.000000 0.000000 0.000000
-0.007498 -0.003039 0.000000
-0.003039 -0.022951 0.000000
0.000000 0.000000 0.000000
-0.010953 -0.005053 0.000000
-0.005053 -0.026599 0.000000
0.000000 0.000000 0.000000
-0.026548 -0.006709 0.000000
-0.006709 0.007230 0.000000
0.000000 0.000000 0.000000
-0.028789 -0.016129 0.000000
-0.016129 -0.009648 0.000000
0.000000 0.000000 0.000000
0.003264 -0.002486 0.000000
-0.002486 -0.001513 0.000000
0.000000 0.000000 0.000000
-0.003735 -0.005308 0.000000
-0.005308 -0.000144 0.000000
0.000000 0.000000 0.000000
-0.000857 0.001602 0.000000
0.001602 -0.002515 0.000000
0.000000 0.000000 0.000000
0.000283 -0.002700 0.000000
-0.002700 -0.002010 0.000000
0.000000 0.000000 0.000000
0.018217 0.002000 0.000000
0.002000 -0.002267 0.000000
0.000000 0.000000 0.000000
0.003590 -0.005186 0.000000
-0.005186 -0.008319 0.000000
0.000000 0.000000 0.000000
-0.006841 0.004168 0.000000
0.004168 -0.027652 0.000000
0.000000 0.000000 0.000000
0.000340 0.005716 0.000000
0.005716 0.002082 0.000000
0.000000 0.000000 0.000000
-0.013799 0.004121 0.000000
0.004121 -0.028344 0.000000
0.000000 0.000000 0.000000
-0.006134 -0.001078 0.000000
-0.001078 -0.002280 0.000000
0.000000 0.000000 0.000000
0.003789 0.000505 0.000000
0.000505 -0.012803 0.000000
0.000000 0.000000 0.000000
0.018426 0.001554 0.000000
0.001554 -0.016060 0.000000
0.000000 0.000000 0.000000
0.002836 -0.002237 0.000000
-0.002237 0.008213 0.000000
0.000000 0.000000 0.000000
0.001476 -0.003458 0.000000
-0.003458 0.004032 0.000000
0.000000 0.000000 0.000000
-0.003198 -0.005518 0.000000
-0.005518 0.022282 0.000000
0.000000 0.000000 0.000000
-0.005742 0.004930 0.000000
0.004930 -0.015752 0.000000
0.000000 0.000000 0.000000
0.010220 -0.006226 0.000000
-0.006226 -0.004874 0.000000
0.000000 0.000000 0.000000
-0.000364 0.028275 0.000000
0.028275 -0.003576 0.000000
0.000000 0.000000 0.000000
0.005657 -0.000984 0.000000
-0.000984 -0.024938 0.000000
0.000000 0.000000 0.000000
-0.000427 0.001584 0.000000
0.001584 -0.001644 0.000000
0.000000 0.000000 0.000000
0.001056 0.000442 0.000000
0.000442 0.000146 0.000000
0.000000 0.000000 0.000000
0.009479 -0.003329 0.000000
-0.003329 -0.002411 0.000000
0.000000 0.000000 0.000000
0.005381 0.004105 0.000000
0.004105 0.001095 0.000000
0.000000 0.000000 0.000000
-0.000823 -0.015802 0.000000
-0.015802 0.001903 0.000000
0.000000 0.000000 0.000000
-0.000236 -0.000994 0.000000
-0.000994 0.009494 0.000000
0.000000 0.000000 0.000000
0.000208 -0.000948 0.000000
-0.000948 0.015567 0.000000
0.000000 0.000000 0.000000
0.012532 -0.000647 0.000000
-0.000647 0.012243 0.000000
0.000000 0.000000 0.000000
0.012858 -0.001356 0.000000
-0.001356 0.009877 0.000000
0.000000 0.000000 0.000000
-0.004152 0.002834 0.000000
0.002834 0.008187 0.000000
0.000000 0.000000 0.000000
0.006751 -0.006510 0.000000
-0.006510 0.002276 0.000000
0.000000 0.000000 0.000000
-0.004726 -0.011847 0.000000
-0.011847 0.007042 0.000000
0.000000 0.000000 0.000000
0.006172 -0.008502 0.000000
-0.008502 0.034718 0.000000
0.000000 0.000000 0.000000
-0.033031 -0.004920 0.000000
-0.004920 0.023869 0.000000
0.000000 0.000000 0.000000
-0.007674 -0.007381 0.000000
-0.007381 -0.003408 0.000000
0.000000 0.000000 0.000000
-0.013882 0.003140 0.000000
0.003140 0.001105 0.000000
0.000000 0.000000 0.000000
-0.007309 0.006917 0.000000
0.006917 -0.002197 0.000000
0.000000 0.000000 0.000000
-0.012651 0.011492 0.000000
0.011492 0.003230 0.000000
0.000000 0.000000 0.000000
-0.025531 0.024689 0.000000
0.024689 -0.011127 0.000000
0.000000 0.000000 0.000000
-0.017114 0.018621 0.000000
0.018621 -0.004682 0.000000
0.000000 0.000000 0.000000
0.001353 0.001960 0.000000
0.001960 -0.002857 0.000000
0.000000 0.000000 0.000000
0.001483 0.002552 0.000000
0.002552 -0.001666 0.000000
0.000000 0.000000 0.000000
0.009805 -0.000004 0.000000
-0.000004 -0.002431 0.000000
0.000000 0.000000 0.000000
0.008760 -0.002384 0.000000
-0.002384 -0.002182 0.000000
0.000000 0.000000 0.000000
-0.000434 0.000447 0.000000
0.000447 -0.018516 0.000000
0.000000 0.000000 0.000000
0.002155 -0.001647 0.000000
-0.001647 -0.008836 0.000000
0.000000 0.000000 0.000000
-0.000712 -0.000614 0.000000
-0.000614 -0.009022 0.000000
0.000000 0.000000 0.000000
0.004058 -0.001253 0.000000
-0.001253 -0.007517 0.000000
0.000000 0.000000 0.000000
-0.020174 -0.006408 0.000000
-0.006408 0.011602 0.000000
0.000000 0.000000 0.000000
-0.019395 0.000998 0.000000
0.000998 -0.035820 0.000000
0.000000 0.000000 0.000000
-0.015607 0.006914 0.000000
0.006914 -0.009864 0.000000
0.000000 0.000000 0.000000
-0.004037 -0.019556 0.000000
-0.019556 -0.001113 0.000000
0.000000 0.000000 0.000000
-0.003949 0.000903 0.000000
0.000903 -0.023895 0.000000
0.000000 0.000000 0.000000
-0.008858 0.002208 0.000000
0.002208 -0.023642 0.000000
0.000000 0.000000 0.000000
-0.005359 -0.001795 0.000000
-0.001795 -0.010406 0.000000
0.000000 0.000000 0.000000
0.002751 0.000300 0.000000
0.000300 0.012250 0.000000
0.000000 0.000000 0.000000
-0.017350 0.000378 0.000000
0.000378 -0.034575 0.000000
0.000000 0.000000 0.000000
-0.010005 -0.004033 0.000000
-0.004033 -0.017350 0.000000
0.000000 0.000000 0.000000
0.005905 -0.005966 0.000000
-0.005966 0.012072 0.000000
0.000000 0.000000 0.000000
0.000492 -0.004175 0.000000
-0.004175 0.012300 0.000000
0.000000 0.000000 0.000000
0.001672 0.004734 0.000000
0.004734 -0.006769 0.000000
0.000000 0.000000 0.000000
-0.004412 0.001412 0.000000
0.001412 -0.013006 0.000000
0.000000 0.000000 0.000000
0.011476 0.002186 0.000000
0.002186 -0.022625 0.000000
0.000000 0.000000 0.000000
-0.006905 -0.002890 0.000000
-0.002890 -0.017576 0.000000
0.000000 0.000000 0.000000
0.000675 -0.002097 0.000000
-0.002097 -0.005133 0.000000
0.000000 0.000000 0.000000
-0.003459 -0.005096 0.000000
-0.005096 -0.009953 0.000000
0.000000 0.000000 0.000000
0.000740 0.003420 0.000000
0.003420 0.012038 0.000000
0.000000 0.000000 0.000000
0.005956 0.001312 0.000000
0.001312 0.010338 0.000000
0.000000 0.000000 0.000000
-0.003560 0.014058 0.000000
0.014058 0.005601 0.000000
0.000000 0.000000 0.000000
-0.000154 0.003549 0.000000
0.003549 0.011035 0.000000
0.000000 0.000000 0.000000
-0.009583 -0.006847 0.000000
-0.006847 -0.011259 0.000000
0.000000 0.000000 0.000000
-0.008767 -0.003629 0.000000
-0.003629 0.001408 0.000000
0.000000 0.000000 0.000000
-0.007310 0.000529 0.000000
0.000529 -0.004624 0.000000
0.000000 0.000000 0.000000
-0.012553 -0.003449 0.000000
-0.003449 -0.021046 0.000000
0.000000 0.000000 0.000000
-0.007318 -0.000045 0.000000
-0.000045 -0.010797 0.000000
0.000000 0.000000 0.000000
-0.018583 0.003167 0.000000
0.003167 0.000170 0.000000
0.000000 0.000000 0.000000
-0.004351 0.004105 0.000000
0.004105 -0.001472 0.000000
0.000000 0.000000 0.000000
-0.016733 -0.004570 0.000000
-0.004570 -0.005066 0.000000
0.000000 0.000000 0.000000
0.002194 0.002040 0.000000
0.002040 0.010378 0.000000
0.000000 0.000000 0.000000
0.008297 -0.001173 0.000000
-0.001173 0.015190 0.000000
0.000000 0.000000 0.000000
-0.009816 0.003169 0.000000
0.003169 -0.020315 0.000000
0.000000 0.000000 0.000000
0.032308 -0.046048 0.000000
-0.046048 0.006892 0.000000
0.000000 0.000000 0.000000
0.013601 -0.057751 0.000000
-0.057751 0.013231 0.000000
0.000000 0.000000 0.000000
-0.010866 0.004540 0.000000
0.004540 -0.016303 0.000000
0.000000 0.000000 0.000000
-0.018900 0.015927 0.000000
0.015927 0.008718 0.000000
0.000000 0.000000 0.000000
-0.041170 -0.000449 0.000000
-0.000449 0.013008 0.000000
0.000000 0.000000 0.000000
0.000208 0.009758 0.000000
0.009758 -0.018156 0.000000
0.000000 0.000000 0.000000
0.016721 0.016134 0.000000
0.016134 -0.014579 0.000000
0.000000 0.000000 0.000000
-0.004028 0.003471 0.000000
0.003471 -0.004082 0.000000
0.000000 0.000000 0.000000
0.002331 0.001333 0.000000
0.001333 -0.000817 0.000000
0.000000 0.000000 0.000000
0.004687 0.000885 0.000000
0.000885 -0.010862 0.000000
0.000000 0.000000 0.000000
0.020135 0.007891 0.000000
0.007891 0.002973 0.000000
0.000000 0.000000 0.000000
-0.019279 0.007380 0.000000
0.007380 0.013170 0.000000
0.000000 0.000000 0.000000
-0.020376 0.009828 0.000000
0.009828 0.007737 0.000000
0.000000 0.000000 0.000000
-0.005237 0.002757 0.000000
0.002757 0.005519 0.000000
0.000000 0.000000 0.000000
0.004739 0.005472 0.000000
0.005472 0.002673 0.000000
0.000000 0.000000 0.000000
-0.012042 -0.002484 0.000000
-0.002484 0.004311 0.000000
0.000000 0.000000 0.000000
0.018574 -0.011492 0.000000
-0.011492 0.040319 0.000000
0.000000 0.000000 0.000000
0.019892 -0.007929 0.000000
-0.007929 0.042094 0.000000
0.000000 0.000000 0.000000
-0.001731 0.007283 0.000000
0.007283 0.002320 0.000000
0.000000 0.000000 0.000000
0.011985 -0.002443 0.000000
-0.002443 0.000518 0.000000
0.000000 0.000000 0.000000
-0.001188 0.011095 0.000000
0.011095 0.008276 0.000000
0.000000 0.000000 0.000000
-0.003070 0.013945 0.000000
0.013945 0.006019 0.000000
0.000000 0.000000 0.000000
0.005310 0.014397 0.000000
0.014397 0.001925 0.000000
0.000000 0.000000 0.000000
0.011651 0.010559 0.000000
0.010559 0.005982 0.000000
0.000000 0.000000 0.000000
0.011265 -0.000598 0.000000
-0.000598 -0.000424 0.000000
0.000000 0.000000 0.000000
-0.010057 -0.006705 0.000000
-0.006705 -0.009848 0.000000
0.000000 0.000000 0.000000
-0.009087 0.006444 0.000000
0.006444 -0.016337 0.000000
0.000000 0.000000 0.000000
-0.013137 0.001413 0.000000
0.001413 0.003827 0.000000
0.000000 0.000000 0.000000
-0.007679 -0.002123 0.000000
-0.002123 0.018281 0.000000
0.000000 0.000000 0.000000
0.008954 0.004072 0.000000
0.004072 -0.006281 0.000000
0.000000 0.000000 0.000000
0.041881 0.029491 0.000000
0.029491 -0.011836 0.000000
0.000000 0.000000 0.000000
-0.037120 -0.008387 0.000000
-0.008387 0.009107 0.000000
0.000000 0.000000 0.000000
0.011232 0.011167 0.000000
0.011167 -0.001108 0.000000
0.000000 0.000000 0.000000
0.003235 0.000534 0.000000
0.000534 0.004496 0.000000
0.000000 0.000000 0.000000
-0.001212 0.002830 0.000000
0.002830 0.010925 0.000000
0.000000 0.000000 0.000000
-0.005392 0.007161 0.000000
0.007161 -0.002077 0.000000
0.000000 0.000000 0.000000
-0.008467 0.000865 0.000000
0.000865 0.013187 0.000000
0.000000 0.000000 0.000000
-0.010825 -0.006962 0.000000
-0.006962 0.001305 0.000000
0.000000 0.000000 0.000000
-0.003333 0.000256 0.000000
0.000256 -0.007030 0.000000
0.000000 0.000000 0.000000
0.001821 0.001502 0.000000
0.001502 -0.001691 0.000000
0.000000 0.000000 0.000000
-0.015811 0.002757 0.000000
0.002757 -0.011556 0.000000
0.000000 0.000000 0.000000
-0.003294 0.005948 0.000000
0.005948 0.011368 0.000000
0.000000 0.000000 0.000000
0.003759 0.002652 0.000000
0.002652 0.014593 0.000000
0.000000 0.000000 0.000000
0.003431 0.001058 0.000000
0.001058 -0.001255 0.000000
0.000000 0.000000 0.000000
0.003338 0.006625 0.000000
0.006625 -0.000823 0.000000
0.000000 0.000000 0.000000
-0.013867 -0.003755 0.000000
-0.003755 0.012734 0.000000
0.000000 0.000000 0.000000
-0.009274 -0.002354 0.000000
-0.002354 0.009369 0.000000
0.000000 0.000000 0.000000
-0.001583 -0.003717 0.000000
-0.003717 -0.002768 0.000000
0.000000 0.000000 0.000000
0.008332 0.005934 0.000000
0.005934 0.003882 0.000000
0.000000 0.000000 0.000000
0.003430 0.002627 0.000000
0.002627 0.002448 0.000000
0.000000 0.000000 0.000000
-0.000257 0.003908 0.000000
0.003908 -0.013141 0.000000
0.000000 0.000000 0.000000
-0.006253 -0.003613 0.000000
-0.003613 0.011196 0.000000
0.000000 0.000000 0.000000
0.003190 0.002788 0.000000
0.002788 -0.002815 0.000000
0.000000 0.000000 0.000000
-0.005421 -0.006520 0.000000
-0.006520 0.005949 0.000000
0.000000 0.000000 0.000000
-0.004988 0.008123 0.000000
0.008123 -0.006943 0.000000
0.000000 0.000000 0.000000
0.009171 0.004241 0.000000
0.004241 -0.003174 0.000000
0.000000 0.000000 0.000000
-0.017727 -0.011917 0.000000
-0.011917 -0.029113 0.000000
0.000000 0.000000 0.000000
0.003008 0.003882 0.000000
0.003882 -0.000939 0.000000
0.000000 0.000000 0.000000
0.011287 0.006696 0.000000
0.006696 0.016369 0.000000
0.000000 0.000000 0.000000
-0.003817 -0.000070 0.000000
-0.000070 -0.010508 0.000000
0.000000 0.000000 0.000000
0.001840 0.003220 0.000000
0.003220 0.017094 0.000000
0.000000 0.000000 0.000000
-0.006487 -0.005906 0.000000
-0.005906 -0.002285 0.000000
0.000000 0.000000 0.000000
0.017020 0.007193 0.000000
0.007193 -0.008636 0.000000
0.000000 0.000000 0.000000
0.008329 0.004645 0.000000
0.004645 -0.002611 0.000000
0.000000 0.000000 0.000000
-0.006757 0.002363 0.000000
0.002363 -0.004415 0.000000
0.000000 0.000000 0.000000
0.000519 -0.002516 0.000000
-0.002516 -0.005020 0.000000
0.000000 0.000000 0.000000
-0.004247 -0.001037 0.000000
-0.001037 -0.000481 0.000000
0.000000 0.000000 0.000000
0.004797 -0.000381 0.000000
-0.000381 0.012321 0.000000
0.000000 0.000000 0.000000
0.001996 0.002146 0.000000
0.002146 0.002552 0.000000
0.000000 0.000000 0.000000
0.002876 -0.004260 0.000000
-0.004260 0.007942 0.000000
0.000000 0.000000 0.000000
-0.003677 0.002397 0.000000
0.002397 0.001446 0.000000
0.000000 0.000000 0.000000
-0.010091 0.006892 0.000000
0.006892 -0.000430 0.000000
0.000000 0.000000 0.000000
-0.021979 -0.017200 0.000000
-0.017200 0.012427 0.000000
0.000000 0.000000 0.000000
-0.028657 -0.017942 0.000000
-0.017942 -0.010668 0.000000
0.000000 0.000000 0.000000
-0.003161 0.004553 0.000000
0.004553 0.000827 0.000000
0.000000 0.000000 0.000000
-0.006625 -0.001069 0.000000
-0.001069 -0.025512 0.000000
0.000000 0.000000 0.000000
0.011216 -0.002813 0.000000
-0.002813 0.005810 0.000000
0.000000 0.000000 0.000000
0.001397 0.001928 0.000000
0.001928 0.005858 0.000000
0.000000 0.000000 0.000000
-0.001283 -0.001270 0.000000
-0.001270 -0.017982 0.000000
0.000000 0.000000 0.000000
-0.013292 0.004469 0.000000
0.004469 -0.020124 0.000000
0.000000 0.000000 0.000000
-0.000349 -0.004132 0.000000
-0.004132 -0.001451 0.000000
0.000000 0.000000 0.000000
0.010861 0.003532 0.000000
0.003532 0.037169 0.000000
0.000000 0.000000 0.000000
0.011684 0.022325 0.000000
0.022325 0.016204 0.000000
0.000000 0.000000 0.000000
-0.003173 -0.000311 0.000000
-0.000311 -0.021889 0.000000
0.000000 0.000000 0.000000
-0.004043 -0.003223 0.000000
-0.003223 -0.000142 0.000000
0.000000 0.000000 0.000000
-0.010902 -0.004895 0.000000
-0.004895 -0.027624 0.000000
0.000000 0.000000 0.000000
0.023071 -0.018522 0.000000
-0.018522 0.041636 0.000000
0.000000 0.000000 0.000000
-0.005251 -0.003237 0.000000
-0.003237 0.013316 0.000000
0.000000 0.000000 0.000000
0.013570 0.001460 0.000000
0.001460 -0.003541 0.000000
0.000000 0.000000 0.000000
0.006235 -0.007056 0.000000
-0.007056 0.013936 0.000000
0.000000 0.000000 0.000000
-0.011946 -0.007254 0.000000
-0.007254 0.011358 0.000000
0.000000 0.000000 0.000000
-0.012593 -0.007471 0.000000
-0.007471 -0.026365 0.000000
0.000000 0.000000 0.000000
-0.003576 -0.000567 0.000000
-0.000567 0.004902 0.000000
0.000000 0.000000 0.000000
-0.019141 0.005735 0.000000
0.005735 -0.004608 0.000000
0.000000 0.000000 0.000000
-0.004323 -0.007770 0.000000
-0.007770 0.005781 0.000000
0.000000 0.000000 0.000000
0.012707 -0.008246 0.000000
-0.008246 0.000194 0.000000
0.000000 0.000000 0.000000
-0.017716 -0.013427 0.000000
-0.013427 -0.027348 0.000000
0.000000 0.000000 0.000000
-0.000385 -0.002180 0.000000
-0.002180 0.005042 0.000000
0.000000 0.000000 0.000000
0.002183 -0.006801 0.000000
-0.006801 0.036275 0.000000
0.000000 0.000000 0.000000
0.010100 -0.007316 0.000000
-0.007316 -0.001114 0.000000
0.000000 0.000000 0.000000
-0.002836 -0.002088 0.000000
-0.002088 -0.000176 0.000000
0.000000 0.000000 0.000000
0.007142 -0.003041 0.000000
-0.003041 -0.013891 0.000000
0.000000 0.000000 0.000000
0.000044 -0.001261 0.000000
-0.001261 0.000240 0.000000
0.000000 0.000000 0.000000
-0.010758 -0.021208 0.000000
-0.021208 -0.005944 0.000000
0.000000 0.000000 0.000000
0.005037 -0.001529 0.000000
-0.001529 0.018609 0.000000
0.000000 0.000000 0.000000
0.006631 0.000848 0.000000
0.000848 0.020710 0.000000
0.000000 0.000000 0.000000
0.003148 0.002061 0.000000
0.002061 0.008965 0.000000
0.000000 0.000000 0.000000
0.004128 0.009059 0.000000
0.009059 0.014335 0.000000
0.000000 0.000000 0.000000
-0.002722 0.004658 0.000000
0.004658 0.010533 0.000000
0.000000 0.000000 0.000000
-0.005725 -0.003590 0.000000
-0.003590 -0.008086 0.000000
0.000000 0.000000 0.000000
-0.008490 -0.006433 0.000000
-0.006433 -0.003171 0.000000
0.000000 0.000000 0.000000
-0.001824 -0.005349 0.000000
-0.005349 -0.024375 0.000000
0.000000 0.000000 0.000000
0.008142 -0.005211 0.000000
-0.005211 0.012156 0.000000
0.000000 0.000000 0.000000
-0.012302 0.009157 0.000000
0.009157 -0.032844 0.000000
0.000000 0.000000 0.000000
-0.019785 0.009264 0.000000
0.009264 -0.033896 0.000000
0.000000 0.000000 0.000000
0.014576 0.007567 0.000000
0.007567 -0.016961 0.000000
0.000000 0.000000 0.000000
0.025974 -0.013323 0.000000
-0.013323 -0.005288 0.000000
0.000000 0.000000 0.000000
0.031724 -0.012678 0.000000
-0.012678 -0.009672 0.000000
0.000000 0.000000 0.000000
0.010784 0.006322 0.000000
0.006322 0.020863 0.000000
0.000000 0.000000 0.000000
0.010621 -0.011254 0.000000
-0.011254 -0.014045 0.000000
0.000000 0.000000 0.000000
-0.011073 -0.000426 0.000000
-0.000426 -0.006920 0.000000
0.000000 0.000000 0.000000
0.000199 0.002968 0.000000
0.002968 -0.001280 0.000000
0.000000 0.000000 0.000000
-0.010710 0.002019 0.000000
0.002019 0.003968 0.000000
0.000000 0.000000 0.000000
-0.007860 0.005817 0.000000
0.005817 0.005727 0.000000
0.000000 0.000000 0.000000
0.009294 0.010074 0.000000
0.010074 -0.011004 0.000000
0.000000 0.000000 0.000000
0.003937 -0.000992 0.000000
-0.000992 0.001633 0.000000
0.000000 0.000000 0.000000
-0.003051 0.000564 0.000000
0.000564 0.004585 0.000000
0.000000 0.000000 0.000000
-0.002801 0.001800 0.000000
0.001800 0.004213 0.000000
0.000000 0.000000 0.000000
-0.004592 -0.005435 0.000000
-0.005435 -0.008263 0.000000
0.000000 0.000000 0.000000
0.000354 0.006337 0.000000
0.006337 0.009749 0.000000
0.000000 0.000000 0.000000
-0.013736 0.006954 0.000000
0.006954 -0.017582 0.000000
0.000000 0.000000 0.000000
-0.000762 0.002340 0.000000
0.002340 -0.016064 0.000000
0.000000 0.000000 0.000000
0.000524 0.004544 0.000000
0.004544 -0.019416 0.000000
0.000000 0.000000 0.000000
0.009509 -0.001598 0.000000
-0.001598 0.014316 0.000000
0.000000 0.000000 0.000000
0.001099 0.005398 0.000000
0.005398 0.003852 0.000000
0.000000 0.000000 0.000000
-0.006525 0.001875 0.000000
0.001875 -0.019869 0.000000
0.000000 0.000000 0.000000
0.007110 -0.001243 0.000000
-0.001243 -0.005975 0.000000
0.000000 0.000000 0.000000
-0.002006 -0.001176 0.000000
-0.001176 -0.008701 0.000000
0.000000 0.000000 0.000000
-0.019277 -0.006515 0.000000
-0.006515 0.012694 0.000000
0.000000 0.000000 0.000000
-0.019334 0.002660 0.000000
0.002660 0.009019 0.000000
0.000000 0.000000 0.000000
0.013619 0.004935 0.000000
0.004935 0.017954 0.000000
0.000000 0.000000 0.000000
0.005392 0.005152 0.000000
0.005152 0.017009 0.000000
0.000000 0.000000 0.000000
0.001931 -0.001387 0.000000
-0.001387 0.003502 0.000000
0.000000 0.000000 0.000000
-0.003663 -0.001007 0.000000
-0.001007 0.002482 0.000000
0.000000 0.000000 0.000000
0.000894 0.004370 0.000000
0.004370 -0.003810 0.000000
0.000000 0.000000 0.000000
-0.012778 0.013570 0.000000
0.013570 -0.022052 0.000000
0.000000 0.000000 0.000000
0.002113 -0.004331 0.000000
-0.004331 -0.009367 0.000000
0.000000 0.000000 0.000000
0.003266 0.002788 0.000000
0.002788 0.001054 0.000000
0.000000 0.000000 0.000000
0.007833 0.010237 0.000000
0.010237 0.010006 0.000000
0.000000 0.000000 0.000000
0.002201 0.001445 0.000000
0.001445 -0.003328 0.000000
0.000000 0.000000 0.000000
0.016176 0.000342 0.000000
0.000342 -0.005589 0.000000
0.000000 0.000000 0.000000
-0.004116 0.004710 0.000000
0.004710 0.004204 0.000000
0.000000 0.000000 0.000000
-0.007736 0.008393 0.000000
0.008393 -0.003058 0.000000
0.000000 0.000000 0.000000
0.002034 0.002294 0.000000
0.002294 0.004050 0.000000
0.000000 0.000000 0.000000
0.001064 0.006523 0.000000
0.006523 0.017549 0.000000
0.000000 0.000000 0.000000
0.003807 0.006318 0.000000
0.006318 0.011037 0.000000
0.000000 0.000000 0.000000
0.004486 0.000794 0.000000
0.000794 0.012992 0.000000
0.000000 0.000000 0.000000
-0.005293 -0.008099 0.000000
-0.008099 -0.010932 0.000000
0.000000 0.000000 0.000000
0.016740 -0.002180 0.000000
-0.002180 0.008493 0.000000
0.000000 0.000000 0.000000
-0.004981 0.016501 0.000000
0.016501 -0.015281 0.000000
0.000000 0.000000 0.000000
0.006469 0.001110 0.000000
0.001110 0.008888 0.000000
0.000000 0.000000 0.000000
0.001972 -0.002571 0.000000
-0.002571 -0.006897 0.000000
0.000000 0.000000 0.000000
0.009228 -0.007039 0.000000
-0.007039 0.031504 0.000000
0.000000 0.000000 0.000000
0.005929 -0.003240 0.000000
-0.003240 0.023557 0.000000
0.000000 0.000000 0.000000
0.003620 -0.011199 0.000000
-0.011199 -0.001783 0.000000
0.000000 0.000000 0.000000
0.005472 -0.006749 0.000000
-0.006749 0.001025 0.000000
0.000000 0.000000 0.000000
0.014811 -0.008018 0.000000
-0.008018 0.038849 0.000000
0.000000 0.000000 0.000000
-0.004814 -0.000451 0.000000
-0.000451 -0.005608 0.000000
0.000000 0.000000 0.000000
-0.004831 -0.000682 0.000000
-0.000682 -0.007977 0.000000
0.000000 0.000000 0.000000
-0.003466 0.000232 0.000000
0.000232 -0.005344 0.000000
0.000000 0.000000 0.000000
-0.002791 0.003730 0.000000
0.003730 -0.003659 0.000000
0.000000 0.000000 0.000000
-0.005099 0.007883 0.000000
0.007883 -0.000942 0.000000
0.000000 0.000000 0.000000
-0.012812 -0.011929 0.000000
-0.011929 0.011450 0.000000
0.000000 0.000000 0.000000
0.002523 0.001408 0.000000
0.001408 0.003172 0.000000
0.000000 0.000000 0.000000
0.003133 0.001687 0.000000
0.001687 0.002967 0.000000
0.000000 0.000000 0.000000
0.001916 0.006216 0.000000
0.006216 -0.013518 0.000000
0.000000 0.000000 0.000000
-0.002760 0.000319 0.000000
0.000319 0.010434 0.000000
0.000000 0.000000 0.000000
-0.003021 -0.005953 0.000000
-0.005953 -0.004417 0.000000
0.000000 0.000000 0.000000
-0.013587 -0.008591 0.000000
-0.008591 0.013655 0.000000
0.000000 0.000000 0.000000
0.024265 0.001766 0.000000
0.001766 0.026032 0.000000
0.000000 0.000000 0.000000
-0.000312 -0.004150 0.000000
-0.004150 -0.000244 0.000000
0.000000 0.000000 0.000000
0.005719 -0.000547 0.000000
-0.000547 -0.001039 0.000000
0.000000 0.000000 0.000000
0.003212 -0.003026 0.000000
-0.003026 -0.001719 0.000000
0.000000 0.000000 0.000000
0.007091 0.002979 0.000000
0.002979 -0.014374 0.000000
0.000000 0.000000 0.000000
0.000589 0.001659 0.000000
0.001659 0.008475 0.000000
0.000000 0.000000 0.000000
0.004329 0.003055 0.000000
0.003055 -0.015189 0.000000
0.000000 0.000000 0.000000
0.003220 -0.000900 0.000000
-0.000900 0.006066 0.000000
0.000000 0.000000 0.000000
-0.005733 0.004513 0.000000
0.004513 -0.015113 0.000000
0.000000 0.000000 0.000000
0.017971 -0.001311 0.000000
-0.001311 -0.003291 0.000000
0.000000 0.000000 0.000000
-0.010607 -0.022106 0.000000
-0.022106 0.004611 0.000000
0.000000 0.000000 0.000000
0.024382 -0.011132 0.000000
-0.011132 0.004374 0.000000
0.000000 0.000000 0.000000
0.015913 -0.008896 0.000000
-0.008896 -0.000075 0.000000
0.000000 0.000000 0.000000
0.013807 -0.003338 0.000000
-0.003338 0.001775 0.000000
0.000000 0.000000 0.000000
0.000553 0.001422 0.000000
0.001422 0.005468 0.000000
0.000000 0.000000 0.000000
-0.005231 -0.035341 0.000000
-0.035341 0.018006 0.000000
0.000000 0.000000 0.000000
0.007631 0.001895 0.000000
0.001895 0.001763 0.000000
0.000000 0.000000 0.000000
-0.041244 -0.022964 0.000000
-0.022964 0.018863 0.000000
0.000000 0.000000 0.000000
0.016424 -0.002137 0.000000
-0.002137 0.014652 0.000000
0.000000 0.000000 0.000000
0.003387 -0.000706 0.000000
-0.000706 0.010401 0.000000
0.000000 0.000000 0.000000
-0.009221 -0.007641 0.000000
-0.007641 0.006247 0.000000
0.000000 0.000000 0.000000
-0.000450 0.014210 0.000000
0.014210 -0.012845 0.000000
0.000000 0.000000 0.000000
-0.016046 -0.000107 0.000000
-0.000107 -0.011562 0.000000
0.000000 0.000000 0.000000
0.008950 0.004442 0.000000
0.004442 0.000212 0.000000
0.000000 0.000000 0.000000
0.011206 0.002583 0.000000
0.002583 0.004682 0.000000
0.000000 0.000000 0.000000
-0.004138 -0.003488 0.000000
-0.003488 -0.010068 0.000000
0.000000 0.000000 0.000000
0.015885 -0.000115 0.000000
-0.000115 -0.005039 0.000000
0.000000 0.000000 0.000000
-0.011725 -0.005298 0.000000
-0.005298 -0.004184 0.000000
0.000000 0.000000 0.000000
0.018341 -0.008773 0.000000
-0.008773 0.020272 0.000000
0.000000 0.000000 0.000000
0.000197 -0.002968 0.000000
-0.002968 0.001873 0.000000
0.000000 0.000000 0.000000
-0.003169 -0.001668 0.000000
-0.001668 0.000700 0.000000
0.000000 0.000000 0.000000
-0.019359 -0.005504 0.000000
-0.005504 0.013854 0.000000
0.000000 0.000000 0.000000
0.018146 0.006868 0.000000
0.006868 0.015282 0.000000
0.000000 0.000000 0.000000
0.001094 0.000156 0.000000
0.000156 0.008155 0.000000
0.000000 0.000000 0.000000
-0.006088 -0.003681 0.000000
-0.003681 0.010157 0.000000
0.000000 0.000000 0.000000
0.015279 0.006925 0.000000
0.006925 -0.014132 0.000000
0.000000 0.000000 0.000000
0.006223 -0.003747 0.000000
-0.003747 0.012901 0.000000
0.000000 0.000000 0.000000
-0.010989 0.000894 0.000000
0.000894 -0.002466 0.000000
0.000000 0.000000 0.000000
-0.013308 0.002866 0.000000
0.002866 0.003003 0.000000
0.000000 0.000000 0.000000
-0.001903 -0.005627 0.000000
-0.005627 0.002551 0.000000
0.000000 0.000000 0.000000
0.005872 0.009054 0.000000
0.009054 0.025887 0.000000
0.000000 0.000000 0.000000
0.002114 0.007403 0.000000
0.007403 0.011531 0.000000
0.000000 0.000000 0.000000
-0.009001 0.011553 0.000000
0.011553 0.012630 0.000000
0.000000 0.000000 0.000000
0.009464 -0.002735 0.000000
-0.002735 -0.006362 0.000000
0.000000 0.000000 0.000000
0.013933 -0.009239 0.000000
-0.009239 -0.001738 0.000000
0.000000 0.000000 0.000000
0.002132 -0.000689 0.000000
-0.000689 0.001110 0.000000
0.000000 0.000000 0.000000
-0.000511 0.005900 0.000000
0.005900 0.017042 0.000000
0.000000 0.000000 0.000000
-0.002644 -0.002256 0.000000
-0.002256 0.005003 0.000000
0.000000 0.000000 0.000000
-0.004320 -0.002360 0.000000
-0.002360 -0.005205 0.000000
0.000000 0.000000 0.000000
0.002337 -0.000596 0.000000
-0.000596 -0.003885 0.000000
0.000000 0.000000 0.000000
-0.003468 0.004240 0.000000
0.004240 -0.011468 0.000000
0.000000 0.000000 0.000000
0.007755 -0.006759 0.000000
-0.006759 -0.003351 0.000000
0.000000 0.000000 0.000000
0.002911 0.001440 0.000000
0.001440 0.007732 0.000000
0.000000 0.000000 0.000000
0.010538 -0.000822 0.000000
-0.000822 0.005002 0.000000
0.000000 0.000000 0.000000
0.000732 0.006166 0.000000
0.006166 -0.010872 0.000000
0.000000 0.000000 0.000000
0.019425 0.002145 0.000000
0.002145 0.018226 0.000000
0.000000 0.000000 0.000000
0.018063 0.003031 0.000000
0.003031 0.015829 0.000000
0.000000 0.000000 0.000000
0.003226 0.002941 0.000000
0.002941 0.005887 0.000000
0.000000 0.000000 0.000000
0.002533 0.002784 0.000000
0.002784 0.006191 0.000000
0.000000 0.000000 0.000000
-0.008754 0.009853 0.000000
0.009853 0.005451 0.000000
0.000000 0.000000 0.000000
0.000042 -0.003667 0.000000
-0.003667 -0.006190 0.000000
0.000000 0.000000 0.000000
-0.001316 -0.002071 0.000000
-0.002071 0.004809 0.000000
0.000000 0.000000 0.000000
-0.003281 -0.005092 0.000000
-0.005092 0.012625 0.000000
0.000000 0.000000 0.000000
-0.005140 0.006342 0.000000
0.006342 -0.014792 0.000000
0.000000 0.000000 0.000000
0.000806 0.027485 0.000000
0.027485 0.000149 0.000000
0.000000 0.000000 0.000000
0.001632 0.025643 0.000000
0.025643 0.003823 0.000000
0.000000 0.000000 0.000000
-0.001350 0.002873 0.000000
0.002873 -0.005232 0.000000
0.000000 0.000000 0.000000
-0.010375 0.008022 0.000000
0.008022 -0.013738 0.000000
0.000000 0.000000 0.000000
-0.004569 0.002062 0.000000
0.002062 0.000735 0.000000
0.000000 0.000000 0.000000
0.032148 0.002740 0.000000
0.002740 0.000367 0.000000
0.000000 0.000000 0.000000
0.025773 0.006631 0.000000
0.006631 -0.015616 0.000000
0.000000 0.000000 0.000000
-0.010590 0.008064 0.000000
0.008064 -0.006319 0.000000
0.000000 0.000000 0.000000
-0.009552 0.000439 0.000000
0.000439 -0.013942 0.000000
0.000000 0.000000 0.000000
-0.005423 0.014643 0.000000
0.014643 -0.005451 0.000000
0.000000 0.000000 0.000000
0.003273 0.000967 0.000000
0.000967 0.008962 0.000000
0.000000 0.000000 0.000000
-0.002610 -0.001972 0.000000
-0.001972 0.006136 0.000000
0.000000 0.000000 0.000000
0.006705 0.000274 0.000000
0.000274 -0.000828 0.000000
0.000000 0.000000 0.000000
0.006297 -0.003186 0.000000
-0.003186 0.004003 0.000000
0.000000 0.000000 0.000000
-0.005975 -0.000212 0.000000
-0.000212 0.009480 0.000000
0.000000 0.000000 0.000000
0.003847 0.002772 0.000000
0.002772 0.003193 0.000000
0.000000 0.000000 0.000000
-0.008322 -0.002384 0.000000
-0.002384 0.012212 0.000000
0.000000 0.000000 0.000000
-0.011563 -0.004198 0.000000
-0.004198 0.003820 0.000000
0.000000 0.000000 0.000000
0.008883 -0.005818 0.000000
-0.005818 0.013465 0.000000
0.000000 0.000000 0.000000
0.002528 -0.002118 0.000000
-0.002118 -0.010110 0.000000
0.000000 0.000000 0.000000
-0.009189 -0.004118 0.000000
-0.004118 0.001010 0.000000
0.000000 0.000000 0.000000
-0.002582 -0.011288 0.000000
-0.011288 -0.004687 0.000000
0.000000 0.000000 0.000000
-0.006239 -0.005573 0.000000
-0.005573 0.000993 0.000000
0.000000 0.000000 0.000000
0.011117 0.001391 0.000000
0.001391 0.011045 0.000000
0.000000 0.000000 0.000000
0.000559 0.006114 0.000000
0.006114 -0.014502 0.000000
0.000000 0.000000 0.000000
-0.014930 0.005033 0.000000
0.005033 -0.020429 0.000000
0.000000 0.000000 0.000000
-0.000894 0.008983 0.000000
0.008983 -0.003769 0.000000
0.000000 0.000000 0.000000
-0.006987 -0.000100 0.000000
-0.000100 -0.013333 0.000000
0.000000 0.000000 0.000000
0.012639 0.012630 0.000000
0.012630 0.001776 0.000000
0.000000 0.000000 0.000000
0.011614 0.004439 0.000000
0.004439 0.021855 0.000000
0.000000 0.000000 0.000000
-0.008763 -0.000130 0.000000
-0.000130 -0.008598 0.000000
0.000000 0.000000 0.000000
0.006778 0.005577 0.000000
0.005577 0.002984 0.000000
0.000000 0.000000 0.000000
0.002604 0.000892 0.000000
0.000892 0.013866 0.000000
0.000000 0.000000 0.000000
0.002641 0.000073 0.000000
0.000073 0.007178 0.000000
0.000000 0.000000 0.000000
0.001215 0.000952 0.000000
0.000952 0.005691 0.000000
0.000000 0.000000 0.000000
-0.004122 -0.005702 0.000000
-0.005702 -0.003250 0.000000
0.000000 0.000000 0.000000
0.009711 0.006227 0.000000
0.006227 0.002985 0.000000
0.000000 0.000000 0.000000
-0.000412 -0.004075 0.000000
-0.004075 -0.003106 0.000000
0.000000 0.000000 0.000000
-0.009756 0.003385 0.000000
0.003385 0.006555 0.000000
0.000000 0.000000 0.000000
-0.009680 0.002794 0.000000
0.002794 0.006910 0.000000
0.000000 0.000000 0.000000
0.001730 0.001800 0.000000
0.001800 -0.000584 0.000000
0.000000 0.000000 0.000000
-0.005119 0.013095 0.000000
0.013095 -0.001377 0.000000
0.000000 0.000000 0.000000
-0.004024 0.013446 0.000000
0.013446 -0.005305 0.000000
0.000000 0.000000 0.000000
0.004974 0.002874 0.000000
0.002874 0.009718 0.000000
0.000000 0.000000 0.000000
-0.004520 -0.015333 0.000000
-0.015333 0.002059 0.000000
0.000000 0.000000 0.000000
0.004175 -0.005926 0.000000
-0.005926 0.002404 0.000000
0.000000 0.000000 0.000000
0.009745 0.002496 0.000000
0.002496 -0.000376 0.000000
0.000000 0.000000 0.000000
-0.004318 -0.000171 0.000000
-0.000171 0.006138 0.000000
0.000000 0.000000 0.000000
0.008443 0.008705 0.000000
0.008705 -0.002706 0.000000
0.000000 0.000000 0.000000
0.011061 0.005366 0.000000
0.005366 -0.000514 0.000000
0.000000 0.000000 0.000000
0.001504 0.000769 0.000000
0.000769 -0.000231 0.000000
0.000000 0.000000 0.000000
0.008307 0.003687 0.000000
0.003687 -0.009822 0.000000
0.000000 0.000000 0.000000
-0.013410 0.001401 0.000000
0.001401 -0.010767 0.000000
0.000000 0.000000 0.000000
0.000063 0.000148 0.000000
0.000148 0.002723 0.000000
0.000000 0.000000 0.000000
-0.001198 -0.000023 0.000000
-0.000023 -0.002363 0.000000
0.000000 0.000000 0.000000
0.003112 0.002083 0.000000
0.002083 0.001393 0.000000
0.000000 0.000000 0.000000
-0.006787 -0.002204 0.000000
-0.002204 0.015240 0.000000
0.000000 0.000000 0.000000
-0.004729 0.000496 0.000000
0.000496 -0.009574 0.000000
0.000000 0.000000 0.000000
-0.005395 0.011924 0.000000
0.011924 -0.000962 0.000000
0.000000 0.000000 0.000000
0.000505 0.003101 0.000000
0.003101 0.010366 0.000000
0.000000 0.000000 0.000000
-0.002044 -0.010868 0.000000
-0.010868 -0.002317 0.000000
0.000000 0.000000 0.000000
-0.008879 0.001032 0.000000
0.001032 0.007058 0.000000
0.000000 0.000000 0.000000
-0.003087 -0.010403 0.000000
-0.010403 0.007315 0.000000
0.000000 0.000000 0.000000
0.002108 -0.003903 0.000000
-0.003903 -0.014849 0.000000
0.000000 0.000000 0.000000
0.000130 -0.024002 0.000000
-0.024002 -0.001068 0.000000
0.000000 0.000000 0.000000
0.006513 -0.003854 0.000000
-0.003854 -0.000852 0.000000
0.000000 0.000000 0.000000
-0.000138 -0.001504 0.000000
-0.001504 0.008381 0.000000
0.000000 0.000000 0.000000
0.000236 0.002379 0.000000
0.002379 0.000832 0.000000
0.000000 0.000000 0.000000
0.000237 0.001863 0.000000
0.001863 0.007734 0.000000
0.000000 0.000000 0.000000
-0.007750 -0.003297 0.000000
-0.003297 -0.009618 0.000000
0.000000 0.000000 0.000000
0.005682 -0.007568 0.000000
-0.007568 0.009988 0.000000
0.000000 0.000000 0.000000
0.008939 -0.002468 0.000000
-0.002468 0.008511 0.000000
0.000000 0.000000 0.000000
0.000383 0.003831 0.000000
0.003831 0.001867 0.000000
0.000000 0.000000 0.000000
-0.014911 -0.000240 0.000000
-0.000240 -0.010430 0.000000
0.000000 0.000000 0.000000
0.009443 0.009926 0.000000
0.009926 0.019996 0.000000
0.000000 0.000000 0.000000
-0.007355 -0.010953 0.000000
-0.010953 0.008202 0.000000
0.000000 0.000000 0.000000
-0.003099 -0.014743 0.000000
-0.014743 0.009491 0.000000
0.000000 0.000000 0.000000
0.011404 -0.007599 0.000000
-0.007599 0.015389 0.000000
0.000000 0.000000 0.000000
0.007141 -0.005039 0.000000
-0.005039 0.010327 0.000000
0.000000 0.000000 0.000000
0.008618 0.002018 0.000000
0.002018 0.008223 0.000000
0.000000 0.000000 0.000000
0.007744 -0.003361 0.000000
-0.003361 0.004129 0.000000
0.000000 0.000000 0.000000
0.017767 -0.003005 0.000000
-0.003005 -0.009926 0.000000
0.000000 0.000000 0.000000
-0.013308 0.002252 0.000000
0.002252 -0.021477 0.000000
0.000000 0.000000 0.000000
0.013614 0.008720 0.000000
0.008720 0.023392 0.000000
0.000000 0.000000 0.000000
-0.007797 -0.001046 0.000000
-0.001046 -0.016420 0.000000
0.000000 0.000000 0.000000
0.014796 0.007989 0.000000
0.007989 0.023440 0.000000
0.000000 0.000000 0.000000
-0.022008 -0.001593 0.000000
-0.001593 -0.009972 0.000000
0.000000 0.000000 0.000000
-0.002741 -0.001560 0.000000
-0.001560 -0.001765 0.000000
0.000000 0.000000 0.000000
-0.009453 0.004831 0.000000
0.004831 -0.001666 0.000000
0.000000 0.000000 0.000000
0.002483 -0.005345 0.000000
-0.005345 0.004371 0.000000
0.000000 0.000000 0.000000
0.008324 0.005384 0.000000
0.005384 0.034327 0.000000
0.000000 0.000000 0.000000
0.000459 -0.002419 0.000000
-0.002419 0.001192 0.000000
0.000000 0.000000 0.000000
0.005654 0.008413 0.000000
0.008413 0.032793 0.000000
0.000000 0.000000 0.000000
-0.016730 0.002682 0.000000
0.002682 -0.007946 0.000000
0.000000 0.000000 0.000000
-0.000270 -0.004461 0.000000
-0.004461 0.003036 0.000000
0.000000 0.000000 0.000000
0.000719 0.009339 0.000000
0.009339 0.000689 0.000000
0.000000 0.000000 0.000000
0.006144 0.002082 0.000000
0.002082 0.008744 0.000000
0.000000 0.000000 0.000000
0.004568 0.009292 0.000000
0.009292 0.021972 0.000000
0.000000 0.000000 0.000000
-0.004809 -0.003622 0.000000
-0.003622 0.014797 0.000000
0.000000 0.000000 0.000000
0.000939 -0.001638 0.000000
-0.001638 0.032989 0.000000
0.000000 0.000000 0.000000
0.000798 0.007956 0.000000
0.007956 0.012349 0.000000
0.000000 0.000000 0.000000
0.008209 -0.001792 0.000000
-0.001792 0.002353 0.000000
0.000000 0.000000 0.000000
0.010237 -0.002816 0.000000
-0.002816 0.004149 0.000000
0.000000 0.000000 0.000000
-0.000551 0.004095 0.000000
0.004095 -0.004020 0.000000
0.000000 0.000000 0.000000
-0.006579 0.009857 0.000000
0.009857 -0.011483 0.000000
0.000000 0.000000 0.000000
-0.002861 0.001491 0.000000
0.001491 -0.012473 0.000000
0.000000 0.000000 0.000000
0.001632 -0.004382 0.000000
-0.004382 -0.013288 0.000000
0.000000 0.000000 0.000000
0.002513 -0.001768 0.000000
-0.001768 -0.016595 0.000000
0.000000 0.000000 0.000000
0.002456 -0.000976 0.000000
-0.000976 0.010489 0.000000
0.000000 0.000000 0.000000
0.000731 0.005200 0.000000
0.005200 0.019881 0.000000
0.000000 0.000000 0.000000
0.000572 -0.004040 0.000000
-0.004040 -0.005619 0.000000
0.000000 0.000000 0.000000
0.003475 -0.001353 0.000000
-0.001353 0.002386 0.000000
0.000000 0.000000 0.000000
-0.018767 -0.006971 0.000000
-0.006971 0.009438 0.000000
0.000000 0.000000 0.000000
0.001096 -0.012360 0.000000
-0.012360 0.013272 0.000000
0.000000 0.000000 0.000000
0.011684 -0.000963 0.000000
-0.000963 0.031206 0.000000
0.000000 0.000000 0.000000
0.009415 -0.004586 0.000000
-0.004586 0.029327 0.000000
0.000000 0.000000 0.000000
0.015057 0.005388 0.000000
0.005388 -0.015914 0.000000
0.000000 0.000000 0.000000
0.021982 -0.009169 0.000000
-0.009169 0.017696 0.000000
0.000000 0.000000 0.000000
0.003741 0.008308 0.000000
0.008308 0.009012 0.000000
0.000000 0.000000 0.000000
0.004446 0.005924 0.000000
0.005924 0.016984 0.000000
0.000000 0.000000 0.000000
-0.004359 0.007236 0.000000
0.007236 0.008386 0.000000
0.000000 0.000000 0.000000
0.001524 0.002938 0.000000
0.002938 -0.006922 0.000000
0.000000 0.000000 0.000000
0.000569 0.010612 0.000000
0.010612 -0.006719 0.000000
0.000000 0.000000 0.000000
-0.001827 -0.020053 0.000000
-0.020053 -0.005025 0.000000
0.000000 0.000000 0.000000
0.003292 -0.023530 0.000000
-0.023530 -0.001619 0.000000
0.000000 0.000000 0.000000
0.009876 0.004764 0.000000
0.004764 -0.003152 0.000000
0.000000 0.000000 0.000000
0.013440 0.002578 0.000000
0.002578 -0.006018 0.000000
0.000000 0.000000 0.000000
0.033267 -0.026941 0.000000
-0.026941 0.033742 0.000000
0.000000 0.000000 0.000000
-0.001141 0.036591 0.000000
0.036591 0.005244 0.000000
0.000000 0.000000 0.000000
0.008014 -0.007548 0.000000
-0.007548 -0.005311 0.000000
0.000000 0.000000 0.000000
-0.008763 -0.005260 0.000000
-0.005260 0.000956 0.000000
0.000000 0.000000 0.000000
0.001197 -0.002092 0.000000
-0.002092 -0.007519 0.000000
0.000000 0.000000 0.000000
0.000237 0.004697 0.000000
0.004697 0.011840 0.000000
0.000000 0.000000 0.000000
-0.005377 -0.003056 0.000000
-0.003056 -0.009632 0.000000
0.000000 0.000000 0.000000
-0.012768 0.007671 0.000000
0.007671 -0.023049 0.000000
0.000000 0.000000 0.000000
-0.012570 0.004527 0.000000
0.004527 -0.019608 0.000000
0.000000 0.000000 0.000000
0.027421 -0.026352 0.000000
-0.026352 0.045567 0.000000
0.000000 0.000000 0.000000
-0.017720 -0.042526 0.000000
-0.042526 0.020254 0.000000
0.000000 0.000000 0.000000
0.011074 -0.012995 0.000000
-0.012995 -0.034768 0.000000
0.000000 0.000000 0.000000
0.015423 -0.020379 0.000000
-0.020379 -0.021522 0.000000
0.000000 0.000000 0.000000
-0.018013 -0.015674 0.000000
-0.015674 -0.002227 0.000000
0.000000 0.000000 0.000000
-0.012975 -0.005215 0.000000
-0.005215 0.014607 0.000000
0.000000 0.000000 0.000000
0.004241 0.005712 0.000000
0.005712 -0.000434 0.000000
0.000000 0.000000 0.000000
-0.009477 -0.001128 0.000000
-0.001128 -0.004974 0.000000
0.000000 0.000000 0.000000
0.010065 -0.000619 0.000000
-0.000619 0.000858 0.000000
0.000000 0.000000 0.000000
-0.000495 0.001724 0.000000
0.001724 -0.002794 0.000000
0.000000 0.000000 0.000000
0.022483 0.027422 0.000000
0.027422 0.012352 0.000000
0.000000 0.000000 0.000000
-0.009075 0.011311 0.000000
0.011311 -0.006268 0.000000
0.000000 0.000000 0.000000
-0.009964 -0.000758 0.000000
-0.000758 -0.013909 0.000000
0.000000 0.000000 0.000000
0.001654 -0.004882 0.000000
-0.004882 0.022923 0.000000
0.000000 0.000000 0.000000
-0.008647 0.005458 0.000000
0.005458 0.022636 0.000000
0.000000 0.000000 0.000000
0.002894 0.008441 0.000000
0.008441 0.010994 0.000000
0.000000 0.000000 0.000000
-0.003994 -0.000415 0.000000
-0.000415 0.000583 0.000000
0.000000 0.000000 0.000000
-0.009452 0.002951 0.000000
0.002951 0.006434 0.000000
0.000000 0.000000 0.000000
-0.006574 -0.011019 0.000000
-0.011019 -0.010290 0.000000
0.000000 0.000000 0.000000
0.004159 0.008784 0.000000
0.008784 0.009662 0.000000
0.000000 0.000000 0.000000
0.012085 0.014815 0.000000
0.014815 0.020412 0.000000
0.000000 0.000000 0.000000
-0.000437 -0.004096 0.000000
-0.004096 -0.005381 0.000000
0.000000 0.000000 0.000000
0.000271 -0.002134 0.000000
-0.002134 -0.003707 0.000000
0.000000 0.000000 0.000000
-0.004985 -0.010369 0.000000
-0.010369 -0.012611 0.000000
0.000000 0.000000 0.000000
0.003346 0.001735 0.000000
0.001735 0.012999 0.000000
0.000000 0.000000 0.000000
-0.000906 -0.000927 0.000000
-0.000927 -0.006125 0.000000
0.000000 0.000000 0.000000
-0.006647 -0.003253 0.000000
-0.003253 -0.006131 0.000000
0.000000 0.000000 0.000000
-0.014686 0.005216 0.000000
0.005216 0.011791 0.000000
0.000000 0.000000 0.000000
0.001927 0.004195 0.000000
0.004195 -0.002496 0.000000
0.000000 0.000000 0.000000
-0.003797 0.001074 0.000000
0.001074 0.002679 0.000000
0.000000 0.000000 0.000000
-0.005969 -0.008272 0.000000
-0.008272 -0.013802 0.000000
0.000000 0.000000 0.000000
-0.016139 -0.008505 0.000000
-0.008505 0.010384 0.000000
0.000000 0.000000 0.000000
-0.013025 -0.003465 0.000000
-0.003465 0.016894 0.000000
0.000000 0.000000 0.000000
0.013747 -0.002678 0.000000
-0.002678 0.003356 0.000000
0.000000 0.000000 0.000000
0.016431 -0.005440 0.000000
-0.005440 -0.005099 0.000000
0.000000 0.000000 0.000000
0.011636 0.010004 0.000000
0.010004 -0.010213 0.000000
0.000000 0.000000 0.000000
-0.006310 -0.000204 0.000000
-0.000204 -0.011920 0.000000
0.000000 0.000000 0.000000
-0.009436 -0.004484 0.000000
-0.004484 -0.025009 0.000000
0.000000 0.000000 0.000000
-0.010812 -0.001830 0.000000
-0.001830 -0.008384 0.000000
0.000000 0.000000 0.000000
0.013290 -0.013972 0.000000
-0.013972 -0.010038 0.000000
0.000000 0.000000 0.000000
0.027888 -0.000782 0.000000
-0.000782 -0.001428 0.000000
0.000000 0.000000 0.000000
0.000253 -0.000886 0.000000
-0.000886 -0.005737 0.000000
0.000000 0.000000 0.000000
0.009203 0.000093 0.000000
0.000093 0.005629 0.000000
0.000000 0.000000 0.000000
0.006238 0.006372 0.000000
0.006372 0.005535 0.000000
0.000000 0.000000 0.000000
0.002872 0.001734 0.000000
0.001734 -0.003697 0.000000
0.000000 0.000000 0.000000
-0.000437 -0.002261 0.000000
-0.002261 0.001695 0.000000
0.000000 0.000000 0.000000
0.003371 -0.002052 0.000000
-0.002052 0.008098 0.000000
0.000000 0.000000 0.000000
-0.014726 -0.000473 0.000000
-0.000473 -0.011913 0.000000
0.000000 0.000000 0.000000
-0.007704 -0.006298 0.000000
-0.006298 0.015588 0.000000
0.000000 0.000000 0.000000
-0.008597 -0.009187 0.000000
-0.009187 -0.018184 0.000000
0.000000 0.000000 0.000000
0.006069 -0.000264 0.000000
-0.000264 -0.005511 0.000000
0.000000 0.000000 0.000000
0.002849 -0.001815 0.000000
-0.001815 0.009503 0.000000
0.000000 0.000000 0.000000
0.000465 -0.008140 0.000000
-0.008140 0.000773 0.000000
0.000000 0.000000 0.000000
0.001051 -0.007766 0.000000
-0.007766 0.001870 0.000000
0.000000 0.000000 0.000000
0.005318 0.002690 0.000000
0.002690 0.014816 0.000000
0.000000 0.000000 0.000000
0.003878 0.001496 0.000000
0.001496 0.016673 0.000000
0.000000 0.000000 0.000000
-0.007860 -0.007775 0.000000
-0.007775 -0.004753 0.000000
0.000000 0.000000 0.000000
0.023403 -0.003507 0.000000
-0.003507 -0.003972 0.000000
0.000000 0.000000 0.000000
0.001260 0.012209 0.000000
0.012209 0.011656 0.000000
0.000000 0.000000 0.000000
-0.006369 -0.005319 0.000000
-0.005319 -0.012871 0.000000
0.000000 0.000000 0.000000
0.003111 -0.001616 0.000000
-0.001616 0.018213 0.000000
0.000000 0.000000 0.000000
0.011173 -0.010543 0.000000
-0.010543 0.007060 0.000000
0.000000 0.000000 0.000000
0.001293 -0.014164 0.000000
-0.014164 0.009510 0.000000
0.000000 0.000000 0.000000
0.002027 0.005553 0.000000
0.005553 0.006236 0.000000
0.000000 0.000000 0.000000
-0.013340 -0.003134 0.000000
-0.003134 -0.020950 0.000000
0.000000 0.000000 0.000000
-0.003470 0.004866 0.000000
0.004866 0.005411 0.000000
0.000000 0.000000 0.000000
-0.007271 -0.016099 0.000000
-0.016099 0.008233 0.000000
0.000000 0.000000 0.000000
-0.012358 -0.001534 0.000000
-0.001534 -0.018928 0.000000
0.000000 0.000000 0.000000
0.001479 -0.008568 0.000000
-0.008568 0.013127 0.000000
0.000000 0.000000 0.000000
0.003938 -0.013910 0.000000
-0.013910 0.004787 0.000000
0.000000 0.000000 0.000000
0.004194 -0.011743 0.000000
-0.011743 0.004231 0.000000
0.000000 0.000000 0.000000
0.005372 0.006372 0.000000
0.006372 0.005920 0.000000
0.000000 0.000000 0.000000
0.011420 0.002548 0.000000
0.002548 0.001671 0.000000
0.000000 0.000000 0.000000
-0.005846 -0.001841 0.000000
-0.001841 -0.002947 0.000000
0.000000 0.000000 0.000000
0.006857 0.002772 0.000000
0.002772 0.010852 0.000000
0.000000 0.000000 0.000000
-0.010238 -0.009155 0.000000
-0.009155 -0.007882 0.000000
0.000000 0.000000 0.000000
-0.005572 -0.012573 0.000000
-0.012573 0.009152 0.000000
0.000000 0.000000 0.000000
-0.000167 0.006065 0.000000
0.006065 0.009142 0.000000
0.000000 0.000000 0.000000
0.012687 0.004380 0.000000
0.004380 -0.002442 0.000000
0.000000 0.000000 0.000000
0.007776 0.002581 0.000000
0.002581 0.004096 0.000000
0.000000 0.000000 0.000000
-0.005043 -0.024151 0.000000
-0.024151 -0.011641 0.000000
0.000000 0.000000 0.000000
-0.001232 -0.001135 0.000000
-0.001135 0.001337 0.000000
0.000000 0.000000 0.000000
-0.016612 0.001632 0.000000
0.001632 -0.017271 0.000000
0.000000 0.000000 0.000000
-0.013892 -0.002793 0.000000
-0.002793 -0.015963 0.000000
0.000000 0.000000 0.000000
0.016178 -0.003462 0.000000
-0.003462 0.037672 0.000000
0.000000 0.000000 0.000000
0.008975 0.000169 0.000000
0.000169 0.017379 0.000000
0.000000 0.000000 0.000000
-0.001919 -0.003476 0.000000
-0.003476 -0.008465 0.000000
0.000000 0.000000 0.000000
-0.002716 -0.000475 0.000000
-0.000475 -0.007061 0.000000
0.000000 0.000000 0.000000
0.004170 0.003047 0.000000
0.003047 -0.004722 0.000000
0.000000 0.000000 0.000000
-0.005635 0.000995 0.000000
0.000995 -0.008344 0.000000
0.000000 0.000000 0.000000
0.012259 -0.000790 0.000000
-0.000790 0.012467 0.000000
0.000000 0.000000 0.000000
0.012569 -0.000857 0.000000
-0.000857 0.012553 0.000000
0.000000 0.000000 0.000000
0.012799 -0.004585 0.000000
-0.004585 0.030980 0.000000
0.000000 0.000000 0.000000
-0.010936 0.003109 0.000000
0.003109 -0.001318 0.000000
0.000000 0.000000 0.000000
0.002017 -0.001885 0.000000
-0.001885 0.004133 0.000000
0.000000 0.000000 0.000000
0.010858 -0.001754 0.000000
-0.001754 0.033786 0.000000
0.000000 0.000000 0.000000
-0.001963 -0.002673 0.000000
-0.002673 -0.003828 0.000000
0.000000 0.000000 0.000000
-0.008839 0.001319 0.000000
0.001319 -0.006078 0.000000
0.000000 0.000000 0.000000
0.003269 -0.001769 0.000000
-0.001769 0.008705 0.000000
0.000000 0.000000 0.000000
-0.012936 -0.006662 0.000000
-0.006662 -0.019909 0.000000
0.000000 0.000000 0.000000
0.006390 0.004410 0.000000
0.004410 0.013862 0.000000
0.000000 0.000000 0.000000
0.013946 0.001310 0.000000
0.001310 -0.000397 0.000000
0.000000 0.000000 0.000000
-0.011431 0.003809 0.000000
0.003809 -0.023149 0.000000
0.000000 0.000000 0.000000
-0.009266 -0.005411 0.000000
-0.005411 -0.006953 0.000000
0.000000 0.000000 0.000000
-0.001648 -0.004169 0.000000
-0.004169 -0.004357 0.000000
0.000000 0.000000 0.000000
0.003742 0.002051 0.000000
0.002051 -0.005910 0.000000
0.000000 0.000000 0.000000
-0.013308 0.007905 0.000000
0.007905 -0.025905 0.000000
0.000000 0.000000 0.000000
0.011826 0.000134 0.000000
0.000134 -0.005372 0.000000
0.000000 0.000000 0.000000
-0.016884 0.004996 0.000000
0.004996 0.008275 0.000000
0.000000 0.000000 0.000000
-0.000098 -0.001897 0.000000
-0.001897 -0.002028 0.000000
0.000000 0.000000 0.000000
0.001736 0.004953 0.000000
0.004953 -0.004586 0.000000
0.000000 0.000000 0.000000
0.009571 -0.001741 0.000000
-0.001741 0.011169 0.000000
0.000000 0.000000 0.000000
0.009017 -0.000077 0.000000
-0.000077 0.011445 0.000000
0.000000 0.000000 0.000000
0.010530 0.000729 0.000000
0.000729 -0.004354 0.000000
0.000000 0.000000 0.000000
0.009359 0.005188 0.000000
0.005188 -0.004075 0.000000
0.000000 0.000000 0.000000
0.013462 0.009088 0.000000
0.009088 0.025738 0.000000
0.000000 0.000000 0.000000
-0.003988 0.007985 0.000000
0.007985 0.000975 0.000000
0.000000 0.000000 0.000000
-0.005234 0.001379 0.000000
0.001379 -0.006339 0.000000
0.000000 0.000000 0.000000
0.014469 -0.012542 0.000000
-0.012542 0.019388 0.000000
0.000000 0.000000 0.000000
-0.005473 0.004273 0.000000
0.004273 -0.002219 0.000000
0.000000 0.000000 0.000000
0.014160 -0.006625 0.000000
-0.006625 0.030755 0.000000
0.000000 0.000000 0.000000
0.012788 -0.008166 0.000000
-0.008166 0.031952 0.000000
0.000000 0.000000 0.000000
-0.000199 0.000429 0.000000
0.000429 -0.006916 0.000000
0.000000 0.000000 0.000000
0.001756 0.007937 0.000000
0.007937 -0.000456 0.000000
0.000000 0.000000 0.000000
0.000940 -0.001004 0.000000
-0.001004 -0.005266 0.000000
0.000000 0.000000 0.000000
-0.016369 0.008391 0.000000
0.008391 0.008662 0.000000
0.000000 0.000000 0.000000
0.010657 0.001386 0.000000
0.001386 0.014511 0.000000
0.000000 0.000000 0.000000
-0.009149 0.000879 0.000000
0.000879 -0.002941 0.000000
0.000000 0.000000 0.000000
0.014356 0.003560 0.000000
0.003560 0.007254 0.000000
0.000000 0.000000 0.000000
-0.005593 0.001093 0.000000
0.001093 0.004033 0.000000
0.000000 0.000000 0.000000
-0.013495 -0.026679 0.000000
-0.026679 -0.002894 0.000000
0.000000 0.000000 0.000000
0.002750 -0.018087 0.000000
-0.018087 0.012765 0.000000
0.000000 0.000000 0.000000
0.022562 -0.002416 0.000000
-0.002416 -0.001041 0.000000
0.000000 0.000000 0.000000
0.015286 0.007166 0.000000
0.007166 0.019259 0.000000
0.000000 0.000000 0.000000
-0.004786 -0.005606 0.000000
-0.005606 -0.006331 0.000000
0.000000 0.000000 0.000000
-0.015008 -0.010584 0.000000
-0.010584 0.004746 0.000000
0.000000 0.000000 0.000000
-0.016324 0.005609 0.000000
0.005609 -0.009286 0.000000
0.000000 0.000000 0.000000
-0.008174 -0.011925 0.000000
-0.011925 0.002486 0.000000
0.000000 0.000000 0.000000
-0.006837 -0.009062 0.000000
-0.009062 0.013608 0.000000
0.000000 0.000000 0.000000
0.005180 0.016705 0.000000
0.016705 0.002227 0.000000
0.000000 0.000000 0.000000
0.006915 -0.001516 0.000000
-0.001516 0.023259 0.000000
0.000000 0.000000 0.000000
0.007857 0.006548 0.000000
0.006548 0.024549 0.000000
0.000000 0.000000 0.000000
-0.005796 0.004681 0.000000
0.004681 -0.007949 0.000000
0.000000 0.000000 0.000000
0.009573 0.006469 0.000000
0.006469 0.011357 0.000000
0.000000 0.000000 0.000000
0.004350 0.004391 0.000000
0.004391 -0.013659 0.000000
0.000000 0.000000 0.000000
0.001537 0.009640 0.000000
0.009640 -0.008176 0.000000
0.000000 0.000000 0.000000
0.001950 0.009792 0.000000
0.009792 -0.006830 0.000000
0.000000 0.000000 0.000000
-0.022848 0.006619 0.000000
0.006619 -0.015006 0.000000
0.000000 0.000000 0.000000
-0.000930 0.010251 0.000000
0.010251 -0.014294 0.000000
0.000000 0.000000 0.000000
0.004106 0.012614 0.000000
0.012614 0.000108 0.000000
0.000000 0.000000 0.000000
-0.008828 -0.002703 0.000000
-0.002703 -0.015698 0.000000
0.000000 0.000000 0.000000
0.000337 -0.004658 0.000000
-0.004658 -0.012163 0.000000
0.000000 0.000000 0.000000
0.013871 0.006967 0.000000
0.006967 0.026552 0.000000
0.000000 0.000000 0.000000
0.006850 0.002328 0.000000
0.002328 0.015081 0.000000
0.000000 0.000000 0.000000
0.002807 0.004089 0.000000
0.004089 0.016282 0.000000
0.000000 0.000000 0.000000
0.005532 0.000380 0.000000
0.000380 -0.001062 0.000000
0.000000 0.000000 0.000000
-0.006527 0.004754 0.000000
0.004754 -0.007489 0.000000
0.000000 0.000000 0.000000
-0.009494 0.004175 0.000000
0.004175 -0.004120 0.000000
0.000000 0.000000 0.000000
0.001473 -0.009256 0.000000
-0.009256 0.014043 0.000000
0.000000 0.000000 0.000000
0.003075 -0.001012 0.000000
-0.001012 0.000508 0.000000
0.000000 0.000000 0.000000
-0.004054 -0.001343 0.000000
-0.001343 0.001412 0.000000
0.000000 0.000000 0.000000
0.005107 0.003833 0.000000
0.003833 0.013891 0.000000
0.000000 0.000000 0.000000
0.005147 0.003512 0.000000
0.003512 0.013803 0.000000
0.000000 0.000000 0.000000
0.002353 0.002416 0.000000
0.002416 0.011659 0.000000
0.000000 0.000000 0.000000
0.004805 0.000032 0.000000
0.000032 0.016864 0.000000
0.000000 0.000000 0.000000
0.007326 -0.003087 0.000000
-0.003087 0.005829 0.000000
0.000000 0.000000 0.000000
-0.001328 0.013172 0.000000
0.013172 -0.017997 0.000000
0.000000 0.000000 0.000000
-0.027150 0.000238 0.000000
0.000238 -0.040327 0.000000
0.000000 0.000000 0.000000
-0.003207 0.000278 0.000000
0.000278 -0.017980 0.000000
0.000000 0.000000 0.000000
0.003675 0.010177 0.000000
0.010177 -0.011979 0.000000
0.000000 0.000000 0.000000
0.001392 -0.000568 0.000000
-0.000568 0.013249 0.000000
0.000000 0.000000 0.000000
0.010415 -0.004128 0.000000
-0.004128 0.040833 0.000000
0.000000 0.000000 0.000000
-0.002842 0.003968 0.000000
0.003968 0.003030 0.000000
0.000000 0.000000 0.000000
0.009976 0.008271 0.000000
0.008271 -0.009351 0.000000
0.000000 0.000000 0.000000
0.000617 0.000256 0.000000
0.000256 0.003169 0.000000
0.000000 0.000000 0.000000
-0.000537 -0.001377 0.000000
-0.001377 -0.000952 0.000000
0.000000 0.000000 0.000000
-0.011122 0.006950 0.000000
0.006950 0.005087 0.000000
0.000000 0.000000 0.000000
0.007904 -0.002216 0.000000
-0.002216 0.000692 0.000000
0.000000 0.000000 0.000000
-0.003212 -0.000660 0.000000
-0.000660 -0.003265 0.000000
0.000000 0.000000 0.000000
-0.000579 0.000740 0.000000
0.000740 -0.002317 0.000000
0.000000 0.000000 0.000000
0.013954 -0.008281 0.000000
-0.008281 0.027924 0.000000
0.000000 0.000000 0.000000
0.003268 0.000953 0.000000
0.000953 0.003690 0.000000
0.000000 0.000000 0.000000
0.003028 -0.000210 0.000000
-0.000210 0.003218 0.000000
0.000000 0.000000 0.000000
-0.010158 0.002935 0.000000
0.002935 -0.000307 0.000000
0.000000 0.000000 0.000000
-0.020086 0.006041 0.000000
0.006041 -0.000387 0.000000
0.000000 0.000000 0.000000
0.005678 -0.017729 0.000000
-0.017729 -0.016572 0.000000
0.000000 0.000000 0.000000
0.003234 0.019318 0.000000
0.019318 0.011995 0.000000
0.000000 0.000000 0.000000
0.001307 0.014585 0.000000
0.014585 -0.001799 0.000000
0.000000 0.000000 0.000000
0.005887 0.002045 0.000000
0.002045 0.008406 0.000000
0.000000 0.000000 0.000000
0.003929 0.016447 0.000000
0.016447 0.001452 0.000000
0.000000 0.000000 0.000000
-0.005632 0.002477 0.000000
0.002477 -0.007206 0.000000
0.000000 0.000000 0.000000
-0.003576 0.000892 0.000000
0.000892 -0.003767 0.000000
0.000000 0.000000 0.000000
0.003386 0.006746 0.000000
0.006746 0.000613 0.000000
0.000000 0.000000 0.000000
-0.002792 0.001308 0.000000
0.001308 -0.003140 0.000000
0.000000 0.000000 0.000000
-0.008497 -0.003550 0.000000
-0.003550 0.004110 0.000000
0.000000 0.000000 0.000000
-0.002016 0.002202 0.000000
0.002202 0.007738 0.000000
0.000000 0.000000 0.000000
0.001525 0.002974 0.000000
0.002974 0.005653 0.000000
0.000000 0.000000 0.000000
-0.013460 -0.000572 0.000000
-0.000572 -0.011836 0.000000
0.000000 0.000000 0.000000
-0.008358 -0.005335 0.000000
-0.005335 -0.004635 0.000000
0.000000 0.000000 0.000000
-0.009493 0.010292 0.000000
0.010292 -0.008072 0.000000
0.000000 0.000000 0.000000
-0.010143 -0.003023 0.000000
-0.003023 -0.021200 0.000000
0.000000 0.000000 0.000000
-0.013365 -0.006307 0.000000
-0.006307 -0.024828 0.000000
0.000000 0.000000 0.000000
-0.008765 0.002292 0.000000
0.002292 -0.004154 0.000000
0.000000 0.000000 0.000000
0.001535 0.004132 0.000000
0.004132 0.005704 0.000000
0.000000 0.000000 0.000000
-0.008508 0.009280 0.000000
0.009280 -0.022203 0.000000
0.000000 0.000000 0.000000
0.009380 -0.012366 0.000000
-0.012366 0.011713 0.000000
0.000000 0.000000 0.000000
0.001255 0.003230 0.000000
0.003230 0.006041 0.000000
0.000000 0.000000 0.000000
0.002472 0.010364 0.000000
0.010364 0.012084 0.000000
0.000000 0.000000 0.000000
0.005084 0.005870 0.000000
0.005870 0.024725 0.000000
0.000000 0.000000 0.000000
0.001439 0.000525 0.000000
0.000525 -0.006244 0.000000
0.000000 0.000000 0.000000
-0.003883 0.017034 0.000000
0.017034 -0.006470 0.000000
0.000000 0.000000 0.000000
-0.000354 0.018597 0.000000
0.018597 -0.004412 0.000000
0.000000 0.000000 0.000000
0.000436 -0.002904 0.000000
-0.002904 0.004273 0.000000
0.000000 0.000000 0.000000
0.010783 0.001907 0.000000
0.001907 0.011098 0.000000
0.000000 0.000000 0.000000
-0.001012 -0.003439 0.000000
-0.003439 -0.002001 0.000000
0.000000 0.000000 0.000000
0.006440 -0.000658 0.000000
-0.000658 0.009809 0.000000
0.000000 0.000000 0.000000
0.004744 0.005592 0.000000
0.005592 0.007131 0.000000
0.000000 0.000000 0.000000
0.000091 -0.000221 0.000000
-0.000221 -0.002335 0.000000
0.000000 0.000000 0.000000
0.001500 0.001087 0.000000
0.001087 -0.001721 0.000000
0.000000 0.000000 0.000000
-0.001371 -0.000247 0.000000
-0.000247 -0.016018 0.000000
0.000000 0.000000 0.000000
0.012250 -0.003825 0.000000
-0.003825 0.006054 0.000000
0.000000 0.000000 0.000000
0.031037 -0.016787 0.000000
-0.016787 0.036091 0.000000
0.000000 0.000000 0.000000
-0.006077 -0.000565 0.000000
-0.000565 -0.001070 0.000000
0.000000 0.000000 0.000000
-0.001437 -0.006678 0.000000
-0.006678 -0.005877 0.000000
0.000000 0.000000 0.000000
-0.002041 -0.004187 0.000000
-0.004187 -0.002573 0.000000
0.000000 0.000000 0.000000
0.013508 0.004290 0.000000
0.004290 0.001158 0.000000
0.000000 0.000000 0.000000
0.006829 0.007715 0.000000
0.007715 -0.001724 0.000000
0.000000 0.000000 0.000000
-0.009183 -0.002891 0.000000
-0.002891 -0.004434 0.000000
0.000000 0.000000 0.000000
0.021154 0.001829 0.000000
0.001829 0.008574 0.000000
0.000000 0.000000 0.000000
0.002705 0.002130 0.000000
0.002130 0.009153 0.000000
0.000000 0.000000 0.000000
0.000614 -0.002181 0.000000
-0.002181 0.008730 0.000000
0.000000 0.000000 0.000000
0.001231 0.013138 0.000000
0.013138 -0.022470 0.000000
0.000000 0.000000 0.000000
-0.002429 0.005144 0.000000
0.005144 -0.012308 0.000000
0.000000 0.000000 0.000000
-0.011261 0.000238 0.000000
0.000238 0.007893 0.000000
0.000000 0.000000 0.000000
0.012686 0.020063 0.000000
0.020063 0.006824 0.000000
0.000000 0.000000 0.000000
0.002560 -0.000131 0.000000
-0.000131 0.007303 0.000000
0.000000 0.000000 0.000000
0.001108 0.001298 0.000000
0.001298 0.005327 0.000000
0.000000 0.000000 0.000000
0.001974 -0.001498 0.000000
-0.001498 0.005496 0.000000
0.000000 0.000000 0.000000
-0.003819 0.001464 0.000000
0.001464 -0.025834 0.000000
0.000000 0.000000 0.000000
0.000084 0.004515 0.000000
0.004515 -0.026214 0.000000
0.000000 0.000000 0.000000
0.010822 -0.006292 0.000000
-0.006292 0.024731 0.000000
0.000000 0.000000 0.000000
-0.007711 0.009566 0.000000
0.009566 -0.007272 0.000000
0.000000 0.000000 0.000000
-0.005028 0.011311 0.000000
0.011311 -0.001612 0.000000
0.000000 0.000000 0.000000
0.002591 -0.010952 0.000000
-0.010952 -0.003768 0.000000
0.000000 0.000000 0.000000
0.006191 0.004828 0.000000
0.004828 -0.002642 0.000000
0.000000 0.000000 0.000000
0.001311 0.013948 0.000000
0.013948 -0.004621 0.000000
0.000000 0.000000 0.000000
-0.000099 0.009927 0.000000
0.009927 0.002364 0.000000
0.000000 0.000000 0.000000
-0.006195 0.000630 0.000000
0.000630 -0.024554 0.000000
0.000000 0.000000 0.000000
0.010253 -0.007609 0.000000
-0.007609 0.017554 0.000000
0.000000 0.000000 0.000000
0.008911 -0.003518 0.000000
-0.003518 0.013113 0.000000
0.000000 0.000000 0.000000
-0.010234 -0.004169 0.000000
-0.004169 -0.008556 0.000000
0.000000 0.000000 0.000000
0.001470 0.001205 0.000000
0.001205 0.000837 0.000000
0.000000 0.000000 0.000000
0.006236 0.010486 0.000000
0.010486 -0.008829 0.000000
0.000000 0.000000 0.000000
-0.014014 -0.023707 0.000000
-0.023707 -0.018958 0.000000
0.000000 0.000000 0.000000
0.009870 0.004696 0.000000
0.004696 0.001894 0.000000
0.000000 0.000000 0.000000
-0.001956 -0.000376 0.000000
-0.000376 -0.023915 0.000000
0.000000 0.000000 0.000000
0.007950 0.010777 0.000000
0.010777 0.004510 0.000000
0.000000 0.000000 0.000000
0.013245 0.005823 0.000000
0.005823 0.000266 0.000000
0.000000 0.000000 0.000000
0.005900 -0.004350 0.000000
-0.004350 -0.017497 0.000000
0.000000 0.000000 0.000000
-0.010710 -0.000025 0.000000
-0.000025 -0.015969 0.000000
0.000000 0.000000 0.000000
-0.004546 -0.009236 0.000000
-0.009236 -0.008274 0.000000
0.000000 0.000000 0.000000
-0.014380 -0.006393 0.000000
-0.006393 -0.012742 0.000000
0.000000 0.000000 0.000000
0.005249 0.009982 0.000000
0.009982 -0.009101 0.000000
0.000000 0.000000 0.000000
-0.005196 -0.001123 0.000000
-0.001123 -0.013994 0.000000
0.000000 0.000000 0.000000
-0.007186 0.002306 0.000000
0.002306 -0.014279 0.000000
0.000000 0.000000 0.000000
-0.009396 -0.007809 0.000000
-0.007809 -0.027822 0.000000
0.000000 0.000000 0.000000
0.000356 -0.005569 0.000000
-0.005569 0.003961 0.000000
0.000000 0.000000 0.000000
0.013194 -0.067674 0.000000
-0.067674 0.017149 0.000000
0.000000 0.000000 0.000000
-0.007026 -0.005411 0.000000
-0.005411 -0.031344 0.000000
0.000000 0.000000 0.000000
0.016747 0.011189 0.000000
0.011189 0.037363 0.000000
0.000000 0.000000 0.000000
0.020511 0.011449 0.000000
0.011449 0.038507 0.000000
0.000000 0.000000 0.000000
-0.006430 -0.003689 0.000000
-0.003689 -0.006828 0.000000
0.000000 0.000000 0.000000
-0.001178 -0.006939 0.000000
-0.006939 0.008947 0.000000
0.000000 0.000000 0.000000
-0.004365 -0.019741 0.000000
-0.019741 -0.006823 0.000000
0.000000 0.000000 0.000000
-0.001992 0.005473 0.000000
0.005473 -0.006686 0.000000
0.000000 0.000000 0.000000
0.007191 0.004195 0.000000
0.004195 0.005505 0.000000
0.000000 0.000000 0.000000
0.005546 0.004998 0.000000
0.004998 0.004932 0.000000
0.000000 0.000000 0.000000
0.003234 0.001743 0.000000
0.001743 0.000363 0.000000
0.000000 0.000000 0.000000
-0.015263 0.007057 0.000000
0.007057 -0.024502 0.000000
0.000000 0.000000 0.000000
-0.014854 0.007021 0.000000
0.007021 -0.023119 0.000000
0.000000 0.000000 0.000000
0.001616 0.001534 0.000000
0.001534 -0.020954 0.000000
0.000000 0.000000 0.000000
-0.008356 0.005545 0.000000
0.005545 -0.008161 0.000000
0.000000 0.000000 0.000000
0.004090 -0.011992 0.000000
-0.011992 0.002820 0.000000
0.000000 0.000000 0.000000
0.005397 0.005690 0.000000
0.005690 -0.011096 0.000000
0.000000 0.000000 0.000000
0.008956 0.001058 0.000000
0.001058 0.009088 0.000000
0.000000 0.000000 0.000000
-0.003518 -0.010199 0.000000
-0.010199 -0.000028 0.000000
0.000000 0.000000 0.000000
0.002399 -0.001329 0.000000
-0.001329 -0.005154 0.000000
0.000000 0.000000 0.000000
0.000486 -0.012097 0.000000
-0.012097 0.014310 0.000000
0.000000 0.000000 0.000000
0.011928 0.002020 0.000000
0.002020 0.021864 0.000000
0.000000 0.000000 0.000000
0.001672 -0.010656 0.000000
-0.010656 0.006312 0.000000
0.000000 0.000000 0.000000
-0.005793 -0.014388 0.000000
-0.014388 -0.015554 0.000000
0.000000 0.000000 0.000000
0.001643 0.011743 0.000000
0.011743 -0.012057 0.000000
0.000000 0.000000 0.000000
0.016834 -0.011328 0.000000
-0.011328 -0.016698 0.000000
0.000000 0.000000 0.000000
0.021840 -0.000191 0.000000
-0.000191 0.012434 0.000000
0.000000 0.000000 0.000000
-0.000063 0.005833 0.000000
0.005833 -0.010309 0.000000
0.000000 0.000000 0.000000
-0.018715 0.015871 0.000000
0.015871 0.014913 0.000000
0.000000 0.000000 0.000000
-0.004916 -0.003615 0.000000
-0.003615 0.011308 0.000000
0.000000 0.000000 0.000000
-0.011516 -0.007549 0.000000
-0.007549 -0.004845 0.000000
0.000000 0.000000 0.000000
0.013215 0.010305 0.000000
0.010305 -0.005266 0.000000
0.000000 0.000000 0.000000
0.006652 0.009220 0.000000
0.009220 0.018415 0.000000
0.000000 0.000000 0.000000
0.004943 -0.000375 0.000000
-0.000375 0.000819 0.000000
0.000000 0.000000 0.000000
0.001949 -0.002403 0.000000
-0.002403 -0.004116 0.000000
0.000000 0.000000 0.000000
-0.002104 0.004423 0.000000
0.004423 -0.019315 0.000000
0.000000 0.000000 0.000000
-0.017262 0.014689 0.000000
0.014689 -0.033151 0.000000
0.000000 0.000000 0.000000
0.005575 0.001032 0.000000
0.001032 0.003415 0.000000
0.000000 0.000000 0.000000
-0.010938 -0.007229 0.000000
-0.007229 -0.001982 0.000000
0.000000 0.000000 0.000000
0.008717 -0.002320 0.000000
-0.002320 0.014013 0.000000
0.000000 0.000000 0.000000
-0.012123 -0.009840 0.000000
-0.009840 0.006731 0.000000
0.000000 0.000000 0.000000
-0.012217 -0.011476 0.000000
-0.011476 0.006120 0.000000
0.000000 0.000000 0.000000
-0.022502 -0.014241 0.000000
-0.014241 0.000155 0.000000
0.000000 0.000000 0.000000
0.006346 0.006494 0.000000
0.006494 -0.000914 0.000000
0.000000 0.000000 0.000000
-0.000810 0.007745 0.000000
0.007745 -0.004945 0.000000
0.000000 0.000000 0.000000
0.009145 0.004551 0.000000
0.004551 0.003898 0.000000
0.000000 0.000000 0.000000
0.009908 0.016272 0.000000
0.016272 -0.000604 0.000000
0.000000 0.000000 0.000000
0.022207 0.007943 0.000000
0.007943 0.018369 0.000000
0.000000 0.000000 0.000000
-0.007665 -0.003006 0.000000
-0.003006 -0.025670 0.000000
0.000000 0.000000 0.000000
-0.012659 0.001533 0.000000
0.001533 -0.003601 0.000000
0.000000 0.000000 0.000000
-0.015617 0.003263 0.000000
0.003263 -0.005125 0.000000
0.000000 0.000000 0.000000
0.014422 -0.006798 0.000000
-0.006798 0.006953 0.000000
0.000000 0.000000 0.000000
0.018243 -0.013167 0.000000
-0.013167 -0.018960 0.000000
0.000000 0.000000 0.000000
0.001901 -0.000825 0.000000
-0.000825 0.002029 0.000000
0.000000 0.000000 0.000000
-0.018094 0.003875 0.000000
0.003875 -0.020107 0.000000
0.000000 0.000000 0.000000
0.000902 0.012452 0.000000
0.012452 0.027019 0.000000
0.000000 0.000000 0.000000
0.002394 0.002891 0.000000
0.002891 -0.014275 0.000000
0.000000 0.000000 0.000000
0.004374 0.005467 0.000000
0.005467 0.004381 0.000000
0.000000 0.000000 0.000000
-0.005266 -0.003791 0.000000
-0.003791 -0.001714 0.000000
0.000000 0.000000 0.000000
-0.004936 0.020413 0.000000
0.020413 0.007875 0.000000
0.000000 0.000000 0.000000
-0.007959 0.002874 0.000000
0.002874 -0.011121 0.000000
0.000000 0.000000 0.000000
-0.002612 0.005832 0.000000
0.005832 0.005883 0.000000
0.000000 0.000000 0.000000
0.003002 -0.003115 0.000000
-0.003115 0.004649 0.000000
0.000000 0.000000 0.000000
0.000272 -0.002674 0.000000
-0.002674 0.006303 0.000000
0.000000 0.000000 0.000000
0.000384 -0.000259 0.000000
-0.000259 0.008211 0.000000
0.000000 0.000000 0.000000
0.001251 0.010981 0.000000
0.010981 -0.006198 0.000000
0.000000 0.000000 0.000000
-0.002879 0.009453 0.000000
0.009453 -0.007641 0.000000
0.000000 0.000000 0.000000
-0.001628 -0.001093 0.000000
-0.001093 0.007441 0.000000
0.000000 0.000000 0.000000
0.006352 0.000426 0.000000
0.000426 0.007839 0.000000
0.000000 0.000000 0.000000
-0.005865 -0.003906 0.000000
-0.003906 0.002336 0.000000
0.000000 0.000000 0.000000
-0.007094 0.003049 0.000000
0.003049 0.007690 0.000000
0.000000 0.000000 0.000000
-0.002456 -0.002879 0.000000
-0.002879 -0.001044 0.000000
0.000000 0.000000 0.000000
0.001307 -0.001411 0.000000
-0.001411 -0.022355 0.000000
0.000000 0.000000 0.000000
-0.019491 0.001025 0.000000
0.001025 -0.012472 0.000000
0.000000 0.000000 0.000000
0.006090 0.004428 0.000000
0.004428 -0.002013 0.000000
0.000000 0.000000 0.000000
0.004693 0.007510 0.000000
0.007510 -0.001196 0.000000
0.000000 0.000000 0.000000
-0.001329 0.006391 0.000000
0.006391 -0.004311 0.000000
0.000000 0.000000 0.000000
0.006121 0.002170 0.000000
0.002170 0.000967 0.000000
0.000000 0.000000 0.000000
0.003396 0.005094 0.000000
0.005094 -0.003237 0.000000
0.000000 0.000000 0.000000
0.010424 0.005698 0.000000
0.005698 -0.000874 0.000000
0.000000 0.000000 0.000000
-0.002446 0.003057 0.000000
0.003057 -0.006233 0.000000
0.000000 0.000000 0.000000
0.017978 0.012135 0.000000
0.012135 0.004132 0.000000
0.000000 0.000000 0.000000
-0.004674 -0.000188 0.000000
-0.000188 -0.004721 0.000000
0.000000 0.000000 0.000000
-0.014090 0.003377 0.000000
0.003377 -0.003344 0.000000
0.000000 0.000000 0.000000
0.005402 0.005995 0.000000
0.005995 -0.007586 0.000000
0.000000 0.000000 0.000000
-0.020696 0.010497 0.000000
0.010497 -0.005631 0.000000
0.000000 0.000000 0.000000
0.000844 -0.007806 0.000000
-0.007806 -0.020281 0.000000
0.000000 0.000000 0.000000
-0.001531 -0.003414 0.000000
-0.003414 -0.013764 0.000000
0.000000 0.000000 0.000000
-0.014045 0.002031 0.000000
0.002031 -0.014816 0.000000
0.000000 0.000000 0.000000
0.009769 0.010438 0.000000
0.010438 0.008871 0.000000
0.000000 0.000000 0.000000
-0.005769 -0.000163 0.000000
-0.000163 -0.003981 0.000000
0.000000 0.000000 0.000000
-0.004595 -0.009324 0.000000
-0.009324 0.005048 0.000000
0.000000 0.000000 0.000000
-0.014397 0.001961 0.000000
0.001961 -0.007515 0.000000
0.000000 0.000000 0.000000
0.006777 -0.002131 0.000000
-0.002131 -0.017844 0.000000
0.000000 0.000000 0.000000
0.002007 0.007342 0.000000
0.007342 -0.009167 0.000000
0.000000 0.000000 0.000000
-0.004812 -0.004674 0.000000
-0.004674 0.000851 0.000000
0.000000 0.000000 0.000000
0.003767 0.002120 0.000000
0.002120 0.003881 0.000000
0.000000 0.000000 0.000000
0.004198 0.008384 0.000000
0.008384 0.001630 0.000000
0.000000 0.000000 0.000000
0.004909 0.003898 0.000000
0.003898 -0.010205 0.000000
0.000000 0.000000 0.000000
0.002274 0.004441 0.000000
0.004441 -0.000458 0.000000
0.000000 0.000000 0.000000
-0.003316 0.014359 0.000000
0.014359 0.002767 0.000000
0.000000 0.000000 0.000000
0.000561 0.002997 0.000000
0.002997 -0.003234 0.000000
0.000000 0.000000 0.000000
0.008001 -0.000512 0.000000
-0.000512 -0.000476 0.000000
0.000000 0.000000 0.000000
0.001171 -0.000681 0.000000
-0.000681 -0.002548 0.000000
0.000000 0.000000 0.000000
0.003894 0.003269 0.000000
0.003269 0.007235 0.000000
0.000000 0.000000 0.000000
0.004227 0.005536 0.000000
0.005536 -0.001858 0.000000
0.000000 0.000000 0.000000
0.003506 -0.003897 0.000000
-0.003897 0.000199 0.000000
0.000000 0.000000 0.000000
0.008609 0.014960 0.000000
0.014960 0.016287 0.000000
0.000000 0.000000 0.000000
0.000325 0.012887 0.000000
0.012887 0.013652 0.000000
0.000000 0.000000 0.000000
0.004335 -0.005089 0.000000
-0.005089 0.002573 0.000000
0.000000 0.000000 0.000000
-0.002376 -0.002418 0.000000
-0.002418 -0.013114 0.000000
0.000000 0.000000 0.000000
-0.015192 -0.004935 0.000000
-0.004935 -0.013161 0.000000
0.000000 0.000000 0.000000
0.002545 0.003574 0.000000
0.003574 0.001216 0.000000
0.000000 0.000000 0.000000
-0.007189 0.010506 0.000000
0.010506 0.007928 0.000000
0.000000 0.000000 0.000000
0.019642 -0.010120 0.000000
-0.010120 0.003697 0.000000
0.000000 0.000000 0.000000
-0.005965 0.006408 0.000000
0.006408 0.017404 0.000000
0.000000 0.000000 0.000000
-0.009079 0.004335 0.000000
0.004335 -0.003765 0.000000
0.000000 0.000000 0.000000
0.020369 -0.005751 0.000000
-0.005751 -0.001608 0.000000
0.000000 0.000000 0.000000
0.004982 0.001325 0.000000
0.001325 -0.013231 0.000000
0.000000 0.000000 0.000000
0.008197 -0.007222 0.000000
-0.007222 -0.005064 0.000000
0.000000 0.000000 0.000000
-0.004660 0.007431 0.000000
0.007431 -0.015709 0.000000
0.000000 0.000000 0.000000
0.002495 0.005667 0.000000
0.005667 -0.006188 0.000000
0.000000 0.000000 0.000000
-0.002158 0.008411 0.000000
0.008411 -0.015111 0.000000
0.000000 0.000000 0.000000
0.016083 0.004764 0.000000
0.004764 0.017126 0.000000
0.000000 0.000000 0.000000
0.001462 0.000215 0.000000
0.000215 -0.003541 0.000000
0.000000 0.000000 0.000000
-0.020983 -0.008409 0.000000
-0.008409 0.001798 0.000000
0.000000 0.000000 0.000000
-0.008937 0.002898 0.000000
0.002898 -0.009847 0.000000
0.000000 0.000000 0.000000
0.021338 0.006530 0.000000
0.006530 -0.000876 0.000000
0.000000 0.000000 0.000000
0.006385 0.005902 0.000000
0.005902 0.012724 0.000000
0.000000 0.000000 0.000000
0.005896 0.004871 0.000000
0.004871 0.018322 0.000000
0.000000 0.000000 0.000000
0.005941 0.002119 0.000000
0.002119 0.004098 0.000000
0.000000 0.000000 0.000000
-0.003165 0.004563 0.000000
0.004563 0.013338 0.000000
0.000000 0.000000 0.000000
0.017653 -0.008522 0.000000
-0.008522 0.006741 0.000000
0.000000 0.000000 0.000000
-0.015010 -0.003001 0.000000
-0.003001 0.020649 0.000000
0.000000 0.000000 0.000000
0.015979 0.001976 0.000000
0.001976 0.019161 0.000000
0.000000 0.000000 0.000000
0.008341 0.002478 0.000000
0.002478 0.012213 0.000000
0.000000 0.000000 0.000000
0.011554 0.004176 0.000000
0.004176 0.006564 0.000000
0.000000 0.000000 0.000000
0.016835 -0.007496 0.000000
-0.007496 0.023434 0.000000
0.000000 0.000000 0.000000
0.009972 -0.010610 0.000000
-0.010610 -0.001201 0.000000
0.000000 0.000000 0.000000
0.014263 0.004960 0.000000
0.004960 0.013798 0.000000
0.000000 0.000000 0.000000
0.004229 0.002716 0.000000
0.002716 0.013594 0.000000
0.000000 0.000000 0.000000
0.010024 0.001905 0.000000
0.001905 0.014979 0.000000
0.000000 0.000000 0.000000
-0.004834 0.003476 0.000000
0.003476 -0.026707 0.000000
0.000000 0.000000 0.000000
-0.002913 0.007249 0.000000
0.007249 -0.015597 0.000000
0.000000 0.000000 0.000000
-0.004679 0.002586 0.000000
0.002586 -0.003113 0.000000
0.000000 0.000000 0.000000
-0.000225 0.000245 0.000000
0.000245 -0.003912 0.000000
0.000000 0.000000 0.000000
0.004098 -0.001850 0.000000
-0.001850 -0.000354 0.000000
0.000000 0.000000 0.000000
-0.007086 0.000929 0.000000
0.000929 -0.013798 0.000000
0.000000 0.000000 0.000000
0.009890 -0.006870 0.000000
-0.006870 0.035542 0.000000
0.000000 0.000000 0.000000
0.011946 -0.008167 0.000000
-0.008167 0.026697 0.000000
0.000000 0.000000 0.000000
0.000160 -0.002199 0.000000
-0.002199 -0.013663 0.000000
0.000000 0.000000 0.000000
0.002404 -0.002090 0.000000
-0.002090 0.008230 0.000000
0.000000 0.000000 0.000000
-0.015492 -0.012527 0.000000
-0.012527 -0.033070 0.000000
0.000000 0.000000 0.000000
0.001378 0.004464 0.000000
0.004464 -0.001389 0.000000
0.000000 0.000000 0.000000
-0.000069 0.002670 0.000000
0.002670 -0.003751 0.000000
0.000000 0.000000 0.000000
-0.010233 -0.009304 0.000000
-0.009304 -0.010002 0.000000
0.000000 0.000000 0.000000
0.009051 0.001594 0.000000
0.001594 0.003067 0.000000
0.000000 0.000000 0.000000
-0.004841 -0.002106 0.000000
-0.002106 0.013435 0.000000
0.000000 0.000000 0.000000
0.008745 0.000536 0.000000
0.000536 0.000535 0.000000
0.000000 0.000000 0.000000
-0.004558 0.005809 0.000000
0.005809 0.002347 0.000000
0.000000 0.000000 0.000000
0.001586 0.005462 0.000000
0.005462 -0.015198 0.000000
0.000000 0.000000 0.000000
-0.002727 -0.002287 0.000000
-0.002287 -0.009976 0.000000
0.000000 0.000000 0.000000
0.011191 -0.007298 0.000000
-0.007298 -0.004527 0.000000
0.000000 0.000000 0.000000
0.006961 0.005451 0.000000
0.005451 -0.013767 0.000000
0.000000 0.000000 0.000000
-0.024154 -0.017266 0.000000
-0.017266 0.009167 0.000000
0.000000 0.000000 0.000000
0.014118 0.003247 0.000000
0.003247 0.000882 0.000000
0.000000 0.000000 0.000000
0.010292 0.000806 0.000000
0.000806 -0.004487 0.000000
0.000000 0.000000 0.000000
-0.003528 0.003461 0.000000
0.003461 0.008119 0.000000
0.000000 0.000000 0.000000
0.002874 0.000186 0.000000
0.000186 0.004527 0.000000
0.000000 0.000000 0.000000
0.013988 0.009317 0.000000
0.009317 0.007261 0.000000
0.000000 0.000000 0.000000
-0.011794 -0.000603 0.000000
-0.000603 0.005623 0.000000
0.000000 0.000000 0.000000
-0.000222 -0.000564 0.000000
-0.000564 -0.002728 0.000000
0.000000 0.000000 0.000000
-0.010619 -0.003360 0.000000
-0.003360 0.004903 0.000000
0.000000 0.000000 0.000000
-0.002870 0.002977 0.000000
0.002977 -0.001644 0.000000
0.000000 0.000000 0.000000
-0.000486 -0.004258 0.000000
-0.004258 -0.007132 0.000000
0.000000 0.000000 0.000000
-0.000738 0.001008 0.000000
0.001008 0.002969 0.000000
0.000000 0.000000 0.000000
-0.000066 -0.006012 0.000000
-0.006012 0.000383 0.000000
0.000000 0.000000 0.000000
0.008513 0.001728 0.000000
0.001728 0.003538 0.000000
0.000000 0.000000 0.000000
0.008902 -0.006128 0.000000
-0.006128 0.007253 0.000000
0.000000 0.000000 0.000000
-0.009039 0.004284 0.000000
0.004284 -0.012806 0.000000
0.000000 0.000000 0.000000
-0.017980 -0.000055 0.000000
-0.000055 0.006528 0.000000
0.000000 0.000000 0.000000
0.004156 -0.003452 0.000000
-0.003452 0.011130 0.000000
0.000000 0.000000 0.000000
-0.017062 -0.016434 0.000000
-0.016434 0.012554 0.000000
0.000000 0.000000 0.000000
-0.018860 -0.000151 0.000000
-0.000151 -0.007535 0.000000
0.000000 0.000000 0.000000
-0.014252 -0.005631 0.000000
-0.005631 -0.005303 0.000000
0.000000 0.000000 0.000000
0.001730 0.005345 0.000000
0.005345 0.017916 0.000000
0.000000 0.000000 0.000000
0.002601 -0.004126 0.000000
-0.004126 0.005544 0.000000
0.000000 0.000000 0.000000
-0.003621 0.001243 0.000000
0.001243 -0.003699 0.000000
0.000000 0.000000 0.000000
-0.003498 0.014404 0.000000
0.014404 0.006577 0.000000
0.000000 0.000000 0.000000
-0.004522 -0.011268 0.000000
-0.011268 -0.012502 0.000000
0.000000 0.000000 0.000000
-0.002950 -0.009416 0.000000
-0.009416 0.005394 0.000000
0.000000 0.000000 0.000000
-0.000847 0.000601 0.000000
0.000601 -0.007703 0.000000
0.000000 0.000000 0.000000
-0.009308 -0.001554 0.000000
-0.001554 0.004324 0.000000
0.000000 0.000000 0.000000
-0.005420 0.000267 0.000000
0.000267 -0.018729 0.000000
0.000000 0.000000 0.000000
-0.011047 0.000647 0.000000
0.000647 0.012457 0.000000
0.000000 0.000000 0.000000
0.022378 -0.003129 0.000000
-0.003129 -0.006994 0.000000
0.000000 0.000000 0.000000
0.017393 0.005240 0.000000
0.005240 0.011695 0.000000
0.000000 0.000000 0.000000
0.008553 0.005798 0.000000
0.005798 0.019477 0.000000
0.000000 0.000000 0.000000
-0.010032 0.007713 0.000000
0.007713 -0.016279 0.000000
0.000000 0.000000 0.000000
0.001762 -0.004499 0.000000
-0.004499 -0.001005 0.000000
0.000000 0.000000 0.000000
-0.011380 0.006955 0.000000
0.006955 -0.009061 0.000000
0.000000 0.000000 0.000000
-0.010332 0.003171 0.000000
0.003171 -0.008505 0.000000
0.000000 0.000000 0.000000
0.001758 0.002034 0.000000
0.002034 -0.000361 0.000000
0.000000 0.000000 0.000000
-0.013904 0.001168 0.000000
0.001168 -0.003429 0.000000
0.000000 0.000000 0.000000
0.003280 0.000901 0.000000
0.000901 -0.007679 0.000000
0.000000 0.000000 0.000000
0.005028 -0.008543 0.000000
-0.008543 0.031422 0.000000
0.000000 0.000000 0.000000
0.019344 0.005003 0.000000
0.005003 0.010082 0.000000
0.000000 0.000000 0.000000
0.004842 0.008659 0.000000
0.008659 -0.012902 0.000000
0.000000 0.000000 0.000000
-0.004709 0.002094 0.000000
0.002094 -0.008424 0.000000
0.000000 0.000000 0.000000
0.020179 -0.000313 0.000000
-0.000313 0.002222 0.000000
0.000000 0.000000 0.000000
-0.000075 -0.002312 0.000000
-0.002312 0.016300 0.000000
0.000000 0.000000 0.000000
0.005131 -0.002744 0.000000
-0.002744 -0.012902 0.000000
0.000000 0.000000 0.000000
-0.007423 0.001169 0.000000
0.001169 0.011983 0.000000
0.000000 0.000000 0.000000
0.019573 0.006446 0.000000
0.006446 -0.005362 0.000000
0.000000 0.000000 0.000000
-0.015545 0.009793 0.000000
0.009793 0.005300 0.000000
0.000000 0.000000 0.000000
-0.022210 0.005877 0.000000
0.005877 -0.001724 0.000000
0.000000 0.000000 0.000000
0.004701 0.002284 0.000000
0.002284 -0.004255 0.000000
0.000000 0.000000 0.000000
-0.006528 -0.000491 0.000000
-0.000491 0.003196 0.000000
0.000000 0.000000 0.000000
0.005362 -0.002710 0.000000
-0.002710 0.007497 0.000000
0.000000 0.000000 0.000000
0.001581 -0.005385 0.000000
-0.005385 -0.014518 0.000000
0.000000 0.000000 0.000000
0.000979 0.002319 0.000000
0.002319 0.004495 0.000000
0.000000 0.000000 0.000000
0.000657 0.011293 0.000000
0.011293 0.015459 0.000000
0.000000 0.000000 0.000000
-0.009513 -0.001013 0.000000
-0.001013 -0.000964 0.000000
0.000000 0.000000 0.000000
-0.014057 0.003394 0.000000
0.003394 0.000941 0.000000
0.000000 0.000000 0.000000
-0.005151 -0.003565 0.000000
-0.003565 0.001892 0.000000
0.000000 0.000000 0.000000
-0.002702 0.003546 0.000000
0.003546 0.009604 0.000000
0.000000 0.000000 0.000000
-0.011013 0.003324 0.000000
0.003324 -0.016449 0.000000
0.000000 0.000000 0.000000
-0.006738 0.005408 0.000000
0.005408 0.006984 0.000000
0.000000 0.000000 0.000000
-0.018292 -0.003392 0.000000
-0.003392 -0.017453 0.000000
0.000000 0.000000 0.000000
0.009628 -0.000519 0.000000
-0.000519 -0.014693 0.000000
0.000000 0.000000 0.000000
0.004337 0.001626 0.000000
0.001626 -0.019615 0.000000
0.000000 0.000000 0.000000
0.009950 -0.003583 0.000000
-0.003583 0.001981 0.000000
0.000000 0.000000 0.000000
0.002060 -0.007826 0.000000
-0.007826 -0.003893 0.000000
0.000000 0.000000 0.000000
0.006782 0.002273 0.000000
0.002273 0.022641 0.000000
0.000000 0.000000 0.000000
0.003647 -0.007888 0.000000
-0.007888 -0.005361 0.000000
0.000000 0.000000 0.000000
-0.016685 -0.002590 0.000000
-0.002590 -0.012994 0.000000
0.000000 0.000000 0.000000
-0.003551 -0.006536 0.000000
-0.006536 -0.002674 0.000000
0.000000 0.000000 0.000000
-0.001884 -0.009451 0.000000
-0.009451 -0.007402 0.000000
0.000000 0.000000 0.000000
0.006663 0.002239 0.000000
0.002239 -0.000471 0.000000
0.000000 0.000000 0.000000
-0.010697 0.001426 0.000000
0.001426 -0.002048 0.000000
0.000000 0.000000 0.000000
0.008887 0.000016 0.000000
0.000016 -0.002938 0.000000
0.000000 0.000000 0.000000
0.019295 0.005001 0.000000
0.005001 -0.007768 0.000000
0.000000 0.000000 0.000000
0.009790 0.001340 0.000000
0.001340 0.002708 0.000000
0.000000 0.000000 0.000000
0.004584 -0.003621 0.000000
-0.003621 0.004769 0.000000
0.000000 0.000000 0.000000
-0.003579 -0.001094 0.000000
-0.001094 -0.001851 0.000000
0.000000 0.000000 0.000000
-0.001248 0.001174 0.000000
0.001174 -0.006605 0.000000
0.000000 0.000000 0.000000
0.009369 -0.002674 0.000000
-0.002674 0.008789 0.000000
0.000000 0.000000 0.000000
0.007195 -0.010848 0.000000
-0.010848 0.005767 0.000000
0.000000 0.000000 0.000000
0.020547 -0.005748 0.000000
-0.005748 0.039075 0.000000
0.000000 0.000000 0.000000
0.018734 0.001961 0.000000
0.001961 0.013920 0.000000
0.000000 0.000000 0.000000
-0.001216 0.009223 0.000000
0.009223 0.000209 0.000000
0.000000 0.000000 0.000000
-0.005321 0.007982 0.000000
0.007982 -0.015277 0.000000
0.000000 0.000000 0.000000
-0.007405 0.000746 0.000000
0.000746 -0.023112 0.000000
0.000000 0.000000 0.000000
-0.000657 -0.001179 0.000000
-0.001179 -0.015969 0.000000
0.000000 0.000000 0.000000
0.019006 0.007610 0.000000
0.007610 -0.003143 0.000000
0.000000 0.000000 0.000000
0.000544 -0.002649 0.000000
-0.002649 -0.007129 0.000000
0.000000 0.000000 0.000000
0.004593 0.001209 0.000000
0.001209 0.000465 0.000000
0.000000 0.000000 0.000000
-0.009375 0.005761 0.000000
0.005761 0.007555 0.000000
0.000000 0.000000 0.000000
-0.008691 0.004347 0.000000
0.004347 -0.002066 0.000000
0.000000 0.000000 0.000000
-0.011193 -0.000962 0.000000
-0.000962 -0.000407 0.000000
0.000000 0.000000 0.000000
-0.009105 -0.002587 0.000000
-0.002587 0.002198 0.000000
0.000000 0.000000 0.000000
0.000033 0.002615 0.000000
0.002615 -0.010681 0.000000
0.000000 0.000000 0.000000
0.019255 0.003260 0.000000
0.003260 0.039080 0.000000
0.000000 0.000000 0.000000
0.003541 -0.018270 0.000000
-0.018270 -0.004419 0.000000
0.000000 0.000000 0.000000
0.017191 -0.008761 0.000000
-0.008761 0.045697 0.000000
0.000000 0.000000 0.000000
0.004974 -0.004306 0.000000
-0.004306 0.006851 0.000000
0.000000 0.000000 0.000000
0.003147 0.012173 0.000000
0.012173 -0.010339 0.000000
0.000000 0.000000 0.000000
-0.003076 0.004051 0.000000
0.004051 0.015140 0.000000
0.000000 0.000000 0.000000
-0.010021 0.009044 0.000000
0.009044 -0.000846 0.000000
0.000000 0.000000 0.000000
-0.015730 0.001857 0.000000
0.001857 0.005347 0.000000
0.000000 0.000000 0.000000
-0.000629 -0.005036 0.000000
-0.005036 -0.013764 0.000000
0.000000 0.000000 0.000000
-0.007825 0.000861 0.000000
0.000861 -0.023299 0.000000
0.000000 0.000000 0.000000
-0.004572 0.005237 0.000000
0.005237 -0.003203 0.000000
0.000000 0.000000 0.000000
0.006133 -0.005140 0.000000
-0.005140 0.019262 0.000000
0.000000 0.000000 0.000000
-0.008354 -0.002046 0.000000
-0.002046 -0.009553 0.000000
0.000000 0.000000 0.000000
0.030805 0.029053 0.000000
0.029053 0.008445 0.000000
0.000000 0.000000 0.000000
-0.007197 -0.003066 0.000000
-0.003066 -0.008648 0.000000
0.000000 0.000000 0.000000
0.007246 -0.009881 0.000000
-0.009881 0.004889 0.000000
0.000000 0.000000 0.000000
0.007290 0.009377 0.000000
0.009377 -0.001347 0.000000
0.000000 0.000000 0.000000
0.004076 0.003826 0.000000
0.003826 0.005082 0.000000
0.000000 0.000000 0.000000
0.004248 0.000779 0.000000
0.000779 0.013043 0.000000
0.000000 0.000000 0.000000
0.004543 0.000579 0.000000
0.000579 -0.002452 0.000000
0.000000 0.000000 0.000000
0.005394 -0.001930 0.000000
-0.001930 0.002679 0.000000
0.000000 0.000000 0.000000
0.025241 0.032882 0.000000
0.032882 0.011027 0.000000
0.000000 0.000000 0.000000
0.006573 -0.005579 0.000000
-0.005579 0.014328 0.000000
0.000000 0.000000 0.000000
-0.002028 -0.007142 0.000000
-0.007142 -0.014137 0.000000
0.000000 0.000000 0.000000
-0.004726 -0.005554 0.000000
-0.005554 -0.012904 0.000000
0.000000 0.000000 0.000000
-0.000006 -0.000296 0.000000
-0.000296 0.000716 0.000000
0.000000 0.000000 0.000000
-0.000596 -0.000846 0.000000
-0.000846 -0.004617 0.000000
0.000000 0.000000 0.000000
0.003886 0.005668 0.000000
0.005668 -0.004131 0.000000
0.000000 0.000000 0.000000
-0.007295 0.000141 0.000000
0.000141 -0.006668 0.000000
0.000000 0.000000 0.000000
-0.002357 -0.003846 0.000000
-0.003846 -0.001855 0.000000
0.000000 0.000000 0.000000
-0.002377 -0.000501 0.000000
-0.000501 -0.001929 0.000000
0.000000 0.000000 0.000000
-0.015107 -0.010617 0.000000
-0.010617 -0.026114 0.000000
0.000000 0.000000 0.000000
0.015014 0.008761 0.000000
0.008761 0.030987 0.000000
0.000000 0.000000 0.000000
-0.011221 0.008547 0.000000
0.008547 -0.009698 0.000000
0.000000 0.000000 0.000000
-0.019932 -0.010933 0.000000
-0.010933 -0.004510 0.000000
0.000000 0.000000 0.000000
0.002533 -0.004807 0.000000
-0.004807 -0.019348 0.000000
0.000000 0.000000 0.000000
-0.009541 0.006392 0.000000
0.006392 -0.015345 0.000000
0.000000 0.000000 0.000000
0.010325 0.003093 0.000000
0.003093 0.006282 0.000000
0.000000 0.000000 0.000000
0.009439 0.001032 0.000000
0.001032 -0.016646 0.000000
0.000000 0.000000 0.000000
-0.003276 0.009644 0.000000
0.009644 0.001887 0.000000
0.000000 0.000000 0.000000
-0.014623 0.002086 0.000000
0.002086 -0.039901 0.000000
0.000000 0.000000 0.000000
0.001793 0.001506 0.000000
0.001506 -0.007344 0.000000
0.000000 0.000000 0.000000
-0.002299 0.001582 0.000000
0.001582 -0.007825 0.000000
0.000000 0.000000 0.000000
-0.007192 0.009625 0.000000
0.009625 -0.014497 0.000000
0.000000 0.000000 0.000000
-0.010270 0.006072 0.000000
0.006072 -0.015980 0.000000
0.000000 0.000000 0.000000
-0.015930 0.003168 0.000000
0.003168 -0.034486 0.000000
0.000000 0.000000 0.000000
-0.004272 -0.002631 0.000000
-0.002631 -0.006790 0.000000
0.000000 0.000000 0.000000
0.012461 -0.004016 0.000000
-0.004016 0.041586 0.000000
0.000000 0.000000 0.000000
0.004886 -0.011873 0.000000
-0.011873 0.010566 0.000000
0.000000 0.000000 0.000000
0.002014 -0.008768 0.000000
-0.008768 0.009586 0.000000
0.000000 0.000000 0.000000
-0.015916 0.003099 0.000000
0.003099 -0.016674 0.000000
0.000000 0.000000 0.000000
-0.007450 0.015922 0.000000
0.015922 -0.013891 0.000000
0.000000 0.000000 0.000000
-0.006302 0.003060 0.000000
0.003060 -0.014488 0.000000
0.000000 0.000000 0.000000
-0.004690 0.002387 0.000000
0.002387 0.000792 0.000000
0.000000 0.000000 0.000000
-0.010935 -0.000822 0.000000
-0.000822 -0.015024 0.000000
0.000000 0.000000 0.000000
-0.005904 -0.010944 0.000000
-0.010944 0.004463 0.000000
0.000000 0.000000 0.000000
-0.011812 -0.008850 0.000000
-0.008850 0.007234 0.000000
0.000000 0.000000 0.000000
0.012522 0.002124 0.000000
0.002124 -0.008624 0.000000
0.000000 0.000000 0.000000
-0.001538 0.005069 0.000000
0.005069 -0.011671 0.000000
0.000000 0.000000 0.000000
0.005552 -0.001150 0.000000
-0.001150 0.013072 0.000000
0.000000 0.000000 0.000000
-0.002568 0.006155 0.000000
0.006155 -0.001218 0.000000
0.000000 0.000000 0.000000
-0.001729 0.002144 0.000000
0.002144 -0.000084 0.000000
0.000000 0.000000 0.000000
-0.002551 0.000520 0.000000
0.000520 -0.007135 0.000000
0.000000 0.000000 0.000000
-0.000159 0.009448 0.000000
0.009448 -0.006479 0.000000
0.000000 0.000000 0.000000
0.004102 -0.006797 0.000000
-0.006797 0.011678 0.000000
0.000000 0.000000 0.000000
-0.002505 0.004379 0.000000
0.004379 -0.015808 0.000000
0.000000 0.000000 0.000000
0.006542 0.001277 0.000000
0.001277 -0.000791 0.000000
0.000000 0.000000 0.000000
-0.001278 -0.000790 0.000000
-0.000790 -0.006498 0.000000
0.000000 0.000000 0.000000
-0.011565 0.001216 0.000000
0.001216 -0.020597 0.000000
0.000000 0.000000 0.000000
0.004119 0.000442 0.000000
0.000442 -0.004850 0.000000
0.000000 0.000000 0.000000
-0.001257 -0.015681 0.000000
-0.015681 -0.003389 0.000000
0.000000 0.000000 0.000000
0.010111 0.001453 0.000000
0.001453 0.017253 0.000000
0.000000 0.000000 0.000000
-0.009596 0.000085 0.000000
0.000085 -0.001169 0.000000
0.000000 0.000000 0.000000
-0.000526 -0.019013 0.000000
-0.019013 -0.000653 0.000000
0.000000 0.000000 0.000000
-0.012792 -0.005085 0.000000
-0.005085 -0.004841 0.000000
0.000000 0.000000 0.000000
-0.009368 -0.008149 0.000000
-0.008149 -0.004686 0.000000
0.000000 0.000000 0.000000
-0.019033 0.009634 0.000000
0.009634 -0.007110 0.000000
0.000000 0.000000 0.000000
0.005780 -0.004799 0.000000
-0.004799 0.004780 0.000000
0.000000 0.000000 0.000000
0.005244 -0.005207 0.000000
-0.005207 0.004377 0.000000
0.000000 0.000000 0.000000
-0.007440 -0.001975 0.000000
-0.001975 -0.017340 0.000000
0.000000 0.000000 0.000000
-0.004114 -0.004647 0.000000
-0.004647 -0.010970 0.000000
0.000000 0.000000 0.000000
0.010790 0.013706 0.000000
0.013706 0.017107 0.000000
0.000000 0.000000 0.000000
-0.011366 0.013058 0.000000
0.013058 -0.007930 0.000000
0.000000 0.000000 0.000000
-0.001978 0.003146 0.000000
0.003146 -0.001903 0.000000
0.000000 0.000000 0.000000
-0.022384 -0.008982 0.000000
-0.008982 -0.009945 0.000000
0.000000 0.000000 0.000000
-0.016671 0.002085 0.000000
0.002085 0.011189 0.000000
0.000000 0.000000 0.000000
-0.015017 -0.000317 0.000000
-0.000317 0.001397 0.000000
0.000000 0.000000 0.000000
0.001623 0.003493 0.000000
0.003493 0.006595 0.000000
0.000000 0.000000 0.000000
-0.007464 0.003463 0.000000
0.003463 -0.008705 0.000000
0.000000 0.000000 0.000000
-0.007917 0.006054 0.000000
0.006054 -0.009681 0.000000
0.000000 0.000000 0.000000
0.015876 -0.007459 0.000000
-0.007459 0.001857 0.000000
0.000000 0.000000 0.000000
-0.006669 0.002587 0.000000
0.002587 0.002017 0.000000
0.000000 0.000000 0.000000
-0.014484 -0.003717 0.000000
-0.003717 -0.007003 0.000000
0.000000 0.000000 0.000000
-0.002829 -0.004187 0.000000
-0.004187 -0.006294 0.000000
0.000000 0.000000 0.000000
0.005879 -0.002425 0.000000
-0.002425 -0.004929 0.000000
0.000000 0.000000 0.000000
-0.005369 -0.008671 0.000000
-0.008671 -0.010502 0.000000
0.000000 0.000000 0.000000
0.009226 -0.001678 0.000000
-0.001678 0.010010 0.000000
0.000000 0.000000 0.000000
-0.002615 0.004379 0.000000
0.004379 -0.012815 0.000000
0.000000 0.000000 0.000000
0.008843 0.000792 0.000000
0.000792 0.005199 0.000000
0.000000 0.000000 0.000000
0.002953 -0.000111 0.000000
-0.000111 0.005842 0.000000
0.000000 0.000000 0.000000
0.004969 0.000875 0.000000
0.000875 0.003678 0.000000
0.000000 0.000000 0.000000
0.005060 -0.003254 0.000000
-0.003254 0.004518 0.000000
0.000000 0.000000 0.000000
-0.000616 -0.005868 0.000000
-0.005868 0.007865 0.000000
0.000000 0.000000 0.000000
0.002895 0.000917 0.000000
0.000917 0.012028 0.000000
0.000000 0.000000 0.000000
0.015514 0.012408 0.000000
0.012408 -0.002577 0.000000
0.000000 0.000000 0.000000
0.003058 0.001067 0.000000
0.001067 0.012003 0.000000
0.000000 0.000000 0.000000
-0.006946 0.002057 0.000000
0.002057 -0.016143 0.000000
0.000000 0.000000 0.000000
-0.002933 0.005871 0.000000
0.005871 0.003389 0.000000
0.000000 0.000000 0.000000
-0.005846 -0.006646 0.000000
-0.006646 0.007445 0.000000
0.000000 0.000000 0.000000
0.004602 -0.003397 0.000000
-0.003397 0.000752 0.000000
0.000000 0.000000 0.000000
0.002627 0.007616 0.000000
0.007616 -0.006907 0.000000
0.000000 0.000000 0.000000
0.016327 -0.005356 0.000000
-0.005356 0.001944 0.000000
0.000000 0.000000 0.000000
0.009507 0.001959 0.000000
0.001959 0.005274 0.000000
0.000000 0.000000 0.000000
0.001227 -0.002221 0.000000
-0.002221 -0.001817 0.000000
0.000000 0.000000 0.000000
-0.002007 0.001662 0.000000
0.001662 -0.022168 0.000000
0.000000 0.000000 0.000000
0.000728 0.008270 0.000000
0.008270 -0.009397 0.000000
0.000000 0.000000 0.000000
0.011354 0.005417 0.000000
0.005417 -0.004724 0.000000
0.000000 0.000000 0.000000
0.006463 -0.005519 0.000000
-0.005519 0.007265 0.000000
0.000000 0.000000 0.000000
-0.002647 0.006364 0.000000
0.006364 -0.005004 0.000000
0.000000 0.000000 0.000000
-0.004327 0.003031 0.000000
0.003031 0.008323 0.000000
0.000000 0.000000 0.000000
-0.010570 0.006573 0.000000
0.006573 -0.034475 0.000000
0.000000 0.000000 0.000000
0.011005 -0.003966 0.000000
-0.003966 0.026890 0.000000
0.000000 0.000000 0.000000
0.012808 -0.004076 0.000000
-0.004076 0.014462 0.000000
0.000000 0.000000 0.000000
0.015951 -0.008939 0.000000
-0.008939 0.016678 0.000000
0.000000 0.000000 0.000000
-0.013069 -0.003246 0.000000
-0.003246 -0.018552 0.000000
0.000000 0.000000 0.000000
-0.008499 0.002743 0.000000
0.002743 -0.010473 0.000000
0.000000 0.000000 0.000000
-0.007846 0.018271 0.000000
0.018271 -0.002578 0.000000
0.000000 0.000000 0.000000
0.016439 -0.013417 0.000000
-0.013417 0.016789 0.000000
0.000000 0.000000 0.000000
0.003328 0.003386 0.000000
0.003386 0.013327 0.000000
0.000000 0.000000 0.000000
0.002532 0.006874 0.000000
0.006874 0.005527 0.000000
0.000000 0.000000 0.000000
-0.011349 -0.003613 0.000000
-0.003613 0.000994 0.000000
0.000000 0.000000 0.000000
-0.000810 -0.011120 0.000000
-0.011120 -0.014424 0.000000
0.000000 0.000000 0.000000
0.012087 -0.001165 0.000000
-0.001165 0.019943 0.000000
0.000000 0.000000 0.000000
-0.003211 -0.011724 0.000000
-0.011724 -0.006935 0.000000
0.000000 0.000000 0.000000
0.008628 0.001982 0.000000
0.001982 0.028626 0.000000
0.000000 0.000000 0.000000
0.004642 0.003439 0.000000
0.003439 -0.000570 0.000000
0.000000 0.000000 0.000000
0.024680 -0.008088 0.000000
-0.008088 0.005639 0.000000
0.000000 0.000000 0.000000
-0.006003 -0.008022 0.000000
-0.008022 -0.007631 0.000000
0.000000 0.000000 0.000000
0.007165 -0.001117 0.000000
-0.001117 0.002230 0.000000
0.000000 0.000000 0.000000
-0.005382 -0.003319 0.000000
-0.003319 -0.016380 0.000000
0.000000 0.000000 0.000000
-0.007631 -0.004443 0.000000
-0.004443 -0.001656 0.000000
0.000000 0.000000 0.000000
-0.001108 -0.007707 0.000000
-0.007707 0.002151 0.000000
0.000000 0.000000 0.000000
-0.001556 -0.004285 0.000000
-0.004285 -0.016073 0.000000
0.000000 0.000000 0.000000
-0.006047 0.005879 0.000000
0.005879 -0.005421 0.000000
0.000000 0.000000 0.000000
-0.004055 -0.006678 0.000000
-0.006678 -0.004813 0.000000
0.000000 0.000000 0.000000
0.005503 -0.004126 0.000000
-0.004126 0.004268 0.000000
0.000000 0.000000 0.000000
-0.010711 -0.009753 0.000000
-0.009753 -0.000617 0.000000
0.000000 0.000000 0.000000
-0.009695 -0.006374 0.000000
-0.006374 -0.000560 0.000000
0.000000 0.000000 0.000000
-0.008477 -0.007060 0.000000
-0.007060 0.000571 0.000000
0.000000 0.000000 0.000000
-0.006543 -0.005954 0.000000
-0.005954 -0.009041 0.000000
0.000000 0.000000 0.000000
0.004222 -0.001036 0.000000
-0.001036 0.011373 0.000000
0.000000 0.000000 0.000000
-0.006340 0.000044 0.000000
0.000044 -0.008558 0.000000
0.000000 0.000000 0.000000
-0.007963 -0.003226 0.000000
-0.003226 -0.015240 0.000000
0.000000 0.000000 0.000000
0.004178 0.010712 0.000000
0.010712 -0.011108 0.000000
0.000000 0.000000 0.000000
-0.005116 0.002157 0.000000
0.002157 -0.019219 0.000000
0.000000 0.000000 0.000000
-0.009968 0.004865 0.000000
0.004865 0.002640 0.000000
0.000000 0.000000 0.000000
0.029734 0.016329 0.000000
0.016329 -0.020508 0.000000
0.000000 0.000000 0.000000
0.027966 0.014505 0.000000
0.014505 -0.026763 0.000000
0.000000 0.000000 0.000000
0.000415 0.000151 0.000000
0.000151 0.001936 0.000000
0.000000 0.000000 0.000000
0.003720 0.009185 0.000000
0.009185 0.003449 0.000000
0.000000 0.000000 0.000000
-0.013961 -0.000879 0.000000
-0.000879 0.004433 0.000000
0.000000 0.000000 0.000000
-0.005617 -0.001905 0.000000
-0.001905 0.005991 0.000000
0.000000 0.000000 0.000000
0.000003 0.000729 0.000000
0.000729 -0.010299 0.000000
0.000000 0.000000 0.000000
-0.000797 0.007298 0.000000
0.007298 -0.003504 0.000000
0.000000 0.000000 0.000000
-0.007574 0.012107 0.000000
0.012107 -0.003448 0.000000
0.000000 0.000000 0.000000
-0.007259 0.018317 0.000000
0.018317 0.011565 0.000000
0.000000 0.000000 0.000000
0.003985 -0.007441 0.000000
-0.007441 0.006984 0.000000
0.000000 0.000000 0.000000
-0.000756 -0.009831 0.000000
-0.009831 0.004691 0.000000
0.000000 0.000000 0.000000
-0.002173 0.001619 0.000000
0.001619 -0.000013 0.000000
0.000000 0.000000 0.000000
0.003732 0.000049 0.000000
0.000049 0.019016 0.000000
0.000000 0.000000 0.000000
0.004059 -0.001703 0.000000
-0.001703 -0.001924 0.000000
0.000000 0.000000 0.000000
-0.011399 0.002330 0.000000
0.002330 -0.028237 0.000000
0.000000 0.000000 0.000000
-0.008328 0.001387 0.000000
0.001387 -0.022815 0.000000
0.000000 0.000000 0.000000
-0.010655 0.003022 0.000000
0.003022 -0.026925 0.000000
0.000000 0.000000 0.000000
-0.002768 0.001041 0.000000
0.001041 -0.003682 0.000000
0.000000 0.000000 0.000000
0.003352 0.001139 0.000000
0.001139 -0.008028 0.000000
0.000000 0.000000 0.000000
0.005428 0.000600 0.000000
0.000600 0.020963 0.000000
0.000000 0.000000 0.000000
-0.001442 0.003055 0.000000
0.003055 -0.005748 0.000000
0.000000 0.000000 0.000000
0.000538 -0.007489 0.000000
-0.007489 0.008197 0.000000
0.000000 0.000000 0.000000
-0.005345 -0.004265 0.000000
-0.004265 -0.012901 0.000000
0.000000 0.000000 0.000000
0.010863 -0.000963 0.000000
-0.000963 0.020702 0.000000
0.000000 0.000000 0.000000
0.004903 -0.001978 0.000000
-0.001978 0.000595 0.000000
0.000000 0.000000 0.000000
0.008688 -0.001022 0.000000
-0.001022 0.021887 0.000000
0.000000 0.000000 0.000000
-0.002381 0.007953 0.000000
0.007953 0.008009 0.000000
0.000000 0.000000 0.000000
-0.003873 0.000202 0.000000
0.000202 -0.008542 0.000000
0.000000 0.000000 0.000000
-0.013590 0.001146 0.000000
0.001146 0.005404 0.000000
0.000000 0.000000 0.000000
-0.000862 0.002683 0.000000
0.002683 -0.004477 0.000000
0.000000 0.000000 0.000000
0.002104 -0.005668 0.000000
-0.005668 0.004358 0.000000
0.000000 0.000000 0.000000
0.011691 -0.018981 0.000000
-0.018981 -0.017377 0.000000
0.000000 0.000000 0.000000
0.001928 0.003924 0.000000
0.003924 0.000982 0.000000
0.000000 0.000000 0.000000
0.018129 -0.020772 0.000000
-0.020772 0.007836 0.000000
0.000000 0.000000 0.000000
0.002744 -0.000966 0.000000
-0.000966 -0.006996 0.000000
0.000000 0.000000 0.000000
0.001573 0.003471 0.000000
0.003471 -0.000076 0.000000
0.000000 0.000000 0.000000
0.008607 0.020687 0.000000
0.020687 -0.032595 0.000000
0.000000 0.000000 0.000000
0.021139 0.011061 0.000000
0.011061 0.004785 0.000000
0.000000 0.000000 0.000000
-0.024056 0.015227 0.000000
0.015227 -0.007023 0.000000
0.000000 0.000000 0.000000
0.011792 -0.003383 0.000000
-0.003383 0.003110 0.000000
0.000000 0.000000 0.000000
0.006488 -0.010773 0.000000
-0.010773 0.009930 0.000000
0.000000 0.000000 0.000000
0.004924 -0.003704 0.000000
-0.003704 0.004067 0.000000
0.000000 0.000000 0.000000
-0.007701 -0.014304 0.000000
-0.014304 0.009502 0.000000
0.000000 0.000000 0.000000
0.002566 0.004282 0.000000
0.004282 -0.019249 0.000000
0.000000 0.000000 0.000000
0.007123 0.005440 0.000000
0.005440 -0.004689 0.000000
0.000000 0.000000 0.000000
-0.011683 -0.025638 0.000000
-0.025638 0.007302 0.000000
0.000000 0.000000 0.000000
0.002526 0.004845 0.000000
0.004845 0.002322 0.000000
0.000000 0.000000 0.000000
-0.002933 -0.002401 0.000000
-0.002401 -0.003778 0.000000
0.000000 0.000000 0.000000
-0.003210 -0.002177 0.000000
-0.002177 -0.001311 0.000000
0.000000 0.000000 0.000000
-0.022556 -0.008694 0.000000
-0.008694 -0.002651 0.000000
0.000000 0.000000 0.000000
0.016905 -0.002004 0.000000
-0.002004 -0.008029 0.000000
0.000000 0.000000 0.000000
0.000780 0.001889 0.000000
0.001889 -0.004137 0.000000
0.000000 0.000000 0.000000
-0.013076 -0.003563 0.000000
-0.003563 -0.012557 0.000000
0.000000 0.000000 0.000000
0.017429 0.004367 0.000000
0.004367 -0.000035 0.000000
0.000000 0.000000 0.000000
0.007816 0.000442 0.000000
0.000442 -0.004973 0.000000
0.000000 0.000000 0.000000
0.010949 -0.007649 0.000000
-0.007649 0.024061 0.000000
0.000000 0.000000 0.000000
0.019270 -0.004209 0.000000
-0.004209 0.014995 0.000000
0.000000 0.000000 0.000000
0.008701 -0.003930 0.000000
-0.003930 0.021028 0.000000
0.000000 0.000000 0.000000
0.031219 0.019908 0.000000
0.019908 0.006520 0.000000
0.000000 0.000000 0.000000
0.003288 0.000501 0.000000
0.000501 -0.003255 0.000000
0.000000 0.000000 0.000000
-0.004648 0.001259 0.000000
0.001259 -0.003602 0.000000
0.000000 0.000000 0.000000
0.001436 0.000618 0.000000
0.000618 0.005277 0.000000
0.000000 0.000000 0.000000
-0.009470 0.002906 0.000000
0.002906 -0.010742 0.000000
0.000000 0.000000 0.000000
-0.002558 -0.004689 0.000000
-0.004689 0.008560 0.000000
0.000000 0.000000 0.000000
0.000223 -0.002191 0.000000
-0.002191 -0.006206 0.000000
0.000000 0.000000 0.000000
0.000053 0.000431 0.000000
0.000431 0.007024 0.000000
0.000000 0.000000 0.000000
0.003144 0.002955 0.000000
0.002955 0.009442 0.000000
0.000000 0.000000 0.000000
0.005557 0.004016 0.000000
0.004016 -0.003297 0.000000
0.000000 0.000000 0.000000
-0.017759 -0.033949 0.000000
-0.033949 0.007315 0.000000
0.000000 0.000000 0.000000
-0.000995 -0.017657 0.000000
-0.017657 -0.032944 0.000000
0.000000 0.000000 0.000000
-0.022271 -0.006605 0.000000
-0.006605 0.006558 0.000000
0.000000 0.000000 0.000000
-0.021943 -0.004263 0.000000
-0.004263 0.010133 0.000000
0.000000 0.000000 0.000000
0.001707 -0.006386 0.000000
-0.006386 0.002334 0.000000
0.000000 0.000000 0.000000
0.003112 -0.001446 0.000000
-0.001446 0.003675 0.000000
0.000000 0.000000 0.000000
-0.000621 0.000903 0.000000
0.000903 0.003304 0.000000
0.000000 0.000000 0.000000
0.001667 -0.000726 0.000000
-0.000726 0.003945 0.000000
0.000000 0.000000 0.000000
0.002562 -0.002144 0.000000
-0.002144 0.004926 0.000000
0.000000 0.000000 0.000000
0.011801 -0.006445 0.000000
-0.006445 0.029199 0.000000
0.000000 0.000000 0.000000
0.000502 -0.009188 0.000000
-0.009188 0.001505 0.000000
0.000000 0.000000 0.000000
0.011284 -0.006625 0.000000
-0.006625 0.027596 0.000000
0.000000 0.000000 0.000000
-0.001120 0.006958 0.000000
0.006958 -0.001699 0.000000
0.000000 0.000000 0.000000
-0.002516 0.007114 0.000000
0.007114 -0.002149 0.000000
0.000000 0.000000 0.000000
0.004831 -0.003186 0.000000
-0.003186 0.000617 0.000000
0.000000 0.000000 0.000000
0.019996 0.001214 0.000000
0.001214 -0.006603 0.000000
0.000000 0.000000 0.000000
-0.004997 0.009736 0.000000
0.009736 -0.000238 0.000000
0.000000 0.000000 0.000000
0.007912 0.006990 0.000000
0.006990 -0.005440 0.000000
0.000000 0.000000 0.000000
-0.002393 -0.002004 0.000000
-0.002004 -0.007831 0.000000
0.000000 0.000000 0.000000
-0.000505 0.005160 0.000000
0.005160 0.008081 0.000000
0.000000 0.000000 0.000000
0.009075 0.005234 0.000000
0.005234 -0.015644 0.000000
0.000000 0.000000 0.000000
-0.002623 0.012311 0.000000
0.012311 -0.006455 0.000000
0.000000 0.000000 0.000000
-0.000815 -0.004007 0.000000
-0.004007 0.019849 0.000000
0.000000 0.000000 0.000000
0.002318 0.004608 0.000000
0.004608 0.001038 0.000000
0.000000 0.000000 0.000000
0.006275 0.007111 0.000000
0.007111 0.025792 0.000000
0.000000 0.000000 0.000000
-0.008598 -0.006970 0.000000
-0.006970 0.013531 0.000000
0.000000 0.000000 0.000000
0.000559 -0.002771 0.000000
-0.002771 0.011712 0.000000
0.000000 0.000000 0.000000
-0.005606 0.005553 0.000000
0.005553 -0.030235 0.000000
0.000000 0.000000 0.000000
0.002401 0.000215 0.000000
0.000215 0.000506 0.000000
0.000000 0.000000 0.000000
-0.011707 -0.008519 0.000000
-0.008519 0.015694 0.000000
0.000000 0.000000 0.000000
-0.017773 0.020377 0.000000
0.020377 0.021431 0.000000
0.000000 0.000000 0.000000
0.007316 -0.001003 0.000000
-0.001003 0.003833 0.000000
0.000000 0.000000 0.000000
-0.014840 0.015026 0.000000
0.015026 0.030564 0.000000
0.000000 0.000000 0.000000
0.016598 -0.010158 0.000000
-0.010158 0.004903 0.000000
0.000000 0.000000 0.000000
0.011391 0.007581 0.000000
0.007581 0.025991 0.000000
0.000000 0.000000 0.000000
-0.011176 -0.004276 0.000000
-0.004276 -0.015877 0.000000
0.000000 0.000000 0.000000
-0.002129 0.003703 0.000000
0.003703 -0.000209 0.000000
0.000000 0.000000 0.000000
-0.005528 -0.014133 0.000000
-0.014133 -0.003205 0.000000
0.000000 0.000000 0.000000
-0.007357 -0.004914 0.000000
-0.004914 0.001904 0.000000
0.000000 0.000000 0.000000
-0.004891 0.003385 0.000000
0.003385 0.001933 0.000000
0.000000 0.000000 0.000000
-0.003373 -0.007210 0.000000
-0.007210 0.000655 0.000000
0.000000 0.000000 0.000000
-0.000101 -0.003574 0.000000
-0.003574 -0.002495 0.000000
0.000000 0.000000 0.000000
0.020285 -0.002913 0.000000
-0.002913 -0.015357 0.000000
0.000000 0.000000 0.000000
-0.002139 -0.007048 0.000000
-0.007048 -0.010080 0.000000
0.000000 0.000000 0.000000
0.012763 -0.001226 0.000000
-0.001226 -0.002441 0.000000
0.000000 0.000000 0.000000
-0.006123 -0.007751 0.000000
-0.007751 -0.010969 0.000000
0.000000 0.000000 0.000000
-0.001327 -0.000694 0.000000
-0.000694 -0.011292 0.000000
0.000000 0.000000 0.000000
-0.001281 -0.000949 0.000000
-0.000949 0.001792 0.000000
0.000000 0.000000 0.000000
0.005057 -0.000155 0.000000
-0.000155 0.003743 0.000000
0.000000 0.000000 0.000000
0.004368 0.000255 0.000000
0.000255 0.003104 0.000000
0.000000 0.000000 0.000000
0.012223 -0.005145 0.000000
-0.005145 -0.000788 0.000000
0.000000 0.000000 0.000000
0.000878 0.001498 0.000000
0.001498 0.009169 0.000000
0.000000 0.000000 0.000000
0.009170 -0.000806 0.000000
-0.000806 0.007491 0.000000
0.000000 0.000000 0.000000
-0.013122 0.005454 0.000000
0.005454 -0.002898 0.000000
0.000000 0.000000 0.000000
-0.016259 0.023060 0.000000
0.023060 0.009343 0.000000
0.000000 0.000000 0.000000
0.000989 -0.006514 0.000000
-0.006514 -0.001579 0.000000
0.000000 0.000000 0.000000
-0.011990 0.006626 0.000000
0.006626 -0.000883 0.000000
0.000000 0.000000 0.000000
0.015929 0.014599 0.000000
0.014599 -0.016024 0.000000
0.000000 0.000000 0.000000
0.011477 -0.016660 0.000000
-0.016660 0.009735 0.000000
0.000000 0.000000 0.000000
0.004097 0.008601 0.000000
0.008601 -0.001969 0.000000
0.000000 0.000000 0.000000
-0.004736 0.000776 0.000000
0.000776 -0.008326 0.000000
0.000000 0.000000 0.000000
0.005792 -0.004307 0.000000
-0.004307 0.024611 0.000000
0.000000 0.000000 0.000000
-0.001791 0.001886 0.000000
0.001886 -0.008792 0.000000
0.000000 0.000000 0.000000
0.003924 -0.007836 0.000000
-0.007836 -0.010267 0.000000
0.000000 0.000000 0.000000
-0.001842 -0.000626 0.000000
-0.000626 -0.009650 0.000000
0.000000 0.000000 0.000000
0.038589 0.000630 0.000000
0.000630 -0.002444 0.000000
0.000000 0.000000 0.000000
-0.002095 0.007094 0.000000
0.007094 0.008601 0.000000
0.000000 0.000000 0.000000
-0.004954 0.002603 0.000000
0.002603 0.002076 0.000000
0.000000 0.000000 0.000000
-0.002458 0.004011 0.000000
0.004011 0.019540 0.000000
0.000000 0.000000 0.000000
0.010354 -0.002325 0.000000
-0.002325 0.027919 0.000000
0.000000 0.000000 0.000000
0.003677 0.003214 0.000000
0.003214 -0.000498 0.000000
0.000000 0.000000 0.000000
0.007766 0.000976 0.000000
0.000976 0.003624 0.000000
0.000000 0.000000 0.000000
0.008935 0.004222 0.000000
0.004222 0.024994 0.000000
0.000000 0.000000 0.000000
0.031789 -0.013878 0.000000
-0.013878 -0.008922 0.000000
0.000000 0.000000 0.000000
0.000122 0.003371 0.000000
0.003371 0.000977 0.000000
0.000000 0.000000 0.000000
-0.004745 0.002147 0.000000
0.002147 -0.021187 0.000000
0.000000 0.000000 0.000000
-0.003856 0.002007 0.000000
0.002007 -0.000861 0.000000
0.000000 0.000000 0.000000
0.003791 -0.003494 0.000000
-0.003494 -0.002614 0.000000
0.000000 0.000000 0.000000
0.011989 0.007244 0.000000
0.007244 0.027377 0.000000
0.000000 0.000000 0.000000
0.007499 -0.006423 0.000000
-0.006423 -0.006729 0.000000
0.000000 0.000000 0.000000
-0.004262 -0.001240 0.000000
-0.001240 -0.003088 0.000000
0.000000 0.000000 0.000000
0.000221 0.001659 0.000000
0.001659 0.005572 0.000000
0.000000 0.000000 0.000000
-0.001735 0.000015 0.000000
0.000015 -0.002208 0.000000
0.000000 0.000000 0.000000
-0.004619 0.001745 0.000000
0.001745 -0.001588 0.000000
0.000000 0.000000 0.000000
0.001621 0.000481 0.000000
0.000481 -0.003128 0.000000
0.000000 0.000000 0.000000
-0.004058 0.002112 0.000000
0.002112 -0.002327 0.000000
0.000000 0.000000 0.000000
0.006844 -0.002887 0.000000
-0.002887 0.006855 0.000000
0.000000 0.000000 0.000000
0.009008 -0.002745 0.000000
-0.002745 -0.022286 0.000000
0.000000 0.000000 0.000000
-0.002588 0.000636 0.000000
0.000636 -0.002557 0.000000
0.000000 0.000000 0.000000
-0.001632 -0.008881 0.000000
-0.008881 -0.009687 0.000000
0.000000 0.000000 0.000000
-0.003310 0.001459 0.000000
0.001459 -0.003390 0.000000
0.000000 0.000000 0.000000
0.013566 -0.001763 0.000000
-0.001763 -0.020515 0.000000
0.000000 0.000000 0.000000
-0.009254 -0.001721 0.000000
-0.001721 -0.021484 0.000000
0.000000 0.000000 0.000000
0.003229 -0.002453 0.000000
-0.002453 -0.003257 0.000000
0.000000 0.000000 0.000000
-0.002019 -0.005611 0.000000
-0.005611 -0.009789 0.000000
0.000000 0.000000 0.000000
-0.005996 -0.004276 0.000000
-0.004276 -0.015011 0.000000
0.000000 0.000000 0.000000
-0.000640 -0.008022 0.000000
-0.008022 -0.016724 0.000000
0.000000 0.000000 0.000000
-0.000056 -0.001261 0.000000
-0.001261 0.001887 0.000000
0.000000 0.000000 0.000000
-0.019202 -0.010674 0.000000
-0.010674 -0.001774 0.000000
0.000000 0.000000 0.000000
-0.007635 -0.013954 0.000000
-0.013954 0.003507 0.000000
0.000000 0.000000 0.000000
-0.010413 -0.003078 0.000000
-0.003078 -0.025382 0.000000
0.000000 0.000000 0.000000
0.003295 -0.000003 0.000000
-0.000003 -0.000282 0.000000
0.000000 0.000000 0.000000
0.000539 -0.001111 0.000000
-0.001111 0.004927 0.000000
0.000000 0.000000 0.000000
0.003751 -0.000839 0.000000
-0.000839 -0.000152 0.000000
0.000000 0.000000 0.000000
0.000329 0.013630 0.000000
0.013630 0.011156 0.000000
0.000000 0.000000 0.000000
-0.009682 0.002880 0.000000
0.002880 0.005869 0.000000
0.000000 0.000000 0.000000
-0.008814 -0.009938 0.000000
-0.009938 0.010834 0.000000
0.000000 0.000000 0.000000
0.013700 0.004722 0.000000
0.004722 0.010998 0.000000
0.000000 0.000000 0.000000
-0.001515 -0.007795 0.000000
-0.007795 0.014166 0.000000
0.000000 0.000000 0.000000
0.000006 -0.000394 0.000000
-0.000394 0.005434 0.000000
0.000000 0.000000 0.000000
-0.008348 -0.005879 0.000000
-0.005879 -0.009086 0.000000
0.000000 0.000000 0.000000
0.007306 0.001729 0.000000
0.001729 0.009139 0.000000
0.000000 0.000000 0.000000
0.004532 -0.006002 0.000000
-0.006002 0.008980 0.000000
0.000000 0.000000 0.000000
0.005282 -0.000200 0.000000
-0.000200 0.004647 0.000000
0.000000 0.000000 0.000000
0.009807 0.004168 0.000000
0.004168 -0.016170 0.000000
0.000000 0.000000 0.000000
0.020034 0.001647 0.000000
0.001647 0.002327 0.000000
0.000000 0.000000 0.000000
0.009264 0.002003 0.000000
0.002003 -0.015107 0.000000
0.000000 0.000000 0.000000
0.021204 -0.007586 0.000000
-0.007586 0.003143 0.000000
0.000000 0.000000 0.000000
0.007881 -0.004883 0.000000
-0.004883 0.027266 0.000000
0.000000 0.000000 0.000000
0.001166 -0.000636 0.000000
-0.000636 -0.004271 0.000000
0.000000 0.000000 0.000000
0.014943 -0.012011 0.000000
-0.012011 0.002058 0.000000
0.000000 0.000000 0.000000
0.004180 0.000356 0.000000
0.000356 0.004654 0.000000
0.000000 0.000000 0.000000
0.020926 -0.005938 0.000000
-0.005938 0.010688 0.000000
0.000000 0.000000 0.000000
0.006737 0.002590 0.000000
0.002590 0.009132 0.000000
0.000000 0.000000 0.000000
0.007672 0.002607 0.000000
0.002607 0.006052 0.000000
0.000000 0.000000 0.000000
0.007715 0.007232 0.000000
0.007232 0.008709 0.000000
0.000000 0.000000 0.000000
-0.009865 0.003360 0.000000
0.003360 -0.016060 0.000000
0.000000 0.000000 0.000000
-0.000140 0.005745 0.000000
0.005745 -0.013540 0.000000
0.000000 0.000000 0.000000
0.011300 -0.000484 0.000000
-0.000484 0.017158 0.000000
0.000000 0.000000 0.000000
0.003811 -0.000258 0.000000
-0.000258 0.002532 0.000000
0.000000 0.000000 0.000000
0.001788 0.001559 0.000000
0.001559 -0.000460 0.000000
0.000000 0.000000 0.000000
-0.000713 -0.002043 0.000000
-0.002043 0.000805 0.000000
0.000000 0.000000 0.000000
0.001631 0.001663 0.000000
0.001663 -0.006574 0.000000
0.000000 0.000000 0.000000
-0.002846 0.001370 0.000000
0.001370 -0.007812 0.000000
0.000000 0.000000 0.000000
0.003157 -0.000011 0.000000
-0.000011 -0.002261 0.000000
0.000000 0.000000 0.000000
0.001504 -0.001864 0.000000
-0.001864 0.004051 0.000000
0.000000 0.000000 0.000000
0.011595 -0.001609 0.000000
-0.001609 0.033419 0.000000
0.000000 0.000000 0.000000
0.009391 0.001220 0.000000
0.001220 0.006964 0.000000
0.000000 0.000000 0.000000
0.001435 -0.007354 0.000000
-0.007354 0.003005 0.000000
0.000000 0.000000 0.000000
-0.015623 -0.012582 0.000000
-0.012582 -0.004739 0.000000
0.000000 0.000000 0.000000
-0.010163 -0.005337 0.000000
-0.005337 0.001060 0.000000
0.000000 0.000000 0.000000
0.011183 -0.003243 0.000000
-0.003243 0.037510 0.000000
0.000000 0.000000 0.000000
0.003251 -0.004378 0.000000
-0.004378 0.008097 0.000000
0.000000 0.000000 0.000000
0.008697 -0.004005 0.000000
-0.004005 0.010962 0.000000
0.000000 0.000000 0.000000
0.006232 -0.008600 0.000000
-0.008600 -0.007295 0.000000
0.000000 0.000000 0.000000
-0.005358 0.003875 0.000000
0.003875 -0.005405 0.000000
0.000000 0.000000 0.000000
-0.010408 0.003536 0.000000
0.003536 0.004561 0.000000
0.000000 0.000000 0.000000
-0.008189 -0.008279 0.000000
-0.008279 -0.020817 0.000000
0.000000 0.000000 0.000000
0.012329 0.001881 0.000000
0.001881 -0.010462 0.000000
0.000000 0.000000 0.000000
-0.017754 0.010181 0.000000
0.010181 0.005676 0.000000
0.000000 0.000000 0.000000
0.002560 -0.002047 0.000000
-0.002047 -0.018007 0.000000
0.000000 0.000000 0.000000
0.011165 0.012582 0.000000
0.012582 0.013064 0.000000
0.000000 0.000000 0.000000
0.017306 0.009658 0.000000
0.009658 0.032599 0.000000
0.000000 0.000000 0.000000
0.023437 0.011301 0.000000
0.011301 -0.011516 0.000000
0.000000 0.000000 0.000000
0.000906 0.000612 0.000000
0.000612 0.015571 0.000000
0.000000 0.000000 0.000000
0.008486 0.000434 0.000000
0.000434 0.003260 0.000000
0.000000 0.000000 0.000000
0.000389 0.000579 0.000000
0.000579 0.002151 0.000000
0.000000 0.000000 0.000000
-0.006276 -0.000928 0.000000
-0.000928 -0.011302 0.000000
0.000000 0.000000 0.000000
-0.004682 0.005757 0.000000
0.005757 -0.013339 0.000000
0.000000 0.000000 0.000000
0.005279 -0.001567 0.000000
-0.001567 0.002385 0.000000
0.000000 0.000000 0.000000
-0.004334 -0.001593 0.000000
-0.001593 0.007548 0.000000
0.000000 0.000000 0.000000
-0.001647 -0.001020 0.000000
-0.001020 0.000702 0.000000
0.000000 0.000000 0.000000
0.005031 0.012759 0.000000
0.012759 0.007878 0.000000
0.000000 0.000000 0.000000
0.011977 0.001914 0.000000
0.001914 0.010044 0.000000
0.000000 0.000000 0.000000
0.001860 0.001035 0.000000
0.001035 0.008374 0.000000
0.000000 0.000000 0.000000
0.002852 0.004836 0.000000
0.004836 0.005760 0.000000
0.000000 0.000000 0.000000
0.006311 0.009589 0.000000
0.009589 0.020292 0.000000
0.000000 0.000000 0.000000
-0.013170 0.003920 0.000000
0.003920 -0.019917 0.000000
0.000000 0.000000 0.000000
-0.005517 0.004354 0.000000
0.004354 -0.027446 0.000000
0.000000 0.000000 0.000000
0.000688 0.000899 0.000000
0.000899 -0.004868 0.000000
0.000000 0.000000 0.000000
-0.011473 -0.009923 0.000000
-0.009923 0.011255 0.000000
0.000000 0.000000 0.000000
0.006772 0.001083 0.000000
0.001083 0.014210 0.000000
0.000000 0.000000 0.000000
0.014488 -0.021005 0.000000
-0.021005 -0.006968 0.000000
0.000000 0.000000 0.000000
0.003005 -0.002036 0.000000
-0.002036 0.002356 0.000000
0.000000 0.000000 0.000000
0.015312 -0.028166 0.000000
-0.028166 -0.004846 0.000000
0.000000 0.000000 0.000000
0.011054 -0.002232 0.000000
-0.002232 0.002243 0.000000
0.000000 0.000000 0.000000
0.003040 0.001542 0.000000
0.001542 0.017121 0.000000
0.000000 0.000000 0.000000
-0.000755 0.001127 0.000000
0.001127 -0.000973 0.000000
0.000000 0.000000 0.000000
0.005171 0.011005 0.000000
0.011005 0.020255 0.000000
0.000000 0.000000 0.000000
-0.006330 0.019211 0.000000
0.019211 -0.028004 0.000000
0.000000 0.000000 0.000000
-0.009428 -0.008678 0.000000
-0.008678 0.009457 0.000000
0.000000 0.000000 0.000000
0.008012 0.009084 0.000000
0.009084 -0.019089 0.000000
0.000000 0.000000 0.000000
-0.009218 -0.006737 0.000000
-0.006737 0.008715 0.000000
0.000000 0.000000 0.000000
0.003135 -0.002131 0.000000
-0.002131 -0.001862 0.000000
0.000000 0.000000 0.000000
-0.000235 -0.007772 0.000000
-0.007772 -0.007424 0.000000
0.000000 0.000000 0.000000
-0.011215 -0.005633 0.000000
-0.005633 -0.005738 0.000000
0.000000 0.000000 0.000000
-0.012118 -0.001299 0.000000
-0.001299 -0.007690 0.000000
0.000000 0.000000 0.000000
-0.001250 -0.003422 0.000000
-0.003422 -0.008078 0.000000
0.000000 0.000000 0.000000
-0.007333 0.005658 0.000000
0.005658 -0.011202 0.000000
0.000000 0.000000 0.000000
-0.022995 -0.002313 0.000000
-0.002313 -0.004498 0.000000
0.000000 0.000000 0.000000
-0.008288 -0.007585 0.000000
-0.007585 -0.004047 0.000000
0.000000 0.000000 0.000000
-0.023212 -0.002029 0.000000
-0.002029 -0.005715 0.000000
0.000000 0.000000 0.000000
-0.009763 -0.000528 0.000000
-0.000528 -0.006060 0.000000
0.000000 0.000000 0.000000
0.000281 0.006315 0.000000
0.006315 0.005082 0.000000
0.000000 0.000000 0.000000
-0.009607 0.001295 0.000000
0.001295 -0.003748 0.000000
0.000000 0.000000 0.000000
0.021164 0.005023 0.000000
0.005023 0.011398 0.000000
0.000000 0.000000 0.000000
0.012497 0.009318 0.000000
0.009318 0.007651 0.000000
0.000000 0.000000 0.000000
-0.000619 0.003516 0.000000
0.003516 0.005964 0.000000
0.000000 0.000000 0.000000
0.008370 -0.000428 0.000000
-0.000428 0.032582 0.000000
0.000000 0.000000 0.000000
0.005961 0.001324 0.000000
0.001324 0.029321 0.000000
0.000000 0.000000 0.000000
0.001157 0.000018 0.000000
0.000018 -0.008817 0.000000
0.000000 0.000000 0.000000
0.004141 0.002882 0.000000
0.002882 0.005051 0.000000
0.000000 0.000000 0.000000
-0.003502 0.013436 0.000000
0.013436 -0.007641 0.000000
0.000000 0.000000 0.000000
0.005127 0.000730 0.000000
0.000730 0.004475 0.000000
0.000000 0.000000 0.000000
-0.002885 -0.003654 0.000000
-0.003654 -0.002122 0.000000
0.000000 0.000000 0.000000
-0.010583 -0.001429 0.000000
-0.001429 0.018925 0.000000
0.000000 0.000000 0.000000
-0.001154 -0.001551 0.000000
-0.001551 0.020501 0.000000
0.000000 0.000000 0.000000
-0.012662 -0.005255 0.000000
-0.005255 0.010113 0.000000
0.000000 0.000000 0.000000
0.005387 -0.000842 0.000000
-0.000842 0.006572 0.000000
0.000000 0.000000 0.000000
0.008504 -0.001266 0.000000
-0.001266 0.016090 0.000000
0.000000 0.000000 0.000000
-0.004623 -0.000415 0.000000
-0.000415 -0.014747 0.000000
0.000000 0.000000 0.000000
0.001933 0.000848 0.000000
0.000848 0.007691 0.000000
0.000000 0.000000 0.000000
0.010372 -0.001109 0.000000
-0.001109 0.008228 0.000000
0.000000 0.000000 0.000000
0.007763 0.001377 0.000000
0.001377 0.007723 0.000000
0.000000 0.000000 0.000000
-0.002305 -0.001568 0.000000
-0.001568 -0.002060 0.000000
0.000000 0.000000 0.000000
-0.005376 -0.003672 0.000000
-0.003672 -0.001240 0.000000
0.000000 0.000000 0.000000
0.006224 0.001092 0.000000
0.001092 0.019152 0.000000
0.000000 0.000000 0.000000
0.005428 0.001022 0.000000
0.001022 0.015925 0.000000
0.000000 0.000000 0.000000
-0.011171 -0.004803 0.000000
-0.004803 0.002072 0.000000
0.000000 0.000000 0.000000
-0.013262 -0.006293 0.000000
-0.006293 -0.006418 0.000000
0.000000 0.000000 0.000000
-0.009264 -0.000107 0.000000
-0.000107 0.012269 0.000000
0.000000 0.000000 0.000000
0.002439 -0.003796 0.000000
-0.003796 -0.001878 0.000000
0.000000 0.000000 0.000000
-0.010807 -0.018838 0.000000
-0.018838 0.016816 0.000000
0.000000 0.000000 0.000000
-0.009821 -0.002775 0.000000
-0.002775 0.004351 0.000000
0.000000 0.000000 0.000000
-0.013167 -0.017268 0.000000
-0.017268 0.006661 0.000000
0.000000 0.000000 0.000000
0.000989 0.002381 0.000000
0.002381 -0.002635 0.000000
0.000000 0.000000 0.000000
0.012989 0.022828 0.000000
0.022828 0.012862 0.000000
0.000000 0.000000 0.000000
-0.009105 -0.010652 0.000000
-0.010652 0.009462 0.000000
0.000000 0.000000 0.000000
0.008753 -0.009520 0.000000
-0.009520 0.011537 0.000000
0.000000 0.000000 0.000000
-0.012697 -0.002827 0.000000
-0.002827 0.001545 0.000000
0.000000 0.000000 0.000000
-0.007854 -0.004183 0.000000
-0.004183 0.003651 0.000000
0.000000 0.000000 0.000000
-0.002234 -0.002690 0.000000
-0.002690 -0.001814 0.000000
0.000000 0.000000 0.000000
-0.002319 -0.008385 0.000000
-0.008385 0.005785 0.000000
0.000000 0.000000 0.000000
0.006508 -0.008155 0.000000
-0.008155 0.006007 0.000000
0.000000 0.000000 0.000000
-0.009964 -0.015831 0.000000
-0.015831 0.002197 0.000000
0.000000 0.000000 0.000000
-0.004432 -0.019481 0.000000
-0.019481 0.004028 0.000000
0.000000 0.000000 0.000000
0.007289 0.008407 0.000000
0.008407 -0.008200 0.000000
0.000000 0.000000 0.000000
-0.005415 0.033327 0.000000
0.033327 -0.005877 0.000000
0.000000 0.000000 0.000000
0.011545 -0.044523 0.000000
-0.044523 -0.028297 0.000000
0.000000 0.000000 0.000000
0.002588 -0.016971 0.000000
-0.016971 0.006639 0.000000
0.000000 0.000000 0.000000
0.001495 -0.004379 0.000000
-0.004379 0.000342 0.000000
0.000000 0.000000 0.000000
0.020587 -0.001639 0.000000
-0.001639 0.003507 0.000000
0.000000 0.000000 0.000000
-0.003107 -0.002458 0.000000
-0.002458 -0.009345 0.000000
0.000000 0.000000 0.000000
0.008808 -0.007065 0.000000
-0.007065 -0.002954 0.000000
0.000000 0.000000 0.000000
0.011538 0.004158 0.000000
0.004158 -0.002888 0.000000
0.000000 0.000000 0.000000
-0.008099 0.002808 0.000000
0.002808 -0.021619 0.000000
0.000000 0.000000 0.000000
-0.000683 -0.010795 0.000000
-0.010795 0.001881 0.000000
0.000000 0.000000 0.000000
0.003141 -0.010135 0.000000
-0.010135 -0.010813 0.000000
0.000000 0.000000 0.000000
-0.000365 0.003675 0.000000
0.003675 0.001040 0.000000
0.000000 0.000000 0.000000
-0.005584 -0.001948 0.000000
-0.001948 -0.014320 0.000000
0.000000 0.000000 0.000000
-0.003438 -0.005099 0.000000
-0.005099 -0.000337 0.000000
0.000000 0.000000 0.000000
0.007849 -0.007579 0.000000
-0.007579 -0.000815 0.000000
0.000000 0.000000 0.000000
0.006728 0.008530 0.000000
0.008530 -0.011833 0.000000
0.000000 0.000000 0.000000
0.007122 0.015205 0.000000
0.015205 -0.002262 0.000000
0.000000 0.000000 0.000000
0.006616 0.004963 0.000000
0.004963 -0.001226 0.000000
0.000000 0.000000 0.000000
0.001452 0.002646 0.000000
0.002646 0.000435 0.000000
0.000000 0.000000 0.000000
-0.004975 -0.005354 0.000000
-0.005354 -0.006901 0.000000
0.000000 0.000000 0.000000
0.004211 0.004588 0.000000
0.004588 0.012885 0.000000
0.000000 0.000000 0.000000
-0.018989 0.003914 0.000000
0.003914 0.011521 0.000000
0.000000 0.000000 0.000000
-0.007635 0.001591 0.000000
0.001591 -0.000247 0.000000
0.000000 0.000000 0.000000
0.005741 0.020991 0.000000
0.020991 -0.017018 0.000000
0.000000 0.000000 0.000000
0.000409 0.002481 0.000000
0.002481 0.000637 0.000000
0.000000 0.000000 0.000000
-0.018460 0.003123 0.000000
0.003123 0.023015 0.000000
0.000000 0.000000 0.000000
0.007469 0.004050 0.000000
0.004050 -0.005444 0.000000
0.000000 0.000000 0.000000
0.013160 0.002073 0.000000
0.002073 0.005245 0.000000
0.000000 0.000000 0.000000
-0.000828 0.005661 0.000000
0.005661 -0.006281 0.000000
0.000000 0.000000 0.000000
0.007524 -0.005747 0.000000
-0.005747 0.011333 0.000000
0.000000 0.000000 0.000000
0.013331 -0.006644 0.000000
-0.006644 0.030515 0.000000
0.000000 0.000000 0.000000
0.004147 -0.001579 0.000000
-0.001579 0.014307 0.000000
0.000000 0.000000 0.000000
-0.006048 -0.003782 0.000000
-0.003782 -0.009900 0.000000
0.000000 0.000000 0.000000
-0.000021 0.000060 0.000000
0.000060 0.016888 0.000000
0.000000 0.000000 0.000000
0.005560 0.005328 0.000000
0.005328 -0.014574 0.000000
0.000000 0.000000 0.000000
-0.000122 0.003652 0.000000
0.003652 -0.000106 0.000000
0.000000 0.000000 0.000000
0.001464 -0.000254 0.000000
-0.000254 -0.000723 0.000000
0.000000 0.000000 0.000000
0.001753 0.002918 0.000000
0.002918 0.006057 0.000000
0.000000 0.000000 0.000000
0.001729 -0.010469 0.000000
-0.010469 0.005515 0.000000
0.000000 0.000000 0.000000
0.003286 0.000150 0.000000
0.000150 0.023831 0.000000
0.000000 0.000000 0.000000
0.004941 -0.000976 0.000000
-0.000976 0.010280 0.000000
0.000000 0.000000 0.000000
0.005752 -0.002048 0.000000
-0.002048 0.037556 0.000000
0.000000 0.000000 0.000000
-0.004810 -0.007105 0.000000
-0.007105 -0.012927 0.000000
0.000000 0.000000 0.000000
-0.000916 -0.003138 0.000000
-0.003138 -0.008000 0.000000
0.000000 0.000000 0.000000
-0.008006 -0.003270 0.000000
-0.003270 -0.008572 0.000000
0.000000 0.000000 0.000000
0.007215 0.001034 0.000000
0.001034 -0.000106 0.000000
0.000000 0.000000 0.000000
-0.014450 -0.005593 0.000000
-0.005593 0.003528 0.000000
0.000000 0.000000 0.000000
-0.003612 -0.005691 0.000000
-0.005691 0.000530 0.000000
0.000000 0.000000 0.000000
0.016023 -0.000725 0.000000
-0.000725 0.000015 0.000000
0.000000 0.000000 0.000000
-0.007755 0.000064 0.000000
0.000064 0.011397 0.000000
0.000000 0.000000 0.000000
0.002273 0.003999 0.000000
0.003999 -0.011696 0.000000
0.000000 0.000000 0.000000
0.005829 -0.008363 0.000000
-0.008363 -0.000258 0.000000
0.000000 0.000000 0.000000
-0.004994 -0.013999 0.000000
-0.013999 -0.006434 0.000000
0.000000 0.000000 0.000000
0.004966 0.005607 0.000000
0.005607 -0.005065 0.000000
0.000000 0.000000 0.000000
-0.030373 -0.015395 0.000000
-0.015395 -0.025314 0.000000
0.000000 0.000000 0.000000
0.014795 -0.009394 0.000000
-0.009394 -0.003329 0.000000
0.000000 0.000000 0.000000
-0.002616 -0.004446 0.000000
-0.004446 0.009625 0.000000
0.000000 0.000000 0.000000
-0.004455 -0.002058 0.000000
-0.002058 -0.011183 0.000000
0.000000 0.000000 0.000000
0.005451 0.002203 0.000000
0.002203 0.029610 0.000000
0.000000 0.000000 0.000000
0.011201 -0.011482 0.000000
-0.011482 0.002793 0.000000
0.000000 0.000000 0.000000
0.000612 -0.007916 0.000000
-0.007916 0.003171 0.000000
0.000000 0.000000 0.000000
0.002363 0.003857 0.000000
0.003857 0.020489 0.000000
0.000000 0.000000 0.000000
-0.000589 0.000691 0.000000
0.000691 0.007181 0.000000
0.000000 0.000000 0.000000
0.002590 0.002792 0.000000
0.002792 0.008659 0.000000
0.000000 0.000000 0.000000
-0.013717 -0.000026 0.000000
-0.000026 -0.006342 0.000000
0.000000 0.000000 0.000000
-0.015055 -0.009500 0.000000
-0.009500 -0.020622 0.000000
0.000000 0.000000 0.000000
-0.013183 -0.005857 0.000000
-0.005857 -0.012883 0.000000
0.000000 0.000000 0.000000
-0.011647 -0.004898 0.000000
-0.004898 -0.015839 0.000000
0.000000 0.000000 0.000000
-0.010935 0.003680 0.000000
0.003680 0.004871 0.000000
0.000000 0.000000 0.000000
0.004690 -0.001601 0.000000
-0.001601 0.012470 0.000000
0.000000 0.000000 0.000000
-0.001490 -0.001954 0.000000
-0.001954 0.010586 0.000000
0.000000 0.000000 0.000000
-0.002058 -0.003241 0.000000
-0.003241 0.003622 0.000000
0.000000 0.000000 0.000000
-0.007725 0.004644 0.000000
0.004644 0.005609 0.000000
0.000000 0.000000 0.000000
0.009392 -0.004038 0.000000
-0.004038 0.002720 0.000000
0.000000 0.000000 0.000000
0.003388 0.002280 0.000000
0.002280 0.007310 0.000000
0.000000 0.000000 0.000000
0.007308 -0.015201 0.000000
-0.015201 -0.012635 0.000000
0.000000 0.000000 0.000000
0.002614 -0.003949 0.000000
-0.003949 -0.022901 0.000000
0.000000 0.000000 0.000000
0.004790 -0.001198 0.000000
-0.001198 0.001409 0.000000
0.000000 0.000000 0.000000
-0.014377 -0.015726 0.000000
-0.015726 0.024079 0.000000
0.000000 0.000000 0.000000
0.001398 0.000265 0.000000
0.000265 -0.014878 0.000000
0.000000 0.000000 0.000000
-0.016023 -0.005329 0.000000
-0.005329 0.013094 0.000000
0.000000 0.000000 0.000000
-0.005798 0.017917 0.000000
0.017917 -0.010210 0.000000
0.000000 0.000000 0.000000
0.022596 0.003419 0.000000
0.003419 0.014969 0.000000
0.000000 0.000000 0.000000
-0.024145 -0.011257 0.000000
-0.011257 -0.004119 0.000000
0.000000 0.000000 0.000000
-0.000756 0.006274 0.000000
0.006274 -0.009484 0.000000
0.000000 0.000000 0.000000
-0.006148 -0.005583 0.000000
-0.005583 -0.012772 0.000000
0.000000 0.000000 0.000000
-0.003888 -0.005904 0.000000
-0.005904 -0.012774 0.000000
0.000000 0.000000 0.000000
-0.014005 0.007176 0.000000
0.007176 0.001880 0.000000
0.000000 0.000000 0.000000
0.003992 -0.003850 0.000000
-0.003850 -0.008619 0.000000
0.000000 0.000000 0.000000
0.003653 0.007720 0.000000
0.007720 0.006327 0.000000
0.000000 0.000000 0.000000
-0.000910 -0.002144 0.000000
-0.002144 -0.010777 0.000000
0.000000 0.000000 0.000000
0.006276 -0.002274 0.000000
-0.002274 0.006678 0.000000
0.000000 0.000000 0.000000
0.002135 0.000598 0.000000
0.000598 0.003979 0.000000
0.000000 0.000000 0.000000
-0.005689 -0.000157 0.000000
-0.000157 -0.021333 0.000000
0.000000 0.000000 0.000000
-0.016063 0.002251 0.000000
0.002251 -0.029218 0.000000
0.000000 0.000000 0.000000
0.008405 -0.001937 0.000000
-0.001937 0.012366 0.000000
0.000000 0.000000 0.000000
-0.008558 0.014590 0.000000
0.014590 0.013284 0.000000
0.000000 0.000000 0.000000
0.005050 0.003043 0.000000
0.003043 -0.008001 0.000000
0.000000 0.000000 0.000000
-0.011257 0.000744 0.000000
0.000744 -0.012045 0.000000
0.000000 0.000000 0.000000
-0.004737 -0.001479 0.000000
-0.001479 -0.010015 0.000000
0.000000 0.000000 0.000000
-0.002575 -0.005505 0.000000
-0.005505 -0.014419 0.000000
0.000000 0.000000 0.000000
-0.007237 -0.006150 0.000000
-0.006150 -0.013818 0.000000
0.000000 0.000000 0.000000
0.019106 -0.004838 0.000000
-0.004838 -0.031483 0.000000
0.000000 0.000000 0.000000
-0.012662 0.011358 0.000000
0.011358 -0.012637 0.000000
0.000000 0.000000 0.000000
0.013036 -0.020435 0.000000
-0.020435 0.009570 0.000000
0.000000 0.000000 0.000000
-0.033480 0.004146 0.000000
0.004146 -0.014977 0.000000
0.000000 0.000000 0.000000
0.001088 -0.001464 0.000000
-0.001464 0.003928 0.000000
0.000000 0.000000 0.000000
0.002669 0.004117 0.000000
0.004117 0.019647 0.000000
0.000000 0.000000 0.000000
-0.013810 0.005808 0.000000
0.005808 0.017018 0.000000
0.000000 0.000000 0.000000
0.008785 0.023604 0.000000
0.023604 -0.013219 0.000000
0.000000 0.000000 0.000000
-0.000263 -0.006426 0.000000
-0.006426 -0.002853 0.000000
0.000000 0.000000 0.000000
-0.012187 0.019383 0.000000
0.019383 0.006677 0.000000
0.000000 0.000000 0.000000
-0.015074 -0.005586 0.000000
-0.005586 0.008600 0.000000
0.000000 0.000000 0.000000
-0.009328 -0.000391 0.000000
-0.000391 0.003390 0.000000
0.000000 0.000000 0.000000
-0.016861 0.006394 0.000000
0.006394 -0.011644 0.000000
0.000000 0.000000 0.000000
-0.006430 0.011071 0.000000
0.011071 -0.006352 0.000000
0.000000 0.000000 0.000000
0.000825 -0.005109 0.000000
-0.005109 0.004422 0.000000
0.000000 0.000000 0.000000
-0.004209 0.003061 0.000000
0.003061 0.019079 0.000000
0.000000 0.000000 0.000000
0.020566 -0.000784 0.000000
-0.000784 -0.004297 0.000000
0.000000 0.000000 0.000000
0.020621 0.001328 0.000000
0.001328 -0.006701 0.000000
0.000000 0.000000 0.000000
0.033469 -0.004164 0.000000
-0.004164 -0.006149 0.000000
0.000000 0.000000 0.000000
-0.000263 -0.000371 0.000000
-0.000371 0.002757 0.000000
0.000000 0.000000 0.000000
0.002466 0.004123 0.000000
0.004123 0.001964 0.000000
0.000000 0.000000 0.000000
-0.006010 0.001743 0.000000
0.001743 0.009452 0.000000
0.000000 0.000000 0.000000
0.005276 0.001203 0.000000
0.001203 0.017326 0.000000
0.000000 0.000000 0.000000
0.006387 -0.000404 0.000000
-0.000404 0.010895 0.000000
0.000000 0.000000 0.000000
-0.011660 0.001778 0.000000
0.001778 -0.023111 0.000000
0.000000 0.000000 0.000000
0.003179 0.005516 0.000000
0.005516 -0.012896 0.000000
0.000000 0.000000 0.000000
0.000779 0.001508 0.000000
0.001508 -0.001379 0.000000
0.000000 0.000000 0.000000
-0.015644 -0.024066 0.000000
-0.024066 -0.001931 0.000000
0.000000 0.000000 0.000000
0.001044 -0.004495 0.000000
-0.004495 -0.010331 0.000000
0.000000 0.000000 0.000000
0.009232 0.009125 0.000000
0.009125 0.011996 0.000000
0.000000 0.000000 0.000000
-0.000542 0.001088 0.000000
0.001088 -0.004250 0.000000
0.000000 0.000000 0.000000
0.004193 -0.005171 0.000000
-0.005171 -0.002080 0.000000
0.000000 0.000000 0.000000
-0.003977 0.000815 0.000000
0.000815 -0.006093 0.000000
0.000000 0.000000 0.000000
0.001536 -0.003444 0.000000
-0.003444 -0.006249 0.000000
0.000000 0.000000 0.000000
0.010923 -0.003490 0.000000
-0.003490 0.027280 0.000000
0.000000 0.000000 0.000000
-0.001238 -0.001274 0.000000
-0.001274 0.004430 0.000000
0.000000 0.000000 0.000000
0.005049 0.007526 0.000000
0.007526 0.013765 0.000000
0.000000 0.000000 0.000000
0.002174 -0.001121 0.000000
-0.001121 0.003187 0.000000
0.000000 0.000000 0.000000
0.000397 0.008239 0.000000
0.008239 -0.000482 0.000000
0.000000 0.000000 0.000000
0.005002 -0.000836 0.000000
-0.000836 -0.007091 0.000000
0.000000 0.000000 0.000000
-0.001111 -0.003250 0.000000
-0.003250 0.003079 0.000000
0.000000 0.000000 0.000000
0.019364 -0.008282 0.000000
-0.008282 -0.008933 0.000000
0.000000 0.000000 0.000000
-0.008233 -0.007988 0.000000
-0.007988 0.003069 0.000000
0.000000 0.000000 0.000000
0.014558 -0.007637 0.000000
-0.007637 -0.005804 0.000000
0.000000 0.000000 0.000000
-0.017330 0.008749 0.000000
0.008749 0.005264 0.000000
0.000000 0.000000 0.000000
-0.020232 0.012419 0.000000
0.012419 0.003258 0.000000
0.000000 0.000000 0.000000
-0.006714 -0.004120 0.000000
-0.004120 -0.005015 0.000000
0.000000 0.000000 0.000000
0.024769 0.000224 0.000000
0.000224 0.025308 0.000000
0.000000 0.000000 0.000000
0.012664 0.001854 0.000000
0.001854 0.021733 0.000000
0.000000 0.000000 0.000000
0.000658 -0.004154 0.000000
-0.004154 -0.007809 0.000000
0.000000 0.000000 0.000000
0.006250 0.003060 0.000000
0.003060 -0.005356 0.000000
0.000000 0.000000 0.000000
-0.000728 -0.000004 0.000000
-0.000004 -0.014776 0.000000
0.000000 0.000000 0.000000
-0.009380 -0.000572 0.000000
-0.000572 -0.008194 0.000000
0.000000 0.000000 0.000000
-0.005423 0.006354 0.000000
0.006354 0.017867 0.000000
0.000000 0.000000 0.000000
-0.008347 0.003973 0.000000
0.003973 0.009075 0.000000
0.000000 0.000000 0.000000
0.018193 -0.005150 0.000000
-0.005150 0.014835 0.000000
0.000000 0.000000 0.000000
0.009868 -0.011969 0.000000
-0.011969 0.019149 0.000000
0.000000 0.000000 0.000000
-0.004577 -0.002897 0.000000
-0.002897 -0.002652 0.000000
0.000000 0.000000 0.000000
0.002100 -0.019669 0.000000
-0.019669 0.002053 0.000000
0.000000 0.000000 0.000000
0.002389 0.003073 0.000000
0.003073 0.020662 0.000000
0.000000 0.000000 0.000000
-0.007514 0.003028 0.000000
0.003028 0.005642 0.000000
0.000000 0.000000 0.000000
-0.012164 -0.004121 0.000000
-0.004121 -0.004556 0.000000
0.000000 0.000000 0.000000
0.001481 -0.003690 0.000000
-0.003690 -0.000483 0.000000
0.000000 0.000000 0.000000
0.009579 0.000060 0.000000
0.000060 0.006702 0.000000
0.000000 0.000000 0.000000
0.003993 -0.002803 0.000000
-0.002803 0.020937 0.000000
0.000000 0.000000 0.000000
0.001784 -0.003239 0.000000
-0.003239 0.010895 0.000000
0.000000 0.000000 0.000000
0.009463 -0.007533 0.000000
-0.007533 -0.000921 0.000000
0.000000 0.000000 0.000000
0.004206 0.006884 0.000000
0.006884 0.003287 0.000000
0.000000 0.000000 0.000000
-0.001387 -0.011073 0.000000
-0.011073 0.006329 0.000000
0.000000 0.000000 0.000000
-0.003971 -0.001177 0.000000
-0.001177 -0.024153 0.000000
0.000000 0.000000 0.000000
-0.027853 -0.003582 0.000000
-0.003582 -0.006325 0.000000
0.000000 0.000000 0.000000
0.013063 0.001034 0.000000
0.001034 0.000412 0.000000
0.000000 0.000000 0.000000
-0.000424 -0.003883 0.000000
-0.003883 -0.008262 0.000000
0.000000 0.000000 0.000000
-0.005983 0.000700 0.000000
0.000700 0.002069 0.000000
0.000000 0.000000 0.000000
-0.011770 -0.002935 0.000000
-0.002935 -0.010196 0.000000
0.000000 0.000000 0.000000
0.007924 0.007087 0.000000
0.007087 -0.018047 0.000000
0.000000 0.000000 0.000000
-0.008698 -0.003006 0.000000
-0.003006 -0.002185 0.000000
0.000000 0.000000 0.000000
0.006239 -0.026327 0.000000
-0.026327 -0.013461 0.000000
0.000000 0.000000 0.000000
-0.006375 -0.038139 0.000000
-0.038139 -0.003892 0.000000
0.000000 0.000000 0.000000
0.015158 0.000109 0.000000
0.000109 0.007123 0.000000
0.000000 0.000000 0.000000
0.012161 0.012339 0.000000
0.012339 -0.013069 0.000000
0.000000 0.000000 0.000000
-0.000730 0.001471 0.000000
0.001471 0.005748 0.000000
0.000000 0.000000 0.000000
0.000633 -0.000202 0.000000
-0.000202 0.003410 0.000000
0.000000 0.000000 0.000000
0.013155 -0.000662 0.000000
-0.000662 0.002465 0.000000
0.000000 0.000000 0.000000
-0.013718 0.000853 0.000000
0.000853 0.011750 0.000000
0.000000 0.000000 0.000000
-0.018035 -0.001074 0.000000
-0.001074 0.013542 0.000000
0.000000 0.000000 0.000000
0.007200 0.001098 0.000000
0.001098 0.006408 0.000000
0.000000 0.000000 0.000000
-0.005255 -0.010592 0.000000
-0.010592 -0.024182 0.000000
0.000000 0.000000 0.000000
0.004090 0.001021 0.000000
0.001021 0.001680 0.000000
0.000000 0.000000 0.000000
-0.000183 -0.005342 0.000000
-0.005342 0.003705 0.000000
0.000000 0.000000 0.000000
0.005100 -0.000446 0.000000
-0.000446 0.022446 0.000000
0.000000 0.000000 0.000000
0.001748 -0.005875 0.000000
-0.005875 0.019784 0.000000
0.000000 0.000000 0.000000
0.006594 -0.000666 0.000000
-0.000666 -0.005331 0.000000
0.000000 0.000000 0.000000
0.005333 -0.004905 0.000000
-0.004905 -0.003516 0.000000
0.000000 0.000000 0.000000
0.016040 0.041648 0.000000
0.041648 -0.007702 0.000000
0.000000 0.000000 0.000000
-0.004264 0.035007 0.000000
0.035007 -0.007392 0.000000
0.000000 0.000000 0.000000
-0.011512 0.001738 0.000000
0.001738 -0.023366 0.000000
0.000000 0.000000 0.000000
-0.012683 0.002571 0.000000
0.002571 -0.028341 0.000000
0.000000 0.000000 0.000000
0.008797 0.000595 0.000000
0.000595 0.016379 0.000000
0.000000 0.000000 0.000000
0.005032 -0.000390 0.000000
-0.000390 0.015603 0.000000
0.000000 0.000000 0.000000
-0.008271 -0.001723 0.000000
-0.001723 -0.001920 0.000000
0.000000 0.000000 0.000000
0.005482 -0.010177 0.000000
-0.010177 -0.000409 0.000000
0.000000 0.000000 0.000000
-0.003549 0.000548 0.000000
0.000548 -0.022860 0.000000
0.000000 0.000000 0.000000
-0.001518 -0.007145 0.000000
-0.007145 0.026778 0.000000
0.000000 0.000000 0.000000
-0.013704 0.000760 0.000000
0.000760 0.025889 0.000000
0.000000 0.000000 0.000000
-0.015051 0.009958 0.000000
0.009958 -0.020811 0.000000
0.000000 0.000000 0.000000
-0.016202 0.012705 0.000000
0.012705 -0.020184 0.000000
0.000000 0.000000 0.000000
-0.006002 0.000371 0.000000
0.000371 -0.014343 0.000000
0.000000 0.000000 0.000000
-0.013340 0.010824 0.000000
0.010824 -0.013240 0.000000
0.000000 0.000000 0.000000
0.006956 -0.003241 0.000000
-0.003241 0.014466 0.000000
0.000000 0.000000 0.000000
-0.001690 -0.012474 0.000000
-0.012474 -0.009351 0.000000
0.000000 0.000000 0.000000
0.002779 -0.005259 0.000000
-0.005259 0.000553 0.000000
0.000000 0.000000 0.000000
0.000294 -0.005346 0.000000
-0.005346 -0.017396 0.000000
0.000000 0.000000 0.000000
0.006161 -0.002097 0.000000
-0.002097 -0.000352 0.000000
0.000000 0.000000 0.000000
0.001461 -0.012204 0.000000
-0.012204 -0.003774 0.000000
0.000000 0.000000 0.000000
0.001972 -0.011136 0.000000
-0.011136 0.016206 0.000000
0.000000 0.000000 0.000000
-0.006526 -0.004673 0.000000
-0.004673 0.005333 0.000000
0.000000 0.000000 0.000000
-0.021104 0.005894 0.000000
0.005894 -0.012176 0.000000
0.000000 0.000000 0.000000
0.002118 0.000049 0.000000
0.000049 0.011513 0.000000
0.000000 0.000000 0.000000
0.008127 0.000090 0.000000
0.000090 0.033607 0.000000
0.000000 0.000000 0.000000
0.003178 0.002341 0.000000
0.002341 0.010131 0.000000
0.000000 0.000000 0.000000
0.003160 0.001869 0.000000
0.001869 0.002867 0.000000
0.000000 0.000000 0.000000
-0.007854 -0.005609 0.000000
-0.005609 -0.023039 0.000000
0.000000 0.000000 0.000000
0.000144 -0.006004 0.000000
-0.006004 0.011359 0.000000
0.000000 0.000000 0.000000
-0.010523 0.010342 0.000000
0.010342 -0.012704 0.000000
0.000000 0.000000 0.000000
-0.005056 0.001517 0.000000
0.001517 0.005658 0.000000
0.000000 0.000000 0.000000
0.000112 -0.002431 0.000000
-0.002431 0.002343 0.000000
0.000000 0.000000 0.000000
-0.003379 0.002573 0.000000
0.002573 0.000567 0.000000
0.000000 0.000000 0.000000
0.000110 -0.004116 0.000000
-0.004116 -0.013055 0.000000
0.000000 0.000000 0.000000
-0.002759 -0.003965 0.000000
-0.003965 0.001641 0.000000
0.000000 0.000000 0.000000
-0.012589 -0.001609 0.000000
-0.001609 0.000484 0.000000
0.000000 0.000000 0.000000
0.002047 -0.002664 0.000000
-0.002664 0.003785 0.000000
0.000000 0.000000 0.000000
-0.009044 0.005362 0.000000
0.005362 -0.001810 0.000000
0.000000 0.000000 0.000000
-0.003868 -0.011967 0.000000
-0.011967 -0.004701 0.000000
0.000000 0.000000 0.000000
-0.013180 -0.000384 0.000000
-0.000384 0.007417 0.000000
0.000000 0.000000 0.000000
-0.020886 -0.005397 0.000000
-0.005397 -0.005129 0.000000
0.000000 0.000000 0.000000
0.000016 -0.004976 0.000000
-0.004976 0.016394 0.000000
0.000000 0.000000 0.000000
0.011369 0.005164 0.000000
0.005164 -0.016945 0.000000
0.000000 0.000000 0.000000
-0.018305 -0.003433 0.000000
-0.003433 -0.008157 0.000000
0.000000 0.000000 0.000000
0.014073 -0.009830 0.000000
-0.009830 0.010005 0.000000
0.000000 0.000000 0.000000
0.006613 0.008916 0.000000
0.008916 -0.004245 0.000000
0.000000 0.000000 0.000000
0.001320 0.010893 0.000000
0.010893 0.007242 0.000000
0.000000 0.000000 0.000000
0.007102 -0.019469 0.000000
-0.019469 0.000201 0.000000
0.000000 0.000000 0.000000
0.011097 -0.020276 0.000000
-0.020276 -0.001462 0.000000
0.000000 0.000000 0.000000
0.006839 0.000731 0.000000
0.000731 0.023713 0.000000
0.000000 0.000000 0.000000
0.022693 -0.025305 0.000000
-0.025305 -0.013120 0.000000
0.000000 0.000000 0.000000
0.015729 0.000795 0.000000
0.000795 0.028649 0.000000
0.000000 0.000000 0.000000
0.010157 0.003448 0.000000
0.003448 0.024610 0.000000
0.000000 0.000000 0.000000
0.017162 -0.016365 0.000000
-0.016365 0.004651 0.000000
0.000000 0.000000 0.000000
0.000362 0.001360 0.000000
0.001360 0.003437 0.000000
0.000000 0.000000 0.000000
0.002169 -0.001385 0.000000
-0.001385 0.007707 0.000000
0.000000 0.000000 0.000000
0.004178 -0.001170 0.000000
-0.001170 0.006893 0.000000
0.000000 0.000000 0.000000
0.001523 -0.004231 0.000000
-0.004231 -0.001822 0.000000
0.000000 0.000000 0.000000
0.016068 -0.014057 0.000000
-0.014057 0.013305 0.000000
0.000000 0.000000 0.000000
0.010070 0.000868 0.000000
0.000868 0.000133 0.000000
0.000000 0.000000 0.000000
-0.009791 -0.001185 0.000000
-0.001185 -0.006438 0.000000
0.000000 0.000000 0.000000
0.008889 0.000024 0.000000
0.000024 0.000392 0.000000
0.000000 0.000000 0.000000
0.018016 0.001048 0.000000
0.001048 0.014763 0.000000
0.000000 0.000000 0.000000
0.001396 -0.001175 0.000000
-0.001175 -0.004111 0.000000
0.000000 0.000000 0.000000
0.008087 0.008524 0.000000
0.008524 0.004490 0.000000
0.000000 0.000000 0.000000
-0.003900 0.003631 0.000000
0.003631 0.003481 0.000000
0.000000 0.000000 0.000000
-0.002809 -0.009653 0.000000
-0.009653 0.011317 0.000000
0.000000 0.000000 0.000000
0.007703 0.004716 0.000000
0.004716 0.008412 0.000000
0.000000 0.000000 0.000000
-0.003767 0.002733 0.000000
0.002733 -0.013733 0.000000
0.000000 0.000000 0.000000
-0.002369 0.000819 0.000000
0.000819 -0.010763 0.000000
0.000000 0.000000 0.000000
-0.013190 0.007257 0.000000
0.007257 0.011955 0.000000
0.000000 0.000000 0.000000
-0.018428 0.004138 0.000000
0.004138 -0.001650 0.000000
0.000000 0.000000 0.000000
0.000173 -0.004158 0.000000
-0.004158 -0.001771 0.000000
0.000000 0.000000 0.000000
-0.000512 -0.000818 0.000000
-0.000818 0.001658 0.000000
0.000000 0.000000 0.000000
0.020552 -0.007020 0.000000
-0.007020 0.012740 0.000000
0.000000 0.000000 0.000000
-0.012448 0.000806 0.000000
0.000806 -0.003598 0.000000
0.000000 0.000000 0.000000
0.007826 -0.001746 0.000000
-0.001746 0.004329 0.000000
0.000000 0.000000 0.000000
0.006910 0.000238 0.000000
0.000238 0.009796 0.000000
0.000000 0.000000 0.000000
-0.004308 -0.008990 0.000000
-0.008990 0.004459 0.000000
0.000000 0.000000 0.000000
0.002845 -0.005116 0.000000
-0.005116 0.005392 0.000000
0.000000 0.000000 0.000000
0.003110 -0.004114 0.000000
-0.004114 -0.001420 0.000000
0.000000 0.000000 0.000000
0.006532 -0.009818 0.000000
-0.009818 0.007096 0.000000
0.000000 0.000000 0.000000
-0.004577 -0.003995 0.000000
-0.003995 -0.021797 0.000000
0.000000 0.000000 0.000000
-0.000185 -0.006457 0.000000
-0.006457 -0.009392 0.000000
0.000000 0.000000 0.000000
0.007467 -0.003843 0.000000
-0.003843 0.015889 0.000000
0.000000 0.000000 0.000000
0.009210 -0.001385 0.000000
-0.001385 0.017265 0.000000
0.000000 0.000000 0.000000
0.002125 0.001280 0.000000
0.001280 -0.000012 0.000000
0.000000 0.000000 0.000000
0.000008 0.000360 0.000000
0.000360 0.003531 0.000000
0.000000 0.000000 0.000000
0.006537 0.003278 0.000000
0.003278 0.000939 0.000000
0.000000 0.000000 0.000000
0.000916 0.000101 0.000000
0.000101 0.007501 0.000000
0.000000 0.000000 0.000000
-0.006946 0.000666 0.000000
0.000666 -0.009498 0.000000
0.000000 0.000000 0.000000
-0.006679 0.000623 0.000000
0.000623 -0.009766 0.000000
0.000000 0.000000 0.000000
-0.005550 -0.010223 0.000000
-0.010223 -0.002438 0.000000
0.000000 0.000000 0.000000
-0.008337 -0.004783 0.000000
-0.004783 -0.025729 0.000000
0.000000 0.000000 0.000000
-0.001595 -0.000573 0.000000
-0.000573 0.002145 0.000000
0.000000 0.000000 0.000000
0.007582 -0.001825 0.000000
-0.001825 0.032555 0.000000
0.000000 0.000000 0.000000
0.005833 -0.000410 0.000000
-0.000410 0.029141 0.000000
0.000000 0.000000 0.000000
0.000104 -0.002721 0.000000
-0.002721 0.002697 0.000000
0.000000 0.000000 0.000000
-0.001802 -0.004410 0.000000
-0.004410 0.002038 0.000000
0.000000 0.000000 0.000000
-0.012467 -0.003989 0.000000
-0.003989 -0.024618 0.000000
0.000000 0.000000 0.000000
-0.000447 -0.004887 0.000000
-0.004887 -0.001339 0.000000
0.000000 0.000000 0.000000
0.012371 0.001171 0.000000
0.001171 0.029785 0.000000
0.000000 0.000000 0.000000
0.005035 0.002647 0.000000
0.002647 -0.000440 0.000000
0.000000 0.000000 0.000000
-0.018190 -0.000544 0.000000
-0.000544 -0.039644 0.000000
0.000000 0.000000 0.000000
0.001573 -0.002569 0.000000
-0.002569 0.009838 0.000000
0.000000 0.000000 0.000000
0.002519 -0.001531 0.000000
-0.001531 0.010605 0.000000
0.000000 0.000000 0.000000
0.002269 0.005119 0.000000
0.005119 -0.010686 0.000000
0.000000 0.000000 0.000000
0.001043 -0.006523 0.000000
-0.006523 0.001196 0.000000
0.000000 0.000000 0.000000
-0.002249 -0.008494 0.000000
-0.008494 0.001298 0.000000
0.000000 0.000000 0.000000
0.004043 -0.005462 0.000000
-0.005462 0.006400 0.000000
0.000000 0.000000 0.000000
0.001266 0.005964 0.000000
0.005964 -0.000643 0.000000
0.000000 0.000000 0.000000
0.008921 0.010875 0.000000
0.010875 -0.002189 0.000000
0.000000 0.000000 0.000000
-0.005531 -0.001950 0.000000
-0.001950 0.003575 0.000000
0.000000 0.000000 0.000000
-0.006496 0.000493 0.000000
0.000493 0.002411 0.000000
0.000000 0.000000 0.000000
0.008395 0.002338 0.000000
0.002338 -0.005083 0.000000
0.000000 0.000000 0.000000
0.008761 -0.007271 0.000000
-0.007271 0.000852 0.000000
0.000000 0.000000 0.000000
0.002895 0.001652 0.000000
0.001652 -0.006797 0.000000
0.000000 0.000000 0.000000
0.009640 -0.002111 0.000000
-0.002111 0.001371 0.000000
0.000000 0.000000 0.000000
0.006255 0.000776 0.000000
0.000776 0.006931 0.000000
0.000000 0.000000 0.000000
-0.001506 -0.003818 0.000000
-0.003818 -0.011641 0.000000
0.000000 0.000000 0.000000
0.002173 -0.001532 0.000000
-0.001532 0.004501 0.000000
0.000000 0.000000 0.000000
0.005304 -0.008776 0.000000
-0.008776 -0.000824 0.000000
0.000000 0.000000 0.000000
-0.009782 0.004552 0.000000
0.004552 -0.018779 0.000000
0.000000 0.000000 0.000000
-0.003367 0.000712 0.000000
0.000712 -0.013983 0.000000
0.000000 0.000000 0.000000
-0.012869 0.007178 0.000000
0.007178 -0.024710 0.000000
0.000000 0.000000 0.000000
0.005693 0.012364 0.000000
0.012364 -0.003943 0.000000
0.000000 0.000000 0.000000
0.001662 0.007631 0.000000
0.007631 0.012708 0.000000
0.000000 0.000000 0.000000
-0.024395 -0.005998 0.000000
-0.005998 0.002235 0.000000
0.000000 0.000000 0.000000
0.001413 -0.005692 0.000000
-0.005692 0.009815 0.000000
0.000000 0.000000 0.000000
-0.010275 -0.009010 0.000000
-0.009010 0.001476 0.000000
0.000000 0.000000 0.000000
0.006549 -0.003187 0.000000
-0.003187 0.012999 0.000000
0.000000 0.000000 0.000000
0.002376 0.002070 0.000000
0.002070 -0.001232 0.000000
0.000000 0.000000 0.000000
0.001916 -0.000364 0.000000
-0.000364 0.002797 0.000000
0.000000 0.000000 0.000000
-0.053266 -0.019960 0.000000
-0.019960 0.021482 0.000000
0.000000 0.000000 0.000000
-0.009947 -0.009968 0.000000
-0.009968 -0.021431 0.000000
0.000000 0.000000 0.000000
0.000527 0.000654 0.000000
0.000654 0.003901 0.000000
0.000000 0.000000 0.000000
-0.000102 -0.000316 0.000000
-0.000316 0.001319 0.000000
0.000000 0.000000 0.000000
0.001016 -0.000326 0.000000
-0.000326 0.007882 0.000000
0.000000 0.000000 0.000000
0.002455 -0.000909 0.000000
-0.000909 0.001956 0.000000
0.000000 0.000000 0.000000
-0.001091 -0.002035 0.000000
-0.002035 -0.005791 0.000000
0.000000 0.000000 0.000000
-0.005203 0.007297 0.000000
0.007297 -0.013513 0.000000
0.000000 0.000000 0.000000
-0.016439 -0.015269 0.000000
-0.015269 0.013517 0.000000
0.000000 0.000000 0.000000
0.004555 0.006006 0.000000
0.006006 0.001272 0.000000
0.000000 0.000000 0.000000
-0.000844 -0.000077 0.000000
-0.000077 -0.010149 0.000000
0.000000 0.000000 0.000000
-0.014885 0.004828 0.000000
0.004828 -0.028953 0.000000
0.000000 0.000000 0.000000
-0.000724 -0.000012 0.000000
-0.000012 -0.009299 0.000000
0.000000 0.000000 0.000000
-0.006352 0.003881 0.000000
0.003881 -0.015480 0.000000
0.000000 0.000000 0.000000
0.002926 -0.006990 0.000000
-0.006990 0.002085 0.000000
0.000000 0.000000 0.000000
-0.019387 -0.009398 0.000000
-0.009398 0.023409 0.000000
0.000000 0.000000 0.000000
0.001411 -0.000127 0.000000
-0.000127 -0.008728 0.000000
0.000000 0.000000 0.000000
-0.014934 -0.011912 0.000000
-0.011912 0.007982 0.000000
0.000000 0.000000 0.000000
-0.009183 -0.006543 0.000000
-0.006543 -0.015991 0.000000
0.000000 0.000000 0.000000
0.002036 -0.000070 0.000000
-0.000070 0.002409 0.000000
0.000000 0.000000 0.000000
-0.006225 -0.004649 0.000000
-0.004649 -0.009290 0.000000
0.000000 0.000000 0.000000
-0.002827 -0.004254 0.000000
-0.004254 -0.001119 0.000000
0.000000 0.000000 0.000000
-0.003434 -0.000473 0.000000
-0.000473 0.002999 0.000000
0.000000 0.000000 0.000000
0.006557 -0.013162 0.000000
-0.013162 0.009334 0.000000
0.000000 0.000000 0.000000
0.005642 -0.002280 0.000000
-0.002280 -0.000822 0.000000
0.000000 0.000000 0.000000
0.003869 0.000697 0.000000
0.000697 0.008344 0.000000
0.000000 0.000000 0.000000
-0.001076 -0.001216 0.000000
-0.001216 0.003295 0.000000
0.000000 0.000000 0.000000
-0.012140 -0.005319 0.000000
-0.005319 0.002796 0.000000
0.000000 0.000000 0.000000
-0.002340 -0.002595 0.000000
-0.002595 0.000582 0.000000
0.000000 0.000000 0.000000
-0.002449 0.001826 0.000000
0.001826 -0.011574 0.000000
0.000000 0.000000 0.000000
-0.000545 0.005200 0.000000
0.005200 0.003335 0.000000
0.000000 0.000000 0.000000
0.001324 -0.000131 0.000000
-0.000131 -0.001377 0.000000
0.000000 0.000000 0.000000
0.000649 -0.002595 0.000000
-0.002595 -0.002800 0.000000
0.000000 0.000000 0.000000
-0.002419 0.002011 0.000000
0.002011 0.005146 0.000000
0.000000 0.000000 0.000000
-0.002769 0.001358 0.000000
0.001358 0.001997 0.000000
0.000000 0.000000 0.000000
0.004641 -0.005331 0.000000
-0.005331 0.002682 0.000000
0.000000 0.000000 0.000000
-0.005436 -0.007698 0.000000
-0.007698 -0.010649 0.000000
0.000000 0.000000 0.000000
-0.007503 -0.001132 0.000000
-0.001132 -0.023839 0.000000
0.000000 0.000000 0.000000
-0.004823 0.001481 0.000000
0.001481 0.006755 0.000000
0.000000 0.000000 0.000000
-0.007464 0.002351 0.000000
0.002351 -0.021584 0.000000
0.000000 0.000000 0.000000
0.008035 -0.004296 0.000000
-0.004296 0.004589 0.000000
0.000000 0.000000 0.000000
0.016988 -0.013592 0.000000
-0.013592 0.020130 0.000000
0.000000 0.000000 0.000000
-0.003105 0.002074 0.000000
0.002074 -0.008330 0.000000
0.000000 0.000000 0.000000
0.006398 -0.004290 0.000000
-0.004290 0.006978 0.000000
0.000000 0.000000 0.000000
-0.001145 -0.003168 0.000000
-0.003168 0.007400 0.000000
0.000000 0.000000 0.000000
0.015005 -0.003891 0.000000
-0.003891 0.041663 0.000000
0.000000 0.000000 0.000000
-0.014222 -0.004357 0.000000
-0.004357 0.013921 0.000000
0.000000 0.000000 0.000000
0.004458 0.006340 0.000000
0.006340 0.001418 0.000000
0.000000 0.000000 0.000000
-0.000774 -0.000676 0.000000
-0.000676 0.001719 0.000000
0.000000 0.000000 0.000000
-0.001671 0.002465 0.000000
0.002465 0.000200 0.000000
0.000000 0.000000 0.000000
0.008645 -0.003758 0.000000
-0.003758 0.005609 0.000000
0.000000 0.000000 0.000000
-0.008396 -0.008418 0.000000
-0.008418 -0.015372 0.000000
0.000000 0.000000 0.000000
0.013019 -0.000650 0.000000
-0.000650 -0.002293 0.000000
0.000000 0.000000 0.000000
-0.000672 -0.002764 0.000000
-0.002764 -0.005791 0.000000
0.000000 0.000000 0.000000
0.005094 0.001381 0.000000
0.001381 0.004411 0.000000
0.000000 0.000000 0.000000
0.000196 0.001963 0.000000
0.001963 0.001883 0.000000
0.000000 0.000000 0.000000
-0.001738 -0.000406 0.000000
-0.000406 0.000040 0.000000
0.000000 0.000000 0.000000
-0.000313 0.001471 0.000000
0.001471 0.003250 0.000000
0.000000 0.000000 0.000000
-0.007463 -0.006348 0.000000
-0.006348 -0.014605 0.000000
0.000000 0.000000 0.000000
0.003556 0.001724 0.000000
0.001724 0.005649 0.000000
0.000000 0.000000 0.000000
0.011246 0.001901 0.000000
0.001901 0.023091 0.000000
0.000000 0.000000 0.000000
-0.000802 0.009060 0.000000
0.009060 -0.007949 0.000000
0.000000 0.000000 0.000000
-0.002730 0.002766 0.000000
0.002766 0.006567 0.000000
0.000000 0.000000 0.000000
0.007265 -0.000237 0.000000
-0.000237 0.019682 0.000000
0.000000 0.000000 0.000000
0.003051 -0.002595 0.000000
-0.002595 -0.001234 0.000000
0.000000 0.000000 0.000000
-0.000630 -0.002458 0.000000
-0.002458 -0.000258 0.000000
0.000000 0.000000 0.000000
-0.004803 0.006900 0.000000
0.006900 -0.013191 0.000000
0.000000 0.000000 0.000000
-0.006607 -0.005323 0.000000
-0.005323 -0.012204 0.000000
0.000000 0.000000 0.000000
-0.001578 -0.004459 0.000000
-0.004459 -0.006084 0.000000
0.000000 0.000000 0.000000
-0.000646 0.001677 0.000000
0.001677 -0.007263 0.000000
0.000000 0.000000 0.000000
-0.002095 0.002109 0.000000
0.002109 -0.019375 0.000000
0.000000 0.000000 0.000000
-0.003035 -0.005908 0.000000
-0.005908 -0.007645 0.000000
0.000000 0.000000 0.000000
-0.010172 -0.009172 0.000000
-0.009172 0.028168 0.000000
0.000000 0.000000 0.000000
-0.005116 -0.004669 0.000000
-0.004669 0.012432 0.000000
0.000000 0.000000 0.000000
-0.020147 0.004010 0.000000
0.004010 -0.027795 0.000000
0.000000 0.000000 0.000000
-0.000622 -0.006364 0.000000
-0.006364 0.003057 0.000000
0.000000 0.000000 0.000000
-0.002144 -0.000100 0.000000
-0.000100 0.007057 0.000000
0.000000 0.000000 0.000000
-0.004989 -0.000900 0.000000
-0.000900 0.000020 0.000000
0.000000 0.000000 0.000000
0.002073 0.003391 0.000000
0.003391 0.008128 0.000000
0.000000 0.000000 0.000000
0.010611 -0.017183 0.000000
-0.017183 0.008595 0.000000
0.000000 0.000000 0.000000
-0.009011 0.001353 0.000000
0.001353 -0.014154 0.000000
0.000000 0.000000 0.000000
0.017983 0.008010 0.000000
0.008010 0.048410 0.000000
0.000000 0.000000 0.000000
-0.001947 0.025306 0.000000
0.025306 0.018640 0.000000
0.000000 0.000000 0.000000
-0.004230 0.003332 0.000000
0.003332 0.012921 0.000000
0.000000 0.000000 0.000000
-0.004824 0.006180 0.000000
0.006180 -0.014955 0.000000
0.000000 0.000000 0.000000
-0.011297 0.000459 0.000000
0.000459 -0.008211 0.000000
0.000000 0.000000 0.000000
0.008755 0.003581 0.000000
0.003581 0.004234 0.000000
0.000000 0.000000 0.000000
0.013555 0.001216 0.000000
0.001216 0.024079 0.000000
0.000000 0.000000 0.000000
0.003970 0.010375 0.000000
0.010375 0.033392 0.000000
0.000000 0.000000 0.000000
-0.006927 0.000807 0.000000
0.000807 0.011740 0.000000
0.000000 0.000000 0.000000
0.003278 -0.000781 0.000000
-0.000781 -0.002678 0.000000
0.000000 0.000000 0.000000
-0.011008 0.007720 0.000000
0.007720 -0.023709 0.000000
0.000000 0.000000 0.000000
0.004918 0.004475 0.000000
0.004475 0.014662 0.000000
0.000000 0.000000 0.000000
-0.000887 -0.004739 0.000000
-0.004739 0.001949 0.000000
0.000000 0.000000 0.000000
0.006051 0.006357 0.000000
0.006357 0.000466 0.000000
0.000000 0.000000 0.000000
0.007179 0.003294 0.000000
0.003294 -0.006911 0.000000
0.000000 0.000000 0.000000
0.006688 0.022607 0.000000
0.022607 0.010281 0.000000
0.000000 0.000000 0.000000
0.003097 -0.001052 0.000000
-0.001052 0.012844 0.000000
0.000000 0.000000 0.000000
-0.004913 0.003658 0.000000
0.003658 0.007319 0.000000
0.000000 0.000000 0.000000
0.009922 -0.005999 0.000000
-0.005999 0.006137 0.000000
0.000000 0.000000 0.000000
0.010187 -0.002504 0.000000
-0.002504 -0.000360 0.000000
0.000000 0.000000 0.000000
0.013055 0.004325 0.000000
0.004325 -0.012728 0.000000
0.000000 0.000000 0.000000
0.009102 -0.004454 0.000000
-0.004454 -0.003211 0.000000
0.000000 0.000000 0.000000
0.026337 -0.017516 0.000000
-0.017516 0.021589 0.000000
0.000000 0.000000 0.000000
0.020236 -0.012637 0.000000
-0.012637 0.000084 0.000000
0.000000 0.000000 0.000000
0.046775 -0.017528 0.000000
-0.017528 -0.002773 0.000000
0.000000 0.000000 0.000000
-0.014365 0.007495 0.000000
0.007495 -0.001046 0.000000
0.000000 0.000000 0.000000
0.023092 -0.011686 0.000000
-0.011686 0.011488 0.000000
0.000000 0.000000 0.000000
0.001981 0.005770 0.000000
0.005770 0.005168 0.000000
0.000000 0.000000 0.000000
0.009979 -0.016771 0.000000
-0.016771 0.007572 0.000000
0.000000 0.000000 0.000000
-0.001517 -0.002834 0.000000
-0.002834 -0.018057 0.000000
0.000000 0.000000 0.000000
0.012519 -0.001114 0.000000
-0.001114 -0.004405 0.000000
0.000000 0.000000 0.000000
-0.008546 -0.008676 0.000000
-0.008676 -0.007582 0.000000
0.000000 0.000000 0.000000
0.011103 0.007119 0.000000
0.007119 0.016625 0.000000
0.000000 0.000000 0.000000
-0.005121 0.002614 0.000000
0.002614 -0.015503 0.000000
0.000000 0.000000 0.000000
-0.011984 0.004432 0.000000
0.004432 -0.022594 0.000000
0.000000 0.000000 0.000000
-0.012428 0.005969 0.000000
0.005969 -0.015512 0.000000
0.000000 0.000000 0.000000
-0.011062 -0.027708 0.000000
-0.027708 0.011985 0.000000
0.000000 0.000000 0.000000
0.005486 0.000881 0.000000
0.000881 0.001509 0.000000
0.000000 0.000000 0.000000
0.001637 0.003630 0.000000
0.003630 -0.008873 0.000000
0.000000 0.000000 0.000000
0.026808 0.000361 0.000000
0.000361 -0.004667 0.000000
0.000000 0.000000 0.000000
0.006870 0.008245 0.000000
0.008245 0.025800 0.000000
0.000000 0.000000 0.000000
0.010371 0.002275 0.000000
0.002275 -0.001657 0.000000
0.000000 0.000000 0.000000
-0.005143 -0.002731 0.000000
-0.002731 -0.003030 0.000000
0.000000 0.000000 0.000000
0.003364 -0.001467 0.000000
-0.001467 0.006877 0.000000
0.000000 0.000000 0.000000
-0.008744 0.003237 0.000000
0.003237 -0.013352 0.000000
0.000000 0.000000 0.000000
-0.017033 -0.006300 0.000000
-0.006300 0.003113 0.000000
0.000000 0.000000 0.000000
0.007632 0.001865 0.000000
0.001865 -0.002854 0.000000
0.000000 0.000000 0.000000
-0.004871 -0.008058 0.000000
-0.008058 -0.005130 0.000000
0.000000 0.000000 0.000000
-0.010464 -0.001171 0.000000
-0.001171 0.005492 0.000000
0.000000 0.000000 0.000000
0.005290 -0.005286 0.000000
-0.005286 -0.007850 0.000000
0.000000 0.000000 0.000000
-0.009252 0.004334 0.000000
0.004334 -0.005753 0.000000
0.000000 0.000000 0.000000
-0.005324 -0.005285 0.000000
-0.005285 -0.008334 0.000000
0.000000 0.000000 0.000000
-0.007168 0.016129 0.000000
0.016129 0.005785 0.000000
0.000000 0.000000 0.000000
0.001818 -0.002846 0.000000
-0.002846 -0.004000 0.000000
0.000000 0.000000 0.000000
0.001919 0.000417 0.000000
0.000417 0.000755 0.000000
0.000000 0.000000 0.000000
0.003915 0.002764 0.000000
0.002764 0.014224 0.000000
0.000000 0.000000 0.000000
0.014268 0.006770 0.000000
0.006770 0.026834 0.000000
0.000000 0.000000 0.000000
0.002547 -0.001825 0.000000
-0.001825 0.002196 0.000000
0.000000 0.000000 0.000000
-0.017709 -0.005687 0.000000
-0.005687 0.015427 0.000000
0.000000 0.000000 0.000000
-0.007760 -0.009151 0.000000
-0.009151 -0.014918 0.000000
0.000000 0.000000 0.000000
-0.008106 -0.000259 0.000000
-0.000259 -0.005352 0.000000
0.000000 0.000000 0.000000
0.004878 -0.004646 0.000000
-0.004646 -0.000370 0.000000
0.000000 0.000000 0.000000
0.014400 -0.006474 0.000000
-0.006474 -0.006184 0.000000
0.000000 0.000000 0.000000
-0.010730 -0.000655 0.000000
-0.000655 0.005017 0.000000
0.000000 0.000000 0.000000
0.013577 -0.003467 0.000000
-0.003467 -0.003599 0.000000
0.000000 0.000000 0.000000
-0.013675 -0.013639 0.000000
-0.013639 -0.004483 0.000000
0.000000 0.000000 0.000000
-0.016878 0.005368 0.000000
0.005368 -0.026218 0.000000
0.000000 0.000000 0.000000
0.000023 0.000616 0.000000
0.000616 -0.005014 0.000000
0.000000 0.000000 0.000000
0.006500 0.000816 0.000000
0.000816 0.008697 0.000000
0.000000 0.000000 0.000000
0.010881 -0.001441 0.000000
-0.001441 0.016519 0.000000
0.000000 0.000000 0.000000
0.004406 0.001294 0.000000
0.001294 0.006420 0.000000
0.000000 0.000000 0.000000
-0.033753 -0.035309 0.000000
-0.035309 0.015331 0.000000
0.000000 0.000000 0.000000
0.001455 -0.004366 0.000000
-0.004366 -0.020954 0.000000
0.000000 0.000000 0.000000
-0.028738 -0.049705 0.000000
-0.049705 -0.000245 0.000000
0.000000 0.000000 0.000000
-0.001206 -0.003470 0.000000
-0.003470 -0.003003 0.000000
0.000000 0.000000 0.000000
-0.019863 -0.028695 0.000000
-0.028695 0.026225 0.000000
0.000000 0.000000 0.000000
0.005400 0.014267 0.000000
0.014267 0.001481 0.000000
0.000000 0.000000 0.000000
-0.012074 0.003891 0.000000
0.003891 -0.002678 0.000000
0.000000 0.000000 0.000000
0.002910 -0.014239 0.000000
-0.014239 -0.016634 0.000000
0.000000 0.000000 0.000000
0.007377 0.022059 0.000000
0.022059 -0.010064 0.000000
0.000000 0.000000 0.000000
0.009144 0.019237 0.000000
0.019237 0.014583 0.000000
0.000000 0.000000 0.000000
-0.007411 0.007534 0.000000
0.007534 -0.002033 0.000000
0.000000 0.000000 0.000000
-0.006079 -0.004997 0.000000
-0.004997 -0.019808 0.000000
0.000000 0.000000 0.000000
-0.009982 0.005538 0.000000
0.005538 0.017076 0.000000
0.000000 0.000000 0.000000
0.006048 0.010940 0.000000
0.010940 0.002752 0.000000
0.000000 0.000000 0.000000
-0.000449 0.001453 0.000000
0.001453 0.001490 0.000000
0.000000 0.000000 0.000000
0.019522 0.000586 0.000000
0.000586 0.046582 0.000000
0.000000 0.000000 0.000000
0.001204 0.025024 0.000000
0.025024 -0.001841 0.000000
0.000000 0.000000 0.000000
0.000314 -0.000824 0.000000
-0.000824 -0.009381 0.000000
0.000000 0.000000 0.000000
0.000455 0.021249 0.000000
0.021249 0.015580 0.000000
0.000000 0.000000 0.000000
0.009995 0.002515 0.000000
0.002515 0.014685 0.000000
0.000000 0.000000 0.000000
0.011425 0.002547 0.000000
0.002547 0.012752 0.000000
0.000000 0.000000 0.000000
-0.007455 -0.009201 0.000000
-0.009201 -0.007366 0.000000
0.000000 0.000000 0.000000
-0.003180 -0.007715 0.000000
-0.007715 -0.007475 0.000000
0.000000 0.000000 0.000000
0.003842 -0.003296 0.000000
-0.003296 -0.001303 0.000000
0.000000 0.000000 0.000000
0.017755 -0.002510 0.000000
-0.002510 0.002531 0.000000
0.000000 0.000000 0.000000
0.023688 -0.000663 0.000000
-0.000663 0.004589 0.000000
0.000000 0.000000 0.000000
0.001075 -0.000263 0.000000
-0.000263 -0.007001 0.000000
0.000000 0.000000 0.000000
-0.016103 -0.003661 0.000000
-0.003661 0.006742 0.000000
0.000000 0.000000 0.000000
-0.010547 0.003515 0.000000
0.003515 0.005292 0.000000
0.000000 0.000000 0.000000
-0.006463 0.000277 0.000000
0.000277 -0.003293 0.000000
0.000000 0.000000 0.000000
-0.011674 0.006107 0.000000
0.006107 -0.002191 0.000000
0.000000 0.000000 0.000000
-0.001436 0.000951 0.000000
0.000951 -0.002877 0.000000
0.000000 0.000000 0.000000
-0.002903 0.008958 0.000000
0.008958 -0.006804 0.000000
0.000000 0.000000 0.000000
-0.003821 0.003086 0.000000
0.003086 0.007559 0.000000
0.000000 0.000000 0.000000
-0.006150 -0.004071 0.000000
-0.004071 -0.006143 0.000000
0.000000 0.000000 0.000000
-0.003647 -0.001843 0.000000
-0.001843 0.001103 0.000000
0.000000 0.000000 0.000000
0.001721 0.002850 0.000000
0.002850 0.008084 0.000000
0.000000 0.000000 0.000000
0.005857 -0.004870 0.000000
-0.004870 0.020351 0.000000
0.000000 0.000000 0.000000
0.001149 0.001154 0.000000
0.001154 -0.005817 0.000000
0.000000 0.000000 0.000000
0.003422 0.004922 0.000000
0.004922 0.003022 0.000000
0.000000 0.000000 0.000000
-0.010757 -0.004830 0.000000
-0.004830 -0.001072 0.000000
0.000000 0.000000 0.000000
-0.005741 -0.003019 0.000000
-0.003019 0.000968 0.000000
0.000000 0.000000 0.000000
-0.011938 -0.004317 0.000000
-0.004317 -0.001857 0.000000
0.000000 0.000000 0.000000
0.004951 0.001077 0.000000
0.001077 -0.002783 0.000000
0.000000 0.000000 0.000000
-0.001552 -0.000393 0.000000
-0.000393 0.001999 0.000000
0.000000 0.000000 0.000000
0.000279 -0.028798 0.000000
-0.028798 0.004885 0.000000
0.000000 0.000000 0.000000
0.003448 -0.003742 0.000000
-0.003742 0.020619 0.000000
0.000000 0.000000 0.000000
0.020291 -0.043159 0.000000
-0.043159 -0.002116 0.000000
0.000000 0.000000 0.000000
0.000634 -0.001148 0.000000
-0.001148 -0.006702 0.000000
0.000000 0.000000 0.000000
-0.004417 0.017005 0.000000
0.017005 0.005080 0.000000
0.000000 0.000000 0.000000
0.002833 0.011875 0.000000
0.011875 0.028504 0.000000
0.000000 0.000000 0.000000
0.001177 -0.002948 0.000000
-0.002948 0.006197 0.000000
0.000000 0.000000 0.000000
-0.002841 0.007116 0.000000
0.007116 -0.004560 0.000000
0.000000 0.000000 0.000000
0.011972 -0.008229 0.000000
-0.008229 -0.006489 0.000000
0.000000 0.000000 0.000000
0.005322 -0.002316 0.000000
-0.002316 -0.001693 0.000000
0.000000 0.000000 0.000000
0.004203 -0.000282 0.000000
-0.000282 0.001071 0.000000
0.000000 0.000000 0.000000
0.009801 -0.000606 0.000000
-0.000606 0.004312 0.000000
0.000000 0.000000 0.000000
0.007827 -0.004343 0.000000
-0.004343 0.025152 0.000000
0.000000 0.000000 0.000000
-0.003978 -0.000913 0.000000
-0.000913 0.012974 0.000000
0.000000 0.000000 0.000000
0.001580 -0.000578 0.000000
-0.000578 0.014652 0.000000
0.000000 0.000000 0.000000
-0.008095 -0.003024 0.000000
-0.003024 -0.016764 0.000000
0.000000 0.000000 0.000000
0.001919 -0.003489 0.000000
-0.003489 -0.022935 0.000000
0.000000 0.000000 0.000000
-0.002105 0.000416 0.000000
0.000416 -0.011485 0.000000
0.000000 0.000000 0.000000
-0.008949 -0.004285 0.000000
-0.004285 -0.010002 0.000000
0.000000 0.000000 0.000000
-0.008427 -0.003195 0.000000
-0.003195 -0.002900 0.000000
0.000000 0.000000 0.000000
0.001267 -0.001885 0.000000
-0.001885 -0.001258 0.000000
0.000000 0.000000 0.000000
0.006023 0.000146 0.000000
0.000146 0.001660 0.000000
0.000000 0.000000 0.000000
0.011209 -0.003183 0.000000
-0.003183 -0.004902 0.000000
0.000000 0.000000 0.000000
-0.008346 -0.007512 0.000000
-0.007512 -0.007835 0.000000
0.000000 0.000000 0.000000
-0.011074 -0.004379 0.000000
-0.004379 0.018836 0.000000
0.000000 0.000000 0.000000
0.018598 0.000773 0.000000
0.000773 0.015024 0.000000
0.000000 0.000000 0.000000
-0.027048 0.016851 0.000000
0.016851 -0.041160 0.000000
0.000000 0.000000 0.000000
0.006681 0.001862 0.000000
0.001862 -0.001381 0.000000
0.000000 0.000000 0.000000
0.009032 0.000189 0.000000
0.000189 0.012536 0.000000
0.000000 0.000000 0.000000
0.012646 0.000239 0.000000
0.000239 -0.006740 0.000000
0.000000 0.000000 0.000000
0.016343 -0.000143 0.000000
-0.000143 0.007756 0.000000
0.000000 0.000000 0.000000
0.000241 -0.008305 0.000000
-0.008305 0.013832 0.000000
0.000000 0.000000 0.000000
-0.014290 -0.001173 0.000000
-0.001173 0.022084 0.000000
0.000000 0.000000 0.000000
-0.009749 -0.008224 0.000000
-0.008224 -0.014102 0.000000
0.000000 0.000000 0.000000
-0.011839 0.003342 0.000000
0.003342 0.017489 0.000000
0.000000 0.000000 0.000000
0.004058 -0.002317 0.000000
-0.002317 0.008958 0.000000
0.000000 0.000000 0.000000
-0.013644 0.003215 0.000000
0.003215 -0.000895 0.000000
0.000000 0.000000 0.000000
0.001920 0.019851 0.000000
0.019851 -0.016959 0.000000
0.000000 0.000000 0.000000
0.001014 0.027956 0.000000
0.027956 0.010318 0.000000
0.000000 0.000000 0.000000
0.007093 -0.000385 0.000000
-0.000385 0.015023 0.000000
0.000000 0.000000 0.000000
-0.034752 0.009358 0.000000
0.009358 -0.002637 0.000000
0.000000 0.000000 0.000000
-0.011107 0.008585 0.000000
0.008585 -0.023041 0.000000
0.000000 0.000000 0.000000
0.007484 0.000194 0.000000
0.000194 0.007909 0.000000
0.000000 0.000000 0.000000
-0.010410 0.007283 0.000000
0.007283 0.004897 0.000000
0.000000 0.000000 0.000000
-0.003847 -0.001871 0.000000
-0.001871 -0.011315 0.000000
0.000000 0.000000 0.000000
-0.001549 0.024388 0.000000
0.024388 -0.001394 0.000000
0.000000 0.000000 0.000000
-0.002771 0.008309 0.000000
0.008309 -0.012991 0.000000
0.000000 0.000000 0.000000
0.004099 -0.004037 0.000000
-0.004037 0.005191 0.000000
0.000000 0.000000 0.000000
0.002011 0.008225 0.000000
0.008225 -0.000616 0.000000
0.000000 0.000000 0.000000
-0.001684 0.009514 0.000000
0.009514 -0.002253 0.000000
0.000000 0.000000 0.000000
-0.007150 0.009033 0.000000
0.009033 -0.028015 0.000000
0.000000 0.000000 0.000000
0.001835 -0.000224 0.000000
-0.000224 0.005863 0.000000
0.000000 0.000000 0.000000
-0.030462 -0.005822 0.000000
-0.005822 -0.005090 0.000000
0.000000 0.000000 0.000000
-0.003520 0.004085 0.000000
0.004085 0.002473 0.000000
0.000000 0.000000 0.000000
-0.007789 0.032442 0.000000
0.032442 0.009290 0.000000
0.000000 0.000000 0.000000
-0.010449 -0.012127 0.000000
-0.012127 -0.002720 0.000000
0.000000 0.000000 0.000000
0.015895 -0.021251 0.000000
-0.021251 -0.025576 0.000000
0.000000 0.000000 0.000000
0.006324 0.021321 0.000000
0.021321 0.039150 0.000000
0.000000 0.000000 0.000000
-0.043344 0.001222 0.000000
0.001222 -0.006008 0.000000
0.000000 0.000000 0.000000
-0.026560 0.015121 0.000000
0.015121 0.008265 0.000000
0.000000 0.000000 0.000000
-0.012510 0.000341 0.000000
0.000341 -0.002245 0.000000
0.000000 0.000000 0.000000
0.009051 -0.000378 0.000000
-0.000378 0.010381 0.000000
0.000000 0.000000 0.000000
0.003309 -0.001525 0.000000
-0.001525 0.003643 0.000000
0.000000 0.000000 0.000000
-0.007361 -0.003809 0.000000
-0.003809 0.004088 0.000000
0.000000 0.000000 0.000000
0.002875 0.000203 0.000000
0.000203 0.018385 0.000000
0.000000 0.000000 0.000000
0.001872 0.005738 0.000000
0.005738 -0.011626 0.000000
0.000000 0.000000 0.000000
-0.012786 -0.000813 0.000000
-0.000813 -0.019340 0.000000
0.000000 0.000000 0.000000
0.008022 -0.007829 0.000000
-0.007829 0.021043 0.000000
0.000000 0.000000 0.000000
0.005000 -0.001619 0.000000
-0.001619 0.010926 0.000000
0.000000 0.000000 0.000000
0.002113 0.001834 0.000000
0.001834 0.022590 0.000000
0.000000 0.000000 0.000000
-0.014091 0.011266 0.000000
0.011266 0.001984 0.000000
0.000000 0.000000 0.000000
-0.002384 -0.001133 0.000000
-0.001133 0.001761 0.000000
0.000000 0.000000 0.000000
-0.008981 0.013416 0.000000
0.013416 0.004476 0.000000
0.000000 0.000000 0.000000
-0.012508 0.023813 0.000000
0.023813 0.004885 0.000000
0.000000 0.000000 0.000000
-0.010183 0.000744 0.000000
0.000744 0.006681 0.000000
0.000000 0.000000 0.000000
0.008382 -0.004863 0.000000
-0.004863 -0.007956 0.000000
0.000000 0.000000 0.000000
0.000556 0.002349 0.000000
0.002349 0.000186 0.000000
0.000000 0.000000 0.000000
-0.003345 -0.005264 0.000000
-0.005264 -0.011496 0.000000
0.000000 0.000000 0.000000
0.002365 -0.000924 0.000000
-0.000924 0.005457 0.000000
0.000000 0.000000 0.000000
-0.004964 0.003804 0.000000
0.003804 -0.013846 0.000000
0.000000 0.000000 0.000000
-0.004410 0.003512 0.000000
0.003512 0.001819 0.000000
0.000000 0.000000 0.000000
0.015161 0.000052 0.000000
0.000052 -0.010462 0.000000
0.000000 0.000000 0.000000
0.008493 -0.006475 0.000000
-0.006475 -0.002347 0.000000
0.000000 0.000000 0.000000
-0.013967 0.001053 0.000000
0.001053 0.003534 0.000000
0.000000 0.000000 0.000000
0.012443 -0.016150 0.000000
-0.016150 0.010048 0.000000
0.000000 0.000000 0.000000
-0.006448 0.015464 0.000000
0.015464 -0.003425 0.000000
0.000000 0.000000 0.000000
-0.023097 0.025176 0.000000
0.025176 0.001019 0.000000
0.000000 0.000000 0.000000
-0.010589 0.001739 0.000000
0.001739 0.023727 0.000000
0.000000 0.000000 0.000000
0.018683 -0.012880 0.000000
-0.012880 -0.013099 0.000000
0.000000 0.000000 0.000000
0.044545 -0.026553 0.000000
-0.026553 0.011681 0.000000
0.000000 0.000000 0.000000
0.002975 0.006799 0.000000
0.006799 -0.022296 0.000000
0.000000 0.000000 0.000000
0.009915 0.005164 0.000000
0.005164 0.000247 0.000000
0.000000 0.000000 0.000000
0.004306 -0.011949 0.000000
-0.011949 -0.011016 0.000000
0.000000 0.000000 0.000000
0.012187 0.010814 0.000000
0.010814 -0.005270 0.000000
0.000000 0.000000 0.000000
-0.020528 0.008007 0.000000
0.008007 -0.013446 0.000000
0.000000 0.000000 0.000000
-0.012676 0.012828 0.000000
0.012828 -0.003780 0.000000
0.000000 0.000000 0.000000
-0.005648 -0.002097 0.000000
-0.002097 0.008926 0.000000
0.000000 0.000000 0.000000
-0.003428 0.002708 0.000000
0.002708 0.000168 0.000000
0.000000 0.000000 0.000000
-0.001487 0.007308 0.000000
0.007308 0.014195 0.000000
0.000000 0.000000 0.000000
-0.010725 0.014097 0.000000
0.014097 0.002501 0.000000
0.000000 0.000000 0.000000
0.003281 0.010978 0.000000
0.010978 -0.002052 0.000000
0.000000 0.000000 0.000000
0.000594 0.009223 0.000000
0.009223 -0.003533 0.000000
0.000000 0.000000 0.000000
0.013340 -0.000017 0.000000
-0.000017 0.019557 0.000000
0.000000 0.000000 0.000000
0.002505 -0.007589 0.000000
-0.007589 -0.001399 0.000000
0.000000 0.000000 0.000000
0.018060 0.012739 0.000000
0.012739 0.023458 0.000000
0.000000 0.000000 0.000000
0.007931 0.004566 0.000000
0.004566 0.016373 0.000000
0.000000 0.000000 0.000000
-0.004128 0.007155 0.000000
0.007155 0.003236 0.000000
0.000000 0.000000 0.000000
-0.018311 0.002255 0.000000
0.002255 -0.018476 0.000000
0.000000 0.000000 0.000000
-0.011966 0.003019 0.000000
0.003019 -0.017388 0.000000
0.000000 0.000000 0.000000
-0.002017 0.009314 0.000000
0.009314 -0.004095 0.000000
0.000000 0.000000 0.000000
-0.026131 -0.013331 0.000000
-0.013331 0.016149 0.000000
0.000000 0.000000 0.000000
0.004791 0.004872 0.000000
0.004872 0.005547 0.000000
0.000000 0.000000 0.000000
0.001947 0.001676 0.000000
0.001676 0.001145 0.000000
0.000000 0.000000 0.000000
0.008901 0.002490 0.000000
0.002490 -0.007651 0.000000
0.000000 0.000000 0.000000
0.007851 0.004038 0.000000
0.004038 -0.008004 0.000000
0.000000 0.000000 0.000000
-0.003314 0.004252 0.000000
0.004252 -0.011634 0.000000
0.000000 0.000000 0.000000
-0.009609 0.002547 0.000000
0.002547 -0.014168 0.000000
0.000000 0.000000 0.000000
-0.005632 -0.002824 0.000000
-0.002824 0.008987 0.000000
0.000000 0.000000 0.000000
0.034728 -0.020869 0.000000
-0.020869 -0.015459 0.000000
0.000000 0.000000 0.000000
-0.010246 -0.006538 0.000000
-0.006538 -0.003977 0.000000
0.000000 0.000000 0.000000
-0.007675 0.001726 0.000000
0.001726 0.011754 0.000000
0.000000 0.000000 0.000000
0.004173 0.007940 0.000000
0.007940 -0.011720 0.000000
0.000000 0.000000 0.000000
-0.003772 -0.001214 0.000000
-0.001214 0.006053 0.000000
0.000000 0.000000 0.000000
-0.007902 -0.007692 0.000000
-0.007692 -0.002166 0.000000
0.000000 0.000000 0.000000
-0.004899 0.002593 0.000000
0.002593 -0.016167 0.000000
0.000000 0.000000 0.000000
0.018089 -0.004833 0.000000
-0.004833 0.000295 0.000000
0.000000 0.000000 0.000000
0.002978 0.002621 0.000000
0.002621 0.002575 0.000000
0.000000 0.000000 0.000000
-0.004835 0.002252 0.000000
0.002252 -0.017148 0.000000
0.000000 0.000000 0.000000
0.016185 0.003741 0.000000
0.003741 -0.003753 0.000000
0.000000 0.000000 0.000000
0.020770 -0.006832 0.000000
-0.006832 0.007058 0.000000
0.000000 0.000000 0.000000
0.004627 -0.000965 0.000000
-0.000965 -0.000609 0.000000
0.000000 0.000000 0.000000
-0.004215 0.001623 0.000000
0.001623 -0.015108 0.000000
0.000000 0.000000 0.000000
0.001736 -0.003357 0.000000
-0.003357 -0.005867 0.000000
0.000000 0.000000 0.000000
0.006241 -0.002672 0.000000
-0.002672 -0.011503 0.000000
0.000000 0.000000 0.000000
0.007971 0.002078 0.000000
0.002078 0.029450 0.000000
0.000000 0.000000 0.000000
0.006508 0.017739 0.000000
0.017739 0.004488 0.000000
0.000000 0.000000 0.000000
0.002368 -0.000722 0.000000
-0.000722 -0.008846 0.000000
0.000000 0.000000 0.000000
0.010008 0.000343 0.000000
0.000343 -0.007211 0.000000
0.000000 0.000000 0.000000
0.015107 -0.000386 0.000000
-0.000386 -0.014744 0.000000
0.000000 0.000000 0.000000
0.001935 0.003533 0.000000
0.003533 0.007722 0.000000
0.000000 0.000000 0.000000
0.006624 -0.000369 0.000000
-0.000369 0.001030 0.000000
0.000000 0.000000 0.000000
-0.013116 0.003684 0.000000
0.003684 0.008675 0.000000
0.000000 0.000000 0.000000
-0.001560 0.005902 0.000000
0.005902 0.002087 0.000000
0.000000 0.000000 0.000000
0.002527 -0.002960 0.000000
-0.002960 0.008591 0.000000
0.000000 0.000000 0.000000
0.006348 0.003075 0.000000
0.003075 0.017072 0.000000
0.000000 0.000000 0.000000
-0.012321 -0.000876 0.000000
-0.000876 0.003199 0.000000
0.000000 0.000000 0.000000
-0.004171 -0.007354 0.000000
-0.007354 -0.007022 0.000000
0.000000 0.000000 0.000000
0.002057 -0.013850 0.000000
-0.013850 0.002840 0.000000
0.000000 0.000000 0.000000
-0.012429 -0.005896 0.000000
-0.005896 0.008510 0.000000
0.000000 0.000000 0.000000
-0.003379 -0.010181 0.000000
-0.010181 0.015236 0.000000
0.000000 0.000000 0.000000
0.003394 0.050378 0.000000
0.050378 0.010358 0.000000
0.000000 0.000000 0.000000
-0.016898 -0.002000 0.000000
-0.002000 0.016661 0.000000
0.000000 0.000000 0.000000
-0.013253 -0.003216 0.000000
-0.003216 -0.028168 0.000000
0.000000 0.000000 0.000000
-0.015844 0.027678 0.000000
0.027678 -0.023295 0.000000
0.000000 0.000000 0.000000
-0.006917 -0.003990 0.000000
-0.003990 -0.010787 0.000000
0.000000 0.000000 0.000000
-0.013082 0.035822 0.000000
0.035822 -0.002641 0.000000
0.000000 0.000000 0.000000
-0.007911 0.000216 0.000000
0.000216 0.005311 0.000000
0.000000 0.000000 0.000000
0.001399 -0.000903 0.000000
-0.000903 0.005556 0.000000
0.000000 0.000000 0.000000
0.000021 -0.001987 0.000000
-0.001987 0.001796 0.000000
0.000000 0.000000 0.000000
-0.005909 0.017235 0.000000
0.017235 0.003194 0.000000
0.000000 0.000000 0.000000
-0.008902 0.008361 0.000000
0.008361 -0.006218 0.000000
0.000000 0.000000 0.000000
-0.013046 -0.011327 0.000000
-0.011327 -0.016934 0.000000
0.000000 0.000000 0.000000
0.006401 -0.002822 0.000000
-0.002822 -0.004128 0.000000
0.000000 0.000000 0.000000
-0.010309 0.000189 0.000000
0.000189 -0.005806 0.000000
0.000000 0.000000 0.000000
0.000402 -0.004122 0.000000
-0.004122 0.007054 0.000000
0.000000 0.000000 0.000000
-0.013676 0.010512 0.000000
0.010512 -0.003216 0.000000
0.000000 0.000000 0.000000
-0.008559 0.000405 0.000000
0.000405 -0.006908 0.000000
0.000000 0.000000 0.000000
-0.004692 0.000455 0.000000
0.000455 -0.005773 0.000000
0.000000 0.000000 0.000000
0.001234 -0.003147 0.000000
-0.003147 0.000946 0.000000
0.000000 0.000000 0.000000
-0.002301 0.007976 0.000000
0.007976 0.027838 0.000000
0.000000 0.000000 0.000000
0.002955 -0.005090 0.000000
-0.005090 0.000847 0.000000
0.000000 0.000000 0.000000
0.013478 0.000460 0.000000
0.000460 -0.009280 0.000000
0.000000 0.000000 0.000000
0.014160 0.000488 0.000000
0.000488 -0.009450 0.000000
0.000000 0.000000 0.000000
0.011784 -0.008085 0.000000
-0.008085 0.026252 0.000000
0.000000 0.000000 0.000000
-0.007795 0.006052 0.000000
0.006052 -0.024612 0.000000
0.000000 0.000000 0.000000
0.001576 -0.000302 0.000000
-0.000302 0.000008 0.000000
0.000000 0.000000 0.000000
-0.002816 0.003870 0.000000
0.003870 -0.000779 0.000000
0.000000 0.000000 0.000000
0.004924 -0.006151 0.000000
-0.006151 0.002574 0.000000
0.000000 0.000000 0.000000
0.000404 -0.001591 0.000000
-0.001591 -0.011558 0.000000
0.000000 0.000000 0.000000
-0.013501 -0.001576 0.000000
-0.001576 0.026811 0.000000
0.000000 0.000000 0.000000
-0.009946 -0.000140 0.000000
-0.000140 0.028637 0.000000
0.000000 0.000000 0.000000
0.008888 0.042834 0.000000
0.042834 0.013005 0.000000
0.000000 0.000000 0.000000
0.011342 0.005901 0.000000
0.005901 0.012114 0.000000
0.000000 0.000000 0.000000
-0.002618 0.003832 0.000000
0.003832 -0.009654 0.000000
0.000000 0.000000 0.000000
0.018623 0.034445 0.000000
0.034445 0.019687 0.000000
0.000000 0.000000 0.000000
-0.005817 0.006458 0.000000
0.006458 0.003022 0.000000
0.000000 0.000000 0.000000
0.007165 -0.002089 0.000000
-0.002089 0.004896 0.000000
0.000000 0.000000 0.000000
0.004658 0.003597 0.000000
0.003597 0.001255 0.000000
0.000000 0.000000 0.000000
-0.002683 0.009491 0.000000
0.009491 0.004214 0.000000
0.000000 0.000000 0.000000
-0.000742 -0.004875 0.000000
-0.004875 -0.013430 0.000000
0.000000 0.000000 0.000000
0.014612 0.007668 0.000000
0.007668 0.016029 0.000000
0.000000 0.000000 0.000000
0.004417 -0.001172 0.000000
-0.001172 -0.003412 0.000000
0.000000 0.000000 0.000000
-0.021308 0.008832 0.000000
0.008832 -0.021582 0.000000
0.000000 0.000000 0.000000
0.003952 -0.002308 0.000000
-0.002308 0.000944 0.000000
0.000000 0.000000 0.000000
0.003536 -0.006010 0.000000
-0.006010 0.003254 0.000000
0.000000 0.000000 0.000000
0.011334 0.000517 0.000000
0.000517 -0.017093 0.000000
0.000000 0.000000 0.000000
0.010285 -0.009512 0.000000
-0.009512 -0.009934 0.000000
0.000000 0.000000 0.000000
0.002391 0.011358 0.000000
0.011358 -0.002628 0.000000
0.000000 0.000000 0.000000
-0.015285 0.000316 0.000000
0.000316 -0.008488 0.000000
0.000000 0.000000 0.000000
0.002367 -0.000507 0.000000
-0.000507 -0.004747 0.000000
0.000000 0.000000 0.000000
0.002758 -0.003630 0.000000
-0.003630 -0.007235 0.000000
0.000000 0.000000 0.000000
-0.000690 -0.000745 0.000000
-0.000745 -0.000965 0.000000
0.000000 0.000000 0.000000
-0.000632 0.005985 0.000000
0.005985 -0.012378 0.000000
0.000000 0.000000 0.000000
-0.003332 0.003977 0.000000
0.003977 -0.016956 0.000000
0.000000 0.000000 0.000000
-0.008410 -0.004919 0.000000
-0.004919 -0.015443 0.000000
0.000000 0.000000 0.000000
0.003533 -0.003455 0.000000
-0.003455 0.003703 0.000000
0.000000 0.000000 0.000000
0.004306 -0.001831 0.000000
-0.001831 0.010683 0.000000
0.000000 0.000000 0.000000
0.005642 -0.003242 0.000000
-0.003242 0.002380 0.000000
0.000000 0.000000 0.000000
-0.013068 0.016189 0.000000
0.016189 -0.000509 0.000000
0.000000 0.000000 0.000000
-0.004268 -0.003557 0.000000
-0.003557 -0.019252 0.000000
0.000000 0.000000 0.000000
-0.007282 -0.002940 0.000000
-0.002940 -0.019346 0.000000
0.000000 0.000000 0.000000
-0.013910 -0.002198 0.000000
-0.002198 0.011150 0.000000
0.000000 0.000000 0.000000
-0.002774 -0.002333 0.000000
-0.002333 -0.015155 0.000000
0.000000 0.000000 0.000000
0.005756 -0.013230 0.000000
-0.013230 0.003775 0.000000
0.000000 0.000000 0.000000
-0.020748 -0.009785 0.000000
-0.009785 0.013059 0.000000
0.000000 0.000000 0.000000
-0.002403 0.007384 0.000000
0.007384 0.008520 0.000000
0.000000 0.000000 0.000000
-0.006405 0.006018 0.000000
0.006018 -0.025803 0.000000
0.000000 0.000000 0.000000
-0.010991 -0.001997 0.000000
-0.001997 0.021433 0.000000
0.000000 0.000000 0.000000
-0.010728 0.008174 0.000000
0.008174 -0.007019 0.000000
0.000000 0.000000 0.000000
0.006890 -0.005086 0.000000
-0.005086 0.002581 0.000000
0.000000 0.000000 0.000000
0.018512 -0.000589 0.000000
-0.000589 0.001925 0.000000
0.000000 0.000000 0.000000
0.026408 0.009257 0.000000
0.009257 0.003974 0.000000
0.000000 0.000000 0.000000
0.000152 0.023379 0.000000
0.023379 0.009712 0.000000
0.000000 0.000000 0.000000
-0.016980 -0.002426 0.000000
-0.002426 0.011773 0.000000
0.000000 0.000000 0.000000
0.006143 0.006130 0.000000
0.006130 0.015868 0.000000
0.000000 0.000000 0.000000
-0.002760 0.025377 0.000000
0.025377 -0.000671 0.000000
0.000000 0.000000 0.000000
-0.008517 0.007644 0.000000
0.007644 0.016464 0.000000
0.000000 0.000000 0.000000
-0.026775 0.004479 0.000000
0.004479 0.013087 0.000000
0.000000 0.000000 0.000000
-0.013267 -0.000322 0.000000
-0.000322 -0.003124 0.000000
0.000000 0.000000 0.000000
-0.005787 -0.002152 0.000000
-0.002152 -0.007630 0.000000
0.000000 0.000000 0.000000
0.005798 -0.002281 0.000000
-0.002281 -0.004965 0.000000
0.000000 0.000000 0.000000
-0.012773 0.000786 0.000000
0.000786 -0.000991 0.000000
0.000000 0.000000 0.000000
0.005176 -0.001838 0.000000
-0.001838 0.001856 0.000000
0.000000 0.000000 0.000000
-0.045554 0.038019 0.000000
0.038019 0.003281 0.000000
0.000000 0.000000 0.000000
0.005549 -0.001930 0.000000
-0.001930 -0.001094 0.000000
0.000000 0.000000 0.000000
0.000871 0.003245 0.000000
0.003245 0.024962 0.000000
0.000000 0.000000 0.000000
0.003755 -0.022616 0.000000
-0.022616 -0.015655 0.000000
0.000000 0.000000 0.000000
-0.009003 0.001645 0.000000
0.001645 -0.007934 0.000000
0.000000 0.000000 0.000000
-0.033129 0.027309 0.000000
0.027309 0.020094 0.000000
0.000000 0.000000 0.000000
0.006331 0.005713 0.000000
0.005713 0.013597 0.000000
0.000000 0.000000 0.000000
-0.009039 0.002509 0.000000
0.002509 0.019501 0.000000
0.000000 0.000000 0.000000
0.018165 -0.005258 0.000000
-0.005258 0.049723 0.000000
0.000000 0.000000 0.000000
0.000962 -0.009648 0.000000
-0.009648 0.005153 0.000000
0.000000 0.000000 0.000000
-0.000219 0.003131 0.000000
0.003131 0.001024 0.000000
0.000000 0.000000 0.000000
0.006576 -0.001403 0.000000
-0.001403 0.002725 0.000000
0.000000 0.000000 0.000000
-0.004210 0.005204 0.000000
0.005204 0.003754 0.000000
0.000000 0.000000 0.000000
-0.005900 -0.000380 0.000000
-0.000380 -0.004766 0.000000
0.000000 0.000000 0.000000
-0.006274 -0.008151 0.000000
-0.008151 -0.024972 0.000000
0.000000 0.000000 0.000000
0.011875 0.000294 0.000000
0.000294 0.007875 0.000000
0.000000 0.000000 0.000000
-0.010259 -0.007297 0.000000
-0.007297 -0.026343 0.000000
0.000000 0.000000 0.000000
-0.005887 0.004105 0.000000
0.004105 -0.002376 0.000000
0.000000 0.000000 0.000000
-0.005126 0.004641 0.000000
0.004641 -0.004345 0.000000
0.000000 0.000000 0.000000
-0.009430 -0.001950 0.000000
-0.001950 -0.001929 0.000000
0.000000 0.000000 0.000000
-0.001416 0.015885 0.000000
0.015885 0.004817 0.000000
0.000000 0.000000 0.000000
0.006220 0.004486 0.000000
0.004486 0.014192 0.000000
0.000000 0.000000 0.000000
0.011945 0.011575 0.000000
0.011575 0.011327 0.000000
0.000000 0.000000 0.000000
0.006360 0.001788 0.000000
0.001788 0.010340 0.000000
0.000000 0.000000 0.000000
-0.000590 0.007245 0.000000
0.007245 0.001788 0.000000
0.000000 0.000000 0.000000
-0.006922 0.006898 0.000000
0.006898 0.003962 0.000000
0.000000 0.000000 0.000000
0.003431 0.004710 0.000000
0.004710 -0.000886 0.000000
0.000000 0.000000 0.000000
0.002578 0.018962 0.000000
0.018962 -0.004797 0.000000
0.000000 0.000000 0.000000
0.002613 -0.004807 0.000000
-0.004807 0.004444 0.000000
0.000000 0.000000 0.000000
0.004000 -0.002127 0.000000
-0.002127 -0.004202 0.000000
0.000000 0.000000 0.000000
0.005136 -0.006421 0.000000
-0.006421 0.004676 0.000000
0.000000 0.000000 0.000000
-0.007799 -0.004888 0.000000
-0.004888 0.013218 0.000000
0.000000 0.000000 0.000000
-0.008736 0.002140 0.000000
0.002140 -0.016066 0.000000
0.000000 0.000000 0.000000
0.016951 -0.010096 0.000000
-0.010096 0.004479 0.000000
0.000000 0.000000 0.000000
0.009558 -0.003288 0.000000
-0.003288 0.014944 0.000000
0.000000 0.000000 0.000000
-0.016041 0.013908 0.000000
0.013908 0.001709 0.000000
0.000000 0.000000 0.000000
0.009546 0.005023 0.000000
0.005023 -0.011536 0.000000
0.000000 0.000000 0.000000
-0.004045 0.005466 0.000000
0.005466 0.011302 0.000000
0.000000 0.000000 0.000000
-0.008614 -0.003709 0.000000
-0.003709 -0.014464 0.000000
0.000000 0.000000 0.000000
0.026424 -0.005818 0.000000
-0.005818 0.014084 0.000000
0.000000 0.000000 0.000000
-0.000960 -0.009371 0.000000
-0.009371 -0.000320 0.000000
0.000000 0.000000 0.000000
-0.001555 -0.008193 0.000000
-0.008193 -0.005182 0.000000
0.000000 0.000000 0.000000
-0.008899 0.017924 0.000000
0.017924 0.025946 0.000000
0.000000 0.000000 0.000000
-0.003887 -0.005549 0.000000
-0.005549 -0.009178 0.000000
0.000000 0.000000 0.000000
0.016275 -0.022384 0.000000
-0.022384 -0.060677 0.000000
0.000000 0.000000 0.000000
-0.011825 -0.001389 0.000000
-0.001389 0.005448 0.000000
0.000000 0.000000 0.000000
-0.009077 0.000069 0.000000
0.000069 -0.009332 0.000000
0.000000 0.000000 0.000000
-0.015442 -0.022958 0.000000
-0.022958 0.006611 0.000000
0.000000 0.000000 0.000000
0.005691 -0.002220 0.000000
-0.002220 -0.026648 0.000000
0.000000 0.000000 0.000000
-0.002437 -0.002830 0.000000
-0.002830 0.003183 0.000000
0.000000 0.000000 0.000000
-0.016429 -0.030049 0.000000
-0.030049 0.025573 0.000000
0.000000 0.000000 0.000000
0.014746 -0.007304 0.000000
-0.007304 -0.001416 0.000000
0.000000 0.000000 0.000000
0.005442 -0.013995 0.000000
-0.013995 0.005381 0.000000
0.000000 0.000000 0.000000
-0.009856 0.002251 0.000000
0.002251 -0.016464 0.000000
0.000000 0.000000 0.000000
-0.000472 0.001448 0.000000
0.001448 0.002985 0.000000
0.000000 0.000000 0.000000
0.016653 0.008344 0.000000
0.008344 0.038183 0.000000
0.000000 0.000000 0.000000
-0.013151 -0.007776 0.000000
-0.007776 0.004817 0.000000
0.000000 0.000000 0.000000
-0.000449 -0.003929 0.000000
-0.003929 0.005985 0.000000
0.000000 0.000000 0.000000
-0.003946 -0.000770 0.000000
-0.000770 -0.001761 0.000000
0.000000 0.000000 0.000000
-0.023658 -0.003404 0.000000
-0.003404 -0.044752 0.000000
0.000000 0.000000 0.000000
-0.015504 -0.006466 0.000000
-0.006466 -0.021105 0.000000
0.000000 0.000000 0.000000
-0.003731 -0.007542 0.000000
-0.007542 -0.019562 0.000000
0.000000 0.000000 0.000000
-0.016709 -0.005436 0.000000
-0.005436 -0.031893 0.000000
0.000000 0.000000 0.000000
0.002967 -0.005672 0.000000
-0.005672 0.007644 0.000000
0.000000 0.000000 0.000000
-0.007488 -0.002420 0.000000
-0.002420 0.004362 0.000000
0.000000 0.000000 0.000000
-0.012523 0.011544 0.000000
0.011544 -0.000255 0.000000
0.000000 0.000000 0.000000
-0.021140 -0.008577 0.000000
-0.008577 -0.008388 0.000000
0.000000 0.000000 0.000000
-0.001382 0.000460 0.000000
0.000460 -0.001617 0.000000
0.000000 0.000000 0.000000
-0.009968 -0.011507 0.000000
-0.011507 -0.028306 0.000000
0.000000 0.000000 0.000000
-0.004047 0.009033 0.000000
0.009033 -0.004877 0.000000
0.000000 0.000000 0.000000
0.009207 0.002276 0.000000
0.002276 -0.009719 0.000000
0.000000 0.000000 0.000000
0.009291 0.001085 0.000000
0.001085 -0.010572 0.000000
0.000000 0.000000 0.000000
-0.006101 -0.000159 0.000000
-0.000159 -0.005428 0.000000
0.000000 0.000000 0.000000
0.009850 0.003057 0.000000
0.003057 -0.016729 0.000000
0.000000 0.000000 0.000000
-0.015556 0.010322 0.000000
0.010322 0.006399 0.000000
0.000000 0.000000 0.000000
0.000564 0.017947 0.000000
0.017947 -0.005548 0.000000
0.000000 0.000000 0.000000
-0.004936 0.015922 0.000000
0.015922 0.005956 0.000000
0.000000 0.000000 0.000000
0.007755 0.001931 0.000000
0.001931 -0.007691 0.000000
0.000000 0.000000 0.000000
0.013301 0.025512 0.000000
0.025512 0.012776 0.000000
0.000000 0.000000 0.000000
0.029254 0.019344 0.000000
0.019344 -0.015518 0.000000
0.000000 0.000000 0.000000
-0.000527 -0.000979 0.000000
-0.000979 0.015231 0.000000
0.000000 0.000000 0.000000
0.001966 0.004191 0.000000
0.004191 0.007304 0.000000
0.000000 0.000000 0.000000
-0.003759 0.002948 0.000000
0.002948 -0.005029 0.000000
0.000000 0.000000 0.000000
0.014001 0.003981 0.000000
0.003981 0.037319 0.000000
0.000000 0.000000 0.000000
-0.002164 -0.000654 0.000000
-0.000654 0.011398 0.000000
0.000000 0.000000 0.000000
0.003652 0.002155 0.000000
0.002155 -0.003561 0.000000
0.000000 0.000000 0.000000
0.009313 0.000290 0.000000
0.000290 -0.005545 0.000000
0.000000 0.000000 0.000000
-0.018438 0.003277 0.000000
0.003277 0.011895 0.000000
0.000000 0.000000 0.000000
0.002769 -0.002622 0.000000
-0.002622 0.005430 0.000000
0.000000 0.000000 0.000000
-0.003276 -0.001735 0.000000
-0.001735 -0.003867 0.000000
0.000000 0.000000 0.000000
-0.008259 0.001831 0.000000
0.001831 -0.006136 0.000000
0.000000 0.000000 0.000000
0.008494 0.003672 0.000000
0.003672 0.018058 0.000000
0.000000 0.000000 0.000000
-0.010211 -0.009245 0.000000
-0.009245 0.006075 0.000000
0.000000 0.000000 0.000000
-0.003587 0.001912 0.000000
0.001912 -0.003223 0.000000
0.000000 0.000000 0.000000
-0.014864 -0.002090 0.000000
-0.002090 0.005960 0.000000
0.000000 0.000000 0.000000
-0.017425 -0.001507 0.000000
-0.001507 0.010302 0.000000
0.000000 0.000000 0.000000
0.000131 0.003926 0.000000
0.003926 -0.009895 0.000000
0.000000 0.000000 0.000000
-0.006777 0.006678 0.000000
0.006678 -0.006851 0.000000
0.000000 0.000000 0.000000
0.002857 0.013706 0.000000
0.013706 0.006584 0.000000
0.000000 0.000000 0.000000
-0.012310 0.016367 0.000000
0.016367 0.011418 0.000000
0.000000 0.000000 0.000000
0.001522 0.014999 0.000000
0.014999 0.002383 0.000000
0.000000 0.000000 0.000000
-0.009028 -0.004119 0.000000
-0.004119 0.003089 0.000000
0.000000 0.000000 0.000000
-0.001730 0.010654 0.000000
0.010654 -0.002130 0.000000
0.000000 0.000000 0.000000
0.003265 -0.005243 0.000000
-0.005243 0.012272 0.000000
0.000000 0.000000 0.000000
-0.010999 0.007635 0.000000
0.007635 0.003323 0.000000
0.000000 0.000000 0.000000
0.014709 -0.005107 0.000000
-0.005107 0.000462 0.000000
0.000000 0.000000 0.000000
-0.000344 0.003931 0.000000
0.003931 0.005323 0.000000
0.000000 0.000000 0.000000
-0.012286 0.033731 0.000000
0.033731 -0.012073 0.000000
0.000000 0.000000 0.000000
0.002806 0.006029 0.000000
0.006029 -0.001616 0.000000
0.000000 0.000000 0.000000
-0.017848 0.001514 0.000000
0.001514 -0.010725 0.000000
0.000000 0.000000 0.000000
-0.018661 0.031082 0.000000
0.031082 -0.031154 0.000000
0.000000 0.000000 0.000000
0.008688 -0.000085 0.000000
-0.000085 0.011861 0.000000
0.000000 0.000000 0.000000
0.007701 -0.000855 0.000000
-0.000855 0.007553 0.000000
0.000000 0.000000 0.000000
-0.004653 -0.000589 0.000000
-0.000589 -0.000500 0.000000
0.000000 0.000000 0.000000
0.020148 -0.006800 0.000000
-0.006800 0.005550 0.000000
0.000000 0.000000 0.000000
-0.001846 -0.003997 0.000000
-0.003997 0.003196 0.000000
0.000000 0.000000 0.000000
-0.000481 -0.006877 0.000000
-0.006877 0.001394 0.000000
0.000000 0.000000 0.000000
0.010184 -0.006219 0.000000
-0.006219 0.032300 0.000000
0.000000 0.000000 0.000000
0.002415 -0.001733 0.000000
-0.001733 -0.001119 0.000000
0.000000 0.000000 0.000000
-0.013757 -0.008298 0.000000
-0.008298 -0.026263 0.000000
0.000000 0.000000 0.000000
-0.007074 0.004016 0.000000
0.004016 -0.019179 0.000000
0.000000 0.000000 0.000000
0.003889 0.003351 0.000000
0.003351 -0.000878 0.000000
0.000000 0.000000 0.000000
-0.011882 -0.009115 0.000000
-0.009115 -0.011947 0.000000
0.000000 0.000000 0.000000
0.003598 0.000300 0.000000
0.000300 0.016202 0.000000
0.000000 0.000000 0.000000
0.004696 0.001741 0.000000
0.001741 0.019510 0.000000
0.000000 0.000000 0.000000
0.005069 0.000150 0.000000
0.000150 0.007528 0.000000
0.000000 0.000000 0.000000
0.004090 0.000286 0.000000
0.000286 0.016325 0.000000
0.000000 0.000000 0.000000
0.002907 0.002270 0.000000
0.002270 -0.005067 0.000000
0.000000 0.000000 0.000000
-0.006291 0.008068 0.000000
0.008068 -0.004472 0.000000
0.000000 0.000000 0.000000
0.006145 -0.000967 0.000000
-0.000967 -0.003810 0.000000
0.000000 0.000000 0.000000
0.007931 -0.005354 0.000000
-0.005354 0.004355 0.000000
0.000000 0.000000 0.000000
-0.000103 0.014839 0.000000
0.014839 -0.030365 0.000000
0.000000 0.000000 0.000000
0.015356 -0.002497 0.000000
-0.002497 0.008804 0.000000
0.000000 0.000000 0.000000
0.000259 0.005169 0.000000
0.005169 -0.008219 0.000000
0.000000 0.000000 0.000000
0.009433 -0.000609 0.000000
-0.000609 -0.004528 0.000000
0.000000 0.000000 0.000000
0.014435 -0.005343 0.000000
-0.005343 0.020310 0.000000
0.000000 0.000000 0.000000
0.001333 0.000376 0.000000
0.000376 0.002141 0.000000
0.000000 0.000000 0.000000
0.007545 0.003454 0.000000
0.003454 0.007390 0.000000
0.000000 0.000000 0.000000
0.000306 0.002211 0.000000
0.002211 0.019379 0.000000
0.000000 0.000000 0.000000
-0.008904 0.007719 0.000000
0.007719 0.007658 0.000000
0.000000 0.000000 0.000000
-0.004002 -0.001299 0.000000
-0.001299 -0.026631 0.000000
0.000000 0.000000 0.000000
-0.006032 -0.030660 0.000000
-0.030660 -0.010435 0.000000
0.000000 0.000000 0.000000
-0.001586 -0.020318 0.000000
-0.020318 -0.021728 0.000000
0.000000 0.000000 0.000000
-0.003896 0.000958 0.000000
0.000958 -0.001471 0.000000
0.000000 0.000000 0.000000
-0.015040 -0.003922 0.000000
-0.003922 -0.012108 0.000000
0.000000 0.000000 0.000000
-0.003920 0.001889 0.000000
0.001889 -0.004102 0.000000
0.000000 0.000000 0.000000
-0.018462 0.020251 0.000000
0.020251 -0.028032 0.000000
0.000000 0.000000 0.000000
0.006317 0.025793 0.000000
0.025793 0.002647 0.000000
0.000000 0.000000 0.000000
-0.005784 0.000448 0.000000
0.000448 -0.001677 0.000000
0.000000 0.000000 0.000000
-0.010929 -0.007861 0.000000
-0.007861 0.000933 0.000000
0.000000 0.000000 0.000000
0.005490 -0.001777 0.000000
-0.001777 -0.002076 0.000000
0.000000 0.000000 0.000000
-0.009763 0.002662 0.000000
0.002662 -0.004370 0.000000
0.000000 0.000000 0.000000
0.018202 0.005396 0.000000
0.005396 0.034645 0.000000
0.000000 0.000000 0.000000
-0.005688 -0.009646 0.000000
-0.009646 0.001945 0.000000
0.000000 0.000000 0.000000
-0.011382 0.004175 0.000000
0.004175 -0.006547 0.000000
0.000000 0.000000 0.000000
-0.002305 -0.021387 0.000000
-0.021387 -0.016396 0.000000
0.000000 0.000000 0.000000
-0.011067 -0.018827 0.000000
-0.018827 0.001787 0.000000
0.000000 0.000000 0.000000
-0.012864 -0.018910 0.000000
-0.018910 -0.008192 0.000000
0.000000 0.000000 0.000000
0.010583 -0.002118 0.000000
-0.002118 0.000569 0.000000
0.000000 0.000000 0.000000
-0.002415 -0.056746 0.000000
-0.056746 0.015689 0.000000
0.000000 0.000000 0.000000
-0.019720 0.005376 0.000000
0.005376 0.024133 0.000000
0.000000 0.000000 0.000000
0.027410 -0.016545 0.000000
-0.016545 -0.010509 0.000000
0.000000 0.000000 0.000000
0.003823 -0.000607 0.000000
-0.000607 0.008965 0.000000
0.000000 0.000000 0.000000
0.006199 0.000647 0.000000
0.000647 -0.000888 0.000000
0.000000 0.000000 0.000000
0.003299 0.002389 0.000000
0.002389 0.006443 0.000000
0.000000 0.000000 0.000000
-0.002112 -0.000279 0.000000
-0.000279 0.000083 0.000000
0.000000 0.000000 0.000000
0.005457 0.005942 0.000000
0.005942 -0.003333 0.000000
0.000000 0.000000 0.000000
-0.002643 0.000908 0.000000
0.000908 -0.000167 0.000000
0.000000 0.000000 0.000000
0.007433 -0.000986 0.000000
-0.000986 0.000988 0.000000
0.000000 0.000000 0.000000
-0.001096 -0.008657 0.000000
-0.008657 0.001228 0.000000
0.000000 0.000000 0.000000
-0.001038 -0.016138 0.000000
-0.016138 -0.001637 0.000000
0.000000 0.000000 0.000000
-0.001093 -0.013251 0.000000
-0.013251 0.000568 0.000000
0.000000 0.000000 0.000000
-0.004994 0.000455 0.000000
0.000455 -0.006565 0.000000
0.000000 0.000000 0.000000
-0.001148 -0.026583 0.000000
-0.026583 -0.006967 0.000000
0.000000 0.000000 0.000000
0.002664 -0.000787 0.000000
-0.000787 0.001742 0.000000
0.000000 0.000000 0.000000
-0.007267 0.001384 0.000000
0.001384 -0.007083 0.000000
0.000000 0.000000 0.000000
-0.005804 -0.001620 0.000000
-0.001620 -0.003139 0.000000
0.000000 0.000000 0.000000
-0.003802 -0.001661 0.000000
-0.001661 -0.000304 0.000000
0.000000 0.000000 0.000000
-0.000866 0.003500 0.000000
0.003500 0.009051 0.000000
0.000000 0.000000 0.000000
0.007042 -0.004251 0.000000
-0.004251 0.003548 0.000000
0.000000 0.000000 0.000000
-0.001155 -0.006310 0.000000
-0.006310 -0.001817 0.000000
0.000000 0.000000 0.000000
-0.019933 0.002049 0.000000
0.002049 0.008620 0.000000
0.000000 0.000000 0.000000
0.032371 0.005391 0.000000
0.005391 0.003078 0.000000
0.000000 0.000000 0.000000
-0.044557 0.023888 0.000000
0.023888 0.008422 0.000000
0.000000 0.000000 0.000000
-0.009383 -0.052258 0.000000
-0.052258 0.001797 0.000000
0.000000 0.000000 0.000000
0.021098 0.013520 0.000000
0.013520 -0.018807 0.000000
0.000000 0.000000 0.000000
-0.021761 0.002287 0.000000
0.002287 0.003621 0.000000
0.000000 0.000000 0.000000
-0.004461 0.007923 0.000000
0.007923 0.012564 0.000000
0.000000 0.000000 0.000000
0.027182 -0.013729 0.000000
-0.013729 0.018069 0.000000
0.000000 0.000000 0.000000
-0.005044 0.003350 0.000000
0.003350 -0.009823 0.000000
0.000000 0.000000 0.000000
0.004815 -0.003222 0.000000
-0.003222 0.004504 0.000000
0.000000 0.000000 0.000000
-0.014342 -0.001878 0.000000
-0.001878 -0.000606 0.000000
0.000000 0.000000 0.000000
0.022914 0.000047 0.000000
0.000047 -0.011558 0.000000
0.000000 0.000000 0.000000
0.015690 -0.007592 0.000000
-0.007592 0.007666 0.000000
0.000000 0.000000 0.000000
0.014452 -0.000686 0.000000
-0.000686 0.006971 0.000000
0.000000 0.000000 0.000000
0.007531 0.002011 0.000000
0.002011 0.003198 0.000000
0.000000 0.000000 0.000000
0.002916 -0.000083 0.000000
-0.000083 0.005294 0.000000
0.000000 0.000000 0.000000
-0.008079 0.004951 0.000000
0.004951 0.007798 0.000000
0.000000 0.000000 0.000000
-0.000864 -0.004852 0.000000
-0.004852 0.010117 0.000000
0.000000 0.000000 0.000000
-0.006054 0.003514 0.000000
0.003514 -0.008771 0.000000
0.000000 0.000000 0.000000
-0.005839 0.001569 0.000000
0.001569 0.011481 0.000000
0.000000 0.000000 0.000000
-0.010169 -0.014649 0.000000
-0.014649 -0.001440 0.000000
0.000000 0.000000 0.000000
-0.002442 -0.006328 0.000000
-0.006328 0.002072 0.000000
0.000000 0.000000 0.000000
-0.001683 -0.000011 0.000000
-0.000011 -0.009086 0.000000
0.000000 0.000000 0.000000
-0.017621 -0.017595 0.000000
-0.017595 -0.024747 0.000000
0.000000 0.000000 0.000000
-0.001909 0.011791 0.000000
0.011791 0.003673 0.000000
0.000000 0.000000 0.000000
-0.007000 0.004143 0.000000
0.004143 -0.000426 0.000000
0.000000 0.000000 0.000000
-0.000023 0.000713 0.000000
0.000713 0.003484 0.000000
0.000000 0.000000 0.000000
0.007100 0.011406 0.000000
0.011406 0.026175 0.000000
0.000000 0.000000 0.000000
0.004986 -0.000262 0.000000
-0.000262 0.010982 0.000000
0.000000 0.000000 0.000000
0.012358 -0.011575 0.000000
-0.011575 -0.013150 0.000000
0.000000 0.000000 0.000000
0.010312 -0.005058 0.000000
-0.005058 0.009890 0.000000
0.000000 0.000000 0.000000
-0.010427 -0.004078 0.000000
-0.004078 -0.009176 0.000000
0.000000 0.000000 0.000000
0.013353 0.007022 0.000000
0.007022 0.003094 0.000000
0.000000 0.000000 0.000000
0.004836 0.002959 0.000000
0.002959 -0.000292 0.000000
0.000000 0.000000 0.000000
-0.009543 -0.007787 0.000000
-0.007787 0.003809 0.000000
0.000000 0.000000 0.000000
0.004356 0.003697 0.000000
0.003697 0.009567 0.000000
0.000000 0.000000 0.000000
-0.000396 -0.003517 0.000000
-0.003517 0.007058 0.000000
0.000000 0.000000 0.000000
-0.004047 0.007911 0.000000
0.007911 -0.003041 0.000000
0.000000 0.000000 0.000000
-0.005863 0.005423 0.000000
0.005423 -0.009393 0.000000
0.000000 0.000000 0.000000
-0.006025 0.006040 0.000000
0.006040 -0.002548 0.000000
0.000000 0.000000 0.000000
-0.002220 0.011505 0.000000
0.011505 -0.001357 0.000000
0.000000 0.000000 0.000000
0.008438 0.018328 0.000000
0.018328 0.012758 0.000000
0.000000 0.000000 0.000000
0.002517 0.002083 0.000000
0.002083 -0.009007 0.000000
0.000000 0.000000 0.000000
0.011708 -0.003360 0.000000
-0.003360 -0.010318 0.000000
0.000000 0.000000 0.000000
-0.003825 0.005198 0.000000
0.005198 -0.017410 0.000000
0.000000 0.000000 0.000000
-0.012395 -0.004827 0.000000
-0.004827 -0.003537 0.000000
0.000000 0.000000 0.000000
-0.001938 -0.004857 0.000000
-0.004857 -0.010758 0.000000
0.000000 0.000000 0.000000
-0.010282 -0.003564 0.000000
-0.003564 -0.008264 0.000000
0.000000 0.000000 0.000000
-0.014024 0.003693 0.000000
0.003693 -0.016794 0.000000
0.000000 0.000000 0.000000
0.003677 -0.003674 0.000000
-0.003674 0.000850 0.000000
0.000000 0.000000 0.000000
0.012522 -0.001969 0.000000
-0.001969 -0.010739 0.000000
0.000000 0.000000 0.000000
-0.012048 0.000848 0.000000
0.000848 0.017930 0.000000
0.000000 0.000000 0.000000
-0.017587 -0.000445 0.000000
-0.000445 -0.009987 0.000000
0.000000 0.000000 0.000000
-0.011107 0.005258 0.000000
0.005258 -0.020312 0.000000
0.000000 0.000000 0.000000
-0.010194 0.003966 0.000000
0.003966 -0.000748 0.000000
0.000000 0.000000 0.000000
0.004705 0.001477 0.000000
0.001477 0.003792 0.000000
0.000000 0.000000 0.000000
-0.008676 0.001686 0.000000
0.001686 -0.018850 0.000000
0.000000 0.000000 0.000000
-0.011330 0.006371 0.000000
0.006371 -0.019950 0.000000
0.000000 0.000000 0.000000
0.019752 0.028618 0.000000
0.028618 -0.008146 0.000000
0.000000 0.000000 0.000000
0.006003 -0.002676 0.000000
-0.002676 0.013396 0.000000
0.000000 0.000000 0.000000
-0.003901 -0.003869 0.000000
-0.003869 -0.003544 0.000000
0.000000 0.000000 0.000000
0.001252 -0.005888 0.000000
-0.005888 -0.009273 0.000000
0.000000 0.000000 0.000000
-0.000029 -0.002957 0.000000
-0.002957 -0.009033 0.000000
0.000000 0.000000 0.000000
0.001327 -0.001753 0.000000
-0.001753 -0.018536 0.000000
0.000000 0.000000 0.000000
-0.008008 -0.004157 0.000000
-0.004157 0.001007 0.000000
0.000000 0.000000 0.000000
-0.011485 0.008546 0.000000
0.008546 -0.006954 0.000000
0.000000 0.000000 0.000000
0.011230 -0.002533 0.000000
-0.002533 0.009466 0.000000
0.000000 0.000000 0.000000
0.004864 0.007556 0.000000
0.007556 0.005460 0.000000
0.000000 0.000000 0.000000
0.009905 0.000281 0.000000
0.000281 0.001076 0.000000
0.000000 0.000000 0.000000
0.008731 -0.009291 0.000000
-0.009291 0.011012 0.000000
0.000000 0.000000 0.000000
0.010284 -0.003099 0.000000
-0.003099 -0.001021 0.000000
0.000000 0.000000 0.000000
0.006112 0.002540 0.000000
0.002540 -0.004310 0.000000
0.000000 0.000000 0.000000
-0.000544 -0.000529 0.000000
-0.000529 0.003407 0.000000
0.000000 0.000000 0.000000
-0.006177 0.009829 0.000000
0.009829 0.005488 0.000000
0.000000 0.000000 0.000000
-0.028636 -0.014471 0.000000
-0.014471 -0.017262 0.000000
0.000000 0.000000 0.000000
-0.008157 -0.000485 0.000000
-0.000485 -0.003117 0.000000
0.000000 0.000000 0.000000
-0.013826 -0.000219 0.000000
-0.000219 -0.009546 0.000000
0.000000 0.000000 0.000000
-0.014556 -0.001993 0.000000
-0.001993 -0.016853 0.000000
0.000000 0.000000 0.000000
-0.004195 -0.008461 0.000000
-0.008461 -0.008373 0.000000
0.000000 0.000000 0.000000
0.008060 -0.005578 0.000000
-0.005578 0.014149 0.000000
0.000000 0.000000 0.000000
-0.010557 0.006213 0.000000
0.006213 0.008627 0.000000
0.000000 0.000000 0.000000
0.003620 -0.005578 0.000000
-0.005578 -0.004164 0.000000
0.000000 0.000000 0.000000
-0.012872 -0.008525 0.000000
-0.008525 0.016539 0.000000
0.000000 0.000000 0.000000
0.000506 0.005718 0.000000
0.005718 0.007199 0.000000
0.000000 0.000000 0.000000
-0.008612 -0.004925 0.000000
-0.004925 0.002384 0.000000
0.000000 0.000000 0.000000
0.026871 0.018445 0.000000
0.018445 0.001691 0.000000
0.000000 0.000000 0.000000
-0.001479 -0.000518 0.000000
-0.000518 0.018240 0.000000
0.000000 0.000000 0.000000
-0.001551 -0.001466 0.000000
-0.001466 -0.007577 0.000000
0.000000 0.000000 0.000000
-0.005468 0.001050 0.000000
0.001050 -0.006471 0.000000
0.000000 0.000000 0.000000
-0.005281 -0.003891 0.000000
-0.003891 -0.011461 0.000000
0.000000 0.000000 0.000000
-0.000143 0.001408 0.000000
0.001408 -0.012428 0.000000
0.000000 0.000000 0.000000
0.001791 0.002604 0.000000
0.002604 0.008863 0.000000
0.000000 0.000000 0.000000
0.002167 -0.000342 0.000000
-0.000342 0.002067 0.000000
0.000000 0.000000 0.000000
-0.006026 -0.002202 0.000000
-0.002202 -0.013918 0.000000
0.000000 0.000000 0.000000
0.012238 0.010249 0.000000
0.010249 -0.017651 0.000000
0.000000 0.000000 0.000000
0.006668 0.003867 0.000000
0.003867 -0.018838 0.000000
0.000000 0.000000 0.000000
0.006351 -0.006508 0.000000
-0.006508 0.017053 0.000000
0.000000 0.000000 0.000000
-0.033935 0.042989 0.000000
0.042989 -0.035364 0.000000
0.000000 0.000000 0.000000
-0.006093 -0.005583 0.000000
-0.005583 -0.005682 0.000000
0.000000 0.000000 0.000000
-0.003513 -0.014433 0.000000
-0.014433 0.019821 0.000000
0.000000 0.000000 0.000000
-0.019434 0.002865 0.000000
0.002865 -0.010971 0.000000
0.000000 0.000000 0.000000
-0.006540 -0.000264 0.000000
-0.000264 0.009404 0.000000
0.000000 0.000000 0.000000
0.010300 -0.027015 0.000000
-0.027015 -0.022052 0.000000
0.000000 0.000000 0.000000
0.000843 -0.009526 0.000000
-0.009526 -0.045458 0.000000
0.000000 0.000000 0.000000
0.002287 -0.001780 0.000000
-0.001780 0.010814 0.000000
0.000000 0.000000 0.000000
0.004697 -0.003596 0.000000
-0.003596 0.006627 0.000000
0.000000 0.000000 0.000000
0.000704 0.014406 0.000000
0.014406 -0.015410 0.000000
0.000000 0.000000 0.000000
-0.021055 0.014921 0.000000
0.014921 -0.028026 0.000000
0.000000 0.000000 0.000000
-0.021021 0.010164 0.000000
0.010164 -0.031463 0.000000
0.000000 0.000000 0.000000
0.003582 -0.001884 0.000000
-0.001884 0.001143 0.000000
0.000000 0.000000 0.000000
0.013379 0.007893 0.000000
0.007893 -0.000632 0.000000
0.000000 0.000000 0.000000
0.007498 0.003321 0.000000
0.003321 0.003997 0.000000
0.000000 0.000000 0.000000
-0.014169 0.007072 0.000000
0.007072 0.001055 0.000000
0.000000 0.000000 0.000000
0.013164 0.002593 0.000000
0.002593 -0.006123 0.000000
0.000000 0.000000 0.000000
-0.004760 0.003519 0.000000
0.003519 0.007296 0.000000
0.000000 0.000000 0.000000
0.002700 -0.010225 0.000000
-0.010225 -0.007822 0.000000
0.000000 0.000000 0.000000
0.006563 0.005090 0.000000
0.005090 -0.002597 0.000000
0.000000 0.000000 0.000000
-0.004944 0.000995 0.000000
0.000995 -0.007571 0.000000
0.000000 0.000000 0.000000
-0.000961 -0.002005 0.000000
-0.002005 0.005495 0.000000
0.000000 0.000000 0.000000
-0.001986 -0.001032 0.000000
-0.001032 0.000602 0.000000
0.000000 0.000000 0.000000
0.006921 -0.001381 0.000000
-0.001381 -0.013636 0.000000
0.000000 0.000000 0.000000
0.005300 0.006485 0.000000
0.006485 0.014410 0.000000
0.000000 0.000000 0.000000
0.008857 0.003255 0.000000
0.003255 0.017679 0.000000
0.000000 0.000000 0.000000
-0.007518 0.001002 0.000000
0.001002 0.010570 0.000000
0.000000 0.000000 0.000000
0.003909 0.004957 0.000000
0.004957 0.011290 0.000000
0.000000 0.000000 0.000000
-0.015418 0.006533 0.000000
0.006533 0.016025 0.000000
0.000000 0.000000 0.000000
0.014872 0.001666 0.000000
0.001666 -0.013580 0.000000
0.000000 0.000000 0.000000
-0.001960 -0.005882 0.000000
-0.005882 -0.004066 0.000000
0.000000 0.000000 0.000000
0.005217 0.003908 0.000000
0.003908 0.003440 0.000000
0.000000 0.000000 0.000000
-0.006403 -0.007105 0.000000
-0.007105 -0.027251 0.000000
0.000000 0.000000 0.000000
-0.001840 -0.001424 0.000000
-0.001424 0.005782 0.000000
0.000000 0.000000 0.000000
0.011055 0.001302 0.000000
0.001302 0.010578 0.000000
0.000000 0.000000 0.000000
0.012781 -0.003751 0.000000
-0.003751 0.014004 0.000000
0.000000 0.000000 0.000000
0.000709 -0.002864 0.000000
-0.002864 0.002194 0.000000
0.000000 0.000000 0.000000
0.008082 0.001959 0.000000
0.001959 0.001969 0.000000
0.000000 0.000000 0.000000
0.002563 -0.007078 0.000000
-0.007078 0.008641 0.000000
0.000000 0.000000 0.000000
0.000352 -0.001846 0.000000
-0.001846 -0.002865 0.000000
0.000000 0.000000 0.000000
-0.000777 -0.009435 0.000000
-0.009435 -0.011428 0.000000
0.000000 0.000000 0.000000
-0.010181 -0.000832 0.000000
-0.000832 -0.029063 0.000000
0.000000 0.000000 0.000000
-0.005865 -0.003773 0.000000
-0.003773 0.004701 0.000000
0.000000 0.000000 0.000000
0.001897 0.000307 0.000000
0.000307 -0.001452 0.000000
0.000000 0.000000 0.000000
-0.015096 0.007062 0.000000
0.007062 -0.025360 0.000000
0.000000 0.000000 0.000000
0.019906 0.003086 0.000000
0.003086 0.010573 0.000000
0.000000 0.000000 0.000000
-0.005208 0.003414 0.000000
0.003414 -0.012788 0.000000
0.000000 0.000000 0.000000
0.005615 0.000004 0.000000
0.000004 0.009850 0.000000
0.000000 0.000000 0.000000
-0.011763 -0.006813 0.000000
-0.006813 0.007514 0.000000
0.000000 0.000000 0.000000
0.013648 -0.000179 0.000000
-0.000179 -0.006369 0.000000
0.000000 0.000000 0.000000
-0.014175 0.007278 0.000000
0.007278 -0.003584 0.000000
0.000000 0.000000 0.000000
-0.035456 -0.003152 0.000000
-0.003152 0.013839 0.000000
0.000000 0.000000 0.000000
0.021913 -0.020564 0.000000
-0.020564 -0.013446 0.000000
0.000000 0.000000 0.000000
0.001629 -0.003113 0.000000
-0.003113 0.006787 0.000000
0.000000 0.000000 0.000000
-0.001382 0.001973 0.000000
0.001973 -0.002366 0.000000
0.000000 0.000000 0.000000
-0.010169 -0.006196 0.000000
-0.006196 -0.003687 0.000000
0.000000 0.000000 0.000000
-0.008530 -0.004751 0.000000
-0.004751 0.003980 0.000000
0.000000 0.000000 0.000000
-0.014307 -0.006965 0.000000
-0.006965 0.017697 0.000000
0.000000 0.000000 0.000000
0.009799 -0.005810 0.000000
-0.005810 -0.007490 0.000000
0.000000 0.000000 0.000000
0.005647 -0.007296 0.000000
-0.007296 -0.008430 0.000000
0.000000 0.000000 0.000000
-0.004097 0.002507 0.000000
0.002507 -0.004757 0.000000
0.000000 0.000000 0.000000
0.007527 -0.008580 0.000000
-0.008580 -0.015350 0.000000
0.000000 0.000000 0.000000
-0.010000 -0.006723 0.000000
-0.006723 0.001177 0.000000
0.000000 0.000000 0.000000
0.000246 -0.001771 0.000000
-0.001771 0.010557 0.000000
0.000000 0.000000 0.000000
0.001112 0.000811 0.000000
0.000811 0.014129 0.000000
0.000000 0.000000 0.000000
0.005146 0.002482 0.000000
0.002482 0.016349 0.000000
0.000000 0.000000 0.000000
-0.004978 -0.006862 0.000000
-0.006862 -0.003178 0.000000
0.000000 0.000000 0.000000
-0.005581 -0.008689 0.000000
-0.008689 -0.016957 0.000000
0.000000 0.000000 0.000000
-0.009661 -0.008608 0.000000
-0.008608 -0.002010 0.000000
0.000000 0.000000 0.000000
-0.036719 -0.007497 0.000000
-0.007497 0.003137 0.000000
0.000000 0.000000 0.000000
0.014752 -0.000641 0.000000
-0.000641 0.006689 0.000000
0.000000 0.000000 0.000000
-0.006079 -0.001380 0.000000
-0.001380 0.003192 0.000000
0.000000 0.000000 0.000000
0.003389 -0.003344 0.000000
-0.003344 -0.008397 0.000000
0.000000 0.000000 0.000000
-0.051617 0.003388 0.000000
0.003388 -0.002313 0.000000
0.000000 0.000000 0.000000
-0.000676 -0.009338 0.000000
-0.009338 -0.000839 0.000000
0.000000 0.000000 0.000000
0.018583 -0.001363 0.000000
-0.001363 -0.004216 0.000000
0.000000 0.000000 0.000000
-0.008587 0.010961 0.000000
0.010961 0.010274 0.000000
0.000000 0.000000 0.000000
-0.000698 -0.001012 0.000000
-0.001012 -0.002010 0.000000
0.000000 0.000000 0.000000
-0.015592 0.010226 0.000000
0.010226 -0.014192 0.000000
0.000000 0.000000 0.000000
-0.022348 -0.030873 0.000000
-0.030873 0.024571 0.000000
0.000000 0.000000 0.000000
0.002493 0.001109 0.000000
0.001109 0.001697 0.000000
0.000000 0.000000 0.000000
-0.003035 -0.000876 0.000000
-0.000876 0.010749 0.000000
0.000000 0.000000 0.000000
-0.000464 0.005206 0.000000
0.005206 -0.012535 0.000000
0.000000 0.000000 0.000000
0.004994 -0.001756 0.000000
-0.001756 0.010472 0.000000
0.000000 0.000000 0.000000
0.004346 0.003111 0.000000
0.003111 0.007597 0.000000
0.000000 0.000000 0.000000
-0.001661 -0.000542 0.000000
-0.000542 0.006431 0.000000
0.000000 0.000000 0.000000
0.001619 0.000387 0.000000
0.000387 0.004265 0.000000
0.000000 0.000000 0.000000
0.003857 -0.003100 0.000000
-0.003100 0.002128 0.000000
0.000000 0.000000 0.000000
-0.017043 0.011843 0.000000
0.011843 -0.003206 0.000000
0.000000 0.000000 0.000000
-0.001785 0.005054 0.000000
0.005054 0.007386 0.000000
0.000000 0.000000 0.000000
0.003885 0.001977 0.000000
0.001977 -0.002455 0.000000
0.000000 0.000000 0.000000
0.004762 0.001228 0.000000
0.001228 -0.001775 0.000000
0.000000 0.000000 0.000000
-0.010836 -0.005472 0.000000
-0.005472 0.006574 0.000000
0.000000 0.000000 0.000000
0.008555 -0.000896 0.000000
-0.000896 0.013280 0.000000
0.000000 0.000000 0.000000
0.008337 0.009645 0.000000
0.009645 0.004439 0.000000
0.000000 0.000000 0.000000
-0.011148 0.006405 0.000000
0.006405 -0.015059 0.000000
0.000000 0.000000 0.000000
-0.023954 0.003795 0.000000
0.003795 0.036423 0.000000
0.000000 0.000000 0.000000
0.005601 0.001229 0.000000
0.001229 -0.001734 0.000000
0.000000 0.000000 0.000000
-0.001454 0.004068 0.000000
0.004068 -0.003912 0.000000
0.000000 0.000000 0.000000
0.004492 -0.010659 0.000000
-0.010659 -0.004183 0.000000
0.000000 0.000000 0.000000
-0.005237 0.003663 0.000000
0.003663 -0.007629 0.000000
0.000000 0.000000 0.000000
0.001223 0.003607 0.000000
0.003607 -0.004616 0.000000
0.000000 0.000000 0.000000
0.008092 0.008042 0.000000
0.008042 -0.017661 0.000000
0.000000 0.000000 0.000000
0.020970 0.005671 0.000000
0.005671 -0.012972 0.000000
0.000000 0.000000 0.000000
0.004181 -0.004159 0.000000
-0.004159 -0.009116 0.000000
0.000000 0.000000 0.000000
-0.002241 0.001341 0.000000
0.001341 -0.000027 0.000000
0.000000 0.000000 0.000000
0.013749 0.001646 0.000000
0.001646 -0.010348 0.000000
0.000000 0.000000 0.000000
0.017261 -0.000099 0.000000
-0.000099 0.001818 0.000000
0.000000 0.000000 0.000000
-0.008636 0.001580 0.000000
0.001580 -0.009812 0.000000
0.000000 0.000000 0.000000
0.002640 -0.002900 0.000000
-0.002900 -0.000038 0.000000
0.000000 0.000000 0.000000
0.009307 -0.004815 0.000000
-0.004815 -0.001279 0.000000
0.000000 0.000000 0.000000
0.001887 -0.001192 0.000000
-0.001192 0.000366 0.000000
0.000000 0.000000 0.000000
0.005168 -0.002869 0.000000
-0.002869 0.019744 0.000000
0.000000 0.000000 0.000000
-0.001106 -0.000799 0.000000
-0.000799 -0.007786 0.000000
0.000000 0.000000 0.000000
-0.001826 -0.006452 0.000000
-0.006452 -0.001221 0.000000
0.000000 0.000000 0.000000
-0.004103 0.001652 0.000000
0.001652 -0.007116 0.000000
0.000000 0.000000 0.000000
-0.014146 -0.005378 0.000000
-0.005378 -0.005076 0.000000
0.000000 0.000000 0.000000
0.008316 0.001023 0.000000
0.001023 -0.003125 0.000000
0.000000 0.000000 0.000000
-0.010098 0.007120 0.000000
0.007120 0.007850 0.000000
0.000000 0.000000 0.000000
0.005747 -0.005358 0.000000
-0.005358 -0.005156 0.000000
0.000000 0.000000 0.000000
-0.004646 0.007326 0.000000
0.007326 0.006980 0.000000
0.000000 0.000000 0.000000
0.002696 -0.022617 0.000000
-0.022617 -0.002378 0.000000
0.000000 0.000000 0.000000
-0.007935 0.013108 0.000000
0.013108 -0.002405 0.000000
0.000000 0.000000 0.000000
0.007745 -0.013713 0.000000
-0.013713 -0.003918 0.000000
0.000000 0.000000 0.000000
-0.012516 0.001278 0.000000
0.001278 -0.009137 0.000000
0.000000 0.000000 0.000000
0.021393 -0.001961 0.000000
-0.001961 0.004038 0.000000
0.000000 0.000000 0.000000
0.017256 0.003149 0.000000
0.003149 -0.008293 0.000000
0.000000 0.000000 0.000000
-0.007446 -0.003679 0.000000
-0.003679 -0.002142 0.000000
0.000000 0.000000 0.000000
-0.013788 0.001169 0.000000
0.001169 -0.013388 0.000000
0.000000 0.000000 0.000000
-0.006585 -0.000588 0.000000
-0.000588 -0.006753 0.000000
0.000000 0.000000 0.000000
-0.012203 -0.003230 0.000000
-0.003230 -0.025294 0.000000
0.000000 0.000000 0.000000
0.008934 -0.005235 0.000000
-0.005235 -0.008072 0.000000
0.000000 0.000000 0.000000
0.007065 -0.007441 0.000000
-0.007441 0.002166 0.000000
0.000000 0.000000 0.000000
0.000194 -0.003120 0.000000
-0.003120 -0.001595 0.000000
0.000000 0.000000 0.000000
0.005616 -0.000312 0.000000
-0.000312 -0.000811 0.000000
0.000000 0.000000 0.000000
0.004455 -0.000371 0.000000
-0.000371 0.001275 0.000000
0.000000 0.000000 0.000000
0.009036 -0.007465 0.000000
-0.007465 0.002282 0.000000
0.000000 0.000000 0.000000
0.005249 -0.000397 0.000000
-0.000397 0.010364 0.000000
0.000000 0.000000 0.000000
0.006974 -0.000050 0.000000
-0.000050 0.009683 0.000000
0.000000 0.000000 0.000000
-0.010122 -0.028156 0.000000
-0.028156 0.018408 0.000000
0.000000 0.000000 0.000000
0.007984 -0.002292 0.000000
-0.002292 0.007719 0.000000
0.000000 0.000000 0.000000
0.001331 0.001595 0.000000
0.001595 0.004107 0.000000
0.000000 0.000000 0.000000
-0.016892 0.003103 0.000000
0.003103 -0.005420 0.000000
0.000000 0.000000 0.000000
0.000809 0.013676 0.000000
0.013676 -0.017453 0.000000
0.000000 0.000000 0.000000
-0.003721 0.005026 0.000000
0.005026 0.003560 0.000000
0.000000 0.000000 0.000000
0.004156 0.001135 0.000000
0.001135 0.000733 0.000000
0.000000 0.000000 0.000000
-0.002974 0.002563 0.000000
0.002563 -0.001811 0.000000
0.000000 0.000000 0.000000
0.001493 0.010646 0.000000
0.010646 -0.009928 0.000000
0.000000 0.000000 0.000000
0.003106 0.002875 0.000000
0.002875 -0.003086 0.000000
0.000000 0.000000 0.000000
0.001925 0.000737 0.000000
0.000737 -0.011101 0.000000
0.000000 0.000000 0.000000
0.001689 0.008355 0.000000
0.008355 0.003754 0.000000
0.000000 0.000000 0.000000
-0.003692 0.011309 0.000000
0.011309 -0.007039 0.000000
0.000000 0.000000 0.000000
-0.001543 0.003288 0.000000
0.003288 0.022150 0.000000
0.000000 0.000000 0.000000
0.004386 -0.002898 0.000000
-0.002898 -0.010307 0.000000
0.000000 0.000000 0.000000
0.005850 -0.001280 0.000000
-0.001280 -0.009501 0.000000
0.000000 0.000000 0.000000
0.001686 0.004571 0.000000
0.004571 0.005531 0.000000
0.000000 0.000000 0.000000
0.014063 0.002885 0.000000
0.002885 0.016448 0.000000
0.000000 0.000000 0.000000
-0.001229 0.003812 0.000000
0.003812 -0.012291 0.000000
0.000000 0.000000 0.000000
-0.003328 -0.003239 0.000000
-0.003239 0.001992 0.000000
0.000000 0.000000 0.000000
-0.017602 0.004459 0.000000
0.004459 -0.017338 0.000000
0.000000 0.000000 0.000000
0.010763 0.003183 0.000000
0.003183 -0.002104 0.000000
0.000000 0.000000 0.000000
0.005992 0.016185 0.000000
0.016185 -0.000787 0.000000
0.000000 0.000000 0.000000
-0.008420 -0.002672 0.000000
-0.002672 0.001438 0.000000
0.000000 0.000000 0.000000
-0.012486 0.000077 0.000000
0.000077 -0.006083 0.000000
0.000000 0.000000 0.000000
-0.006914 0.004127 0.000000
0.004127 -0.001774 0.000000
0.000000 0.000000 0.000000
-0.004920 0.001944 0.000000
0.001944 -0.004512 0.000000
0.000000 0.000000 0.000000
0.002761 0.013378 0.000000
0.013378 -0.006729 0.000000
0.000000 0.000000 0.000000
0.021468 0.007761 0.000000
0.007761 0.004693 0.000000
0.000000 0.000000 0.000000
-0.000262 -0.000577 0.000000
-0.000577 0.009972 0.000000
0.000000 0.000000 0.000000
0.015184 -0.016569 0.000000
-0.016569 0.000507 0.000000
0.000000 0.000000 0.000000
-0.004735 0.002264 0.000000
0.002264 0.003217 0.000000
0.000000 0.000000 0.000000
-0.006222 -0.001235 0.000000
-0.001235 -0.005798 0.000000
0.000000 0.000000 0.000000
0.006273 -0.001749 0.000000
-0.001749 0.013564 0.000000
0.000000 0.000000 0.000000
-0.009395 0.000385 0.000000
0.000385 0.004490 0.000000
0.000000 0.000000 0.000000
0.004044 0.006965 0.000000
0.006965 -0.008765 0.000000
0.000000 0.000000 0.000000
-0.003118 -0.000112 0.000000
-0.000112 -0.002698 0.000000
0.000000 0.000000 0.000000
0.017099 0.001576 0.000000
0.001576 -0.001343 0.000000
0.000000 0.000000 0.000000
-0.011053 0.001280 0.000000
0.001280 -0.002867 0.000000
0.000000 0.000000 0.000000
0.010927 -0.001886 0.000000
-0.001886 0.018213 0.000000
0.000000 0.000000 0.000000
-0.009257 -0.001656 0.000000
-0.001656 -0.008425 0.000000
0.000000 0.000000 0.000000
0.013020 -0.002749 0.000000
-0.002749 -0.005532 0.000000
0.000000 0.000000 0.000000
-0.002784 -0.008255 0.000000
-0.008255 -0.000776 0.000000
0.000000 0.000000 0.000000
0.002972 -0.004539 0.000000
-0.004539 0.005629 0.000000
0.000000 0.000000 0.000000
-0.003594 -0.001595 0.000000
-0.001595 -0.020632 0.000000
0.000000 0.000000 0.000000
0.016649 -0.003870 0.000000
-0.003870 0.012979 0.000000
0.000000 0.000000 0.000000
-0.012144 0.003012 0.000000
0.003012 -0.023199 0.000000
0.000000 0.000000 0.000000
-0.009936 0.000071 0.000000
0.000071 -0.023029 0.000000
0.000000 0.000000 0.000000
0.003051 0.005419 0.000000
0.005419 -0.011399 0.000000
0.000000 0.000000 0.000000
-0.000020 -0.005237 0.000000
-0.005237 0.000093 0.000000
0.000000 0.000000 0.000000
0.011966 0.013573 0.000000
0.013573 0.029847 0.000000
0.000000 0.000000 0.000000
-0.000268 -0.000164 0.000000
-0.000164 -0.000625 0.000000
0.000000 0.000000 0.000000
-0.007328 0.007147 0.000000
0.007147 -0.016728 0.000000
0.000000 0.000000 0.000000
-0.003427 0.003687 0.000000
0.003687 0.006695 0.000000
0.000000 0.000000 0.000000
0.010453 0.007554 0.000000
0.007554 -0.007677 0.000000
0.000000 0.000000 0.000000
-0.005220 0.005807 0.000000
0.005807 -0.004558 0.000000
0.000000 0.000000 0.000000
0.001343 -0.000091 0.000000
-0.000091 0.004742 0.000000
0.000000 0.000000 0.000000
0.004771 0.005339 0.000000
0.005339 0.009197 0.000000
0.000000 0.000000 0.000000
0.009501 0.004021 0.000000
0.004021 -0.000269 0.000000
0.000000 0.000000 0.000000
-0.016190 0.005475 0.000000
0.005475 0.004566 0.000000
0.000000 0.000000 0.000000
-0.005050 -0.000814 0.000000
-0.000814 0.014902 0.000000
0.000000 0.000000 0.000000
-0.009931 -0.000209 0.000000
-0.000209 -0.003182 0.000000
0.000000 0.000000 0.000000
0.004439 0.001614 0.000000
0.001614 0.004090 0.000000
0.000000 0.000000 0.000000
-0.008398 0.004288 0.000000
0.004288 0.005078 0.000000
0.000000 0.000000 0.000000
0.006056 -0.005830 0.000000
-0.005830 -0.001568 0.000000
0.000000 0.000000 0.000000
-0.003671 0.003649 0.000000
0.003649 -0.001696 0.000000
0.000000 0.000000 0.000000
-0.010887 0.005654 0.000000
0.005654 -0.005715 0.000000
0.000000 0.000000 0.000000
-0.011417 -0.013360 0.000000
-0.013360 0.028918 0.000000
0.000000 0.000000 0.000000
-0.027272 -0.018292 0.000000
-0.018292 0.021945 0.000000
0.000000 0.000000 0.000000
-0.006103 -0.003287 0.000000
-0.003287 -0.017894 0.000000
0.000000 0.000000 0.000000
0.010423 -0.006788 0.000000
-0.006788 0.023171 0.000000
0.000000 0.000000 0.000000
-0.001148 0.000719 0.000000
0.000719 0.000581 0.000000
0.000000 0.000000 0.000000
0.008536 0.002885 0.000000
0.002885 0.009137 0.000000
0.000000 0.000000 0.000000
-0.014827 -0.003483 0.000000
-0.003483 -0.017875 0.000000
0.000000 0.000000 0.000000
0.013485 0.010243 0.000000
0.010243 -0.010830 0.000000
0.000000 0.000000 0.000000
-0.009281 0.001745 0.000000
0.001745 -0.006960 0.000000
0.000000 0.000000 0.000000
-0.003106 0.015949 0.000000
0.015949 -0.005436 0.000000
0.000000 0.000000 0.000000
-0.006565 -0.004507 0.000000
-0.004507 -0.013662 0.000000
0.000000 0.000000 0.000000
0.013172 0.007289 0.000000
0.007289 0.025761 0.000000
0.000000 0.000000 0.000000
0.006526 -0.007969 0.000000
-0.007969 -0.001282 0.000000
0.000000 0.000000 0.000000
-0.003562 0.016467 0.000000
0.016467 -0.003688 0.000000
0.000000 0.000000 0.000000
0.016488 0.003819 0.000000
0.003819 -0.016550 0.000000
0.000000 0.000000 0.000000
0.016558 0.004522 0.000000
0.004522 0.034522 0.000000
0.000000 0.000000 0.000000
-0.004324 0.004353 0.000000
0.004353 -0.011472 0.000000
0.000000 0.000000 0.000000
-0.024032 -0.000683 0.000000
-0.000683 0.005170 0.000000
0.000000 0.000000 0.000000
0.005492 0.011983 0.000000
0.011983 0.024408 0.000000
0.000000 0.000000 0.000000
-0.027899 -0.002128 0.000000
-0.002128 -0.013686 0.000000
0.000000 0.000000 0.000000
-0.005669 0.004691 0.000000
0.004691 0.002984 0.000000
0.000000 0.000000 0.000000
-0.004836 0.002642 0.000000
0.002642 -0.010119 0.000000
0.000000 0.000000 0.000000
-0.000781 0.003581 0.000000
0.003581 -0.007237 0.000000
0.000000 0.000000 0.000000
0.004541 0.000518 0.000000
0.000518 0.009765 0.000000
0.000000 0.000000 0.000000
0.013859 0.013960 0.000000
0.013960 0.027413 0.000000
0.000000 0.000000 0.000000
-0.002062 -0.003481 0.000000
-0.003481 0.005271 0.000000
0.000000 0.000000 0.000000
-0.001924 -0.002772 0.000000
-0.002772 -0.000318 0.000000
0.000000 0.000000 0.000000
-0.000309 -0.000771 0.000000
-0.000771 -0.007929 0.000000
0.000000 0.000000 0.000000
0.011863 -0.005036 0.000000
-0.005036 0.013664 0.000000
0.000000 0.000000 0.000000
-0.004824 0.001348 0.000000
0.001348 -0.007095 0.000000
0.000000 0.000000 0.000000
0.001431 -0.012406 0.000000
-0.012406 -0.005349 0.000000
0.000000 0.000000 0.000000
-0.008552 0.001687 0.000000
0.001687 -0.021572 0.000000
0.000000 0.000000 0.000000
-0.012429 -0.001268 0.000000
-0.001268 -0.026984 0.000000
0.000000 0.000000 0.000000
-0.023863 0.004420 0.000000
0.004420 0.003919 0.000000
0.000000 0.000000 0.000000
0.000422 0.007253 0.000000
0.007253 0.001644 0.000000
0.000000 0.000000 0.000000
-0.006770 -0.010074 0.000000
-0.010074 0.012142 0.000000
0.000000 0.000000 0.000000
-0.001876 -0.004167 0.000000
-0.004167 0.007388 0.000000
0.000000 0.000000 0.000000
0.001337 0.009771 0.000000
0.009771 0.015447 0.000000
0.000000 0.000000 0.000000
0.007807 0.004415 0.000000
0.004415 0.006111 0.000000
0.000000 0.000000 0.000000
0.003741 0.005886 0.000000
0.005886 0.017221 0.000000
0.000000 0.000000 0.000000
-0.004509 0.006374 0.000000
0.006374 0.006401 0.000000
0.000000 0.000000 0.000000
0.027425 0.019056 0.000000
0.019056 0.001963 0.000000
0.000000 0.000000 0.000000
0.015905 -0.008856 0.000000
-0.008856 0.006214 0.000000
0.000000 0.000000 0.000000
-0.008532 0.006234 0.000000
0.006234 -0.009131 0.000000
0.000000 0.000000 0.000000
-0.005000 -0.004730 0.000000
-0.004730 -0.007059 0.000000
0.000000 0.000000 0.000000
-0.000022 -0.007829 0.000000
-0.007829 -0.002962 0.000000
0.000000 0.000000 0.000000
-0.019191 -0.007673 0.000000
-0.007673 -0.006873 0.000000
0.000000 0.000000 0.000000
-0.014893 -0.004943 0.000000
-0.004943 0.001687 0.000000
0.000000 0.000000 0.000000
0.001109 -0.004249 0.000000
-0.004249 0.003986 0.000000
0.000000 0.000000 0.000000
0.004264 0.004975 0.000000
0.004975 0.001534 0.000000
0.000000 0.000000 0.000000
-0.007946 0.012226 0.000000
0.012226 0.001705 0.000000
0.000000 0.000000 0.000000
-0.000193 -0.003635 0.000000
-0.003635 0.008161 0.000000
0.000000 0.000000 0.000000
-0.005710 -0.000586 0.000000
-0.000586 0.005406 0.000000
0.000000 0.000000 0.000000
-0.012632 0.002657 0.000000
0.002657 0.005575 0.000000
0.000000 0.000000 0.000000
0.000215 0.002387 0.000000
0.002387 0.002428 0.000000
0.000000 0.000000 0.000000
0.003609 -0.002126 0.000000
-0.002126 0.014132 0.000000
0.000000 0.000000 0.000000
-0.017086 -0.003473 0.000000
-0.003473 0.017539 0.000000
0.000000 0.000000 0.000000
-0.022653 0.000806 0.000000
0.000806 -0.004272 0.000000
0.000000 0.000000 0.000000
-0.001751 0.005763 0.000000
0.005763 0.015409 0.000000
0.000000 0.000000 0.000000
-0.026707 -0.008720 0.000000
-0.008720 -0.003083 0.000000
0.000000 0.000000 0.000000
-0.004900 0.011142 0.000000
0.011142 -0.030890 0.000000
0.000000 0.000000 0.000000
-0.002189 0.005343 0.000000
0.005343 -0.007305 0.000000
0.000000 0.000000 0.000000
0.002668 -0.006565 0.000000
-0.006565 -0.000012 0.000000
0.000000 0.000000 0.000000
-0.007748 0.006520 0.000000
0.006520 -0.003376 0.000000
0.000000 0.000000 0.000000
-0.002073 0.000735 0.000000
0.000735 0.003486 0.000000
0.000000 0.000000 0.000000
0.009871 -0.006749 0.000000
-0.006749 0.016218 0.000000
0.000000 0.000000 0.000000
-0.019484 0.013809 0.000000
0.013809 -0.041234 0.000000
0.000000 0.000000 0.000000
-0.001113 0.003677 0.000000
0.003677 0.010594 0.000000
0.000000 0.000000 0.000000
-0.003233 -0.002878 0.000000
-0.002878 -0.013159 0.000000
0.000000 0.000000 0.000000
0.004705 -0.003173 0.000000
-0.003173 0.009042 0.000000
0.000000 0.000000 0.000000
0.002296 -0.001739 0.000000
-0.001739 -0.001359 0.000000
0.000000 0.000000 0.000000
0.015979 -0.006791 0.000000
-0.006791 0.015679 0.000000
0.000000 0.000000 0.000000
0.009851 -0.001288 0.000000
-0.001288 0.007800 0.000000
0.000000 0.000000 0.000000
-0.005995 -0.000505 0.000000
-0.000505 -0.002765 0.000000
0.000000 0.000000 0.000000
0.013848 -0.011824 0.000000
-0.011824 0.001314 0.000000
0.000000 0.000000 0.000000
0.009920 0.005729 0.000000
0.005729 -0.000105 0.000000
0.000000 0.000000 0.000000
0.006317 0.000306 0.000000
0.000306 0.001767 0.000000
0.000000 0.000000 0.000000
0.023055 0.015064 0.000000
0.015064 -0.000627 0.000000
0.000000 0.000000 0.000000
0.024419 0.016501 0.000000
0.016501 0.002550 0.000000
0.000000 0.000000 0.000000
0.027700 0.012266 0.000000
0.012266 0.013009 0.000000
0.000000 0.000000 0.000000
0.001840 -0.000110 0.000000
-0.000110 0.016030 0.000000
0.000000 0.000000 0.000000
0.008284 0.010980 0.000000
0.010980 -0.001218 0.000000
0.000000 0.000000 0.000000
-0.002697 0.002348 0.000000
0.002348 0.020012 0.000000
0.000000 0.000000 0.000000
0.023924 0.017028 0.000000
0.017028 0.009097 0.000000
0.000000 0.000000 0.000000
0.007539 0.001345 0.000000
0.001345 0.007677 0.000000
0.000000 0.000000 0.000000
0.014632 -0.009490 0.000000
-0.009490 0.017871 0.000000
0.000000 0.000000 0.000000
0.004722 -0.001311 0.000000
-0.001311 0.004073 0.000000
0.000000 0.000000 0.000000
0.011355 -0.001448 0.000000
-0.001448 0.001960 0.000000
0.000000 0.000000 0.000000
-0.001862 -0.011209 0.000000
-0.011209 0.000152 0.000000
0.000000 0.000000 0.000000
0.013176 0.002956 0.000000
0.002956 -0.000122 0.000000
0.000000 0.000000 0.000000
0.004316 0.004311 0.000000
0.004311 0.001887 0.000000
0.000000 0.000000 0.000000
0.010828 0.004322 0.000000
0.004322 0.000512 0.000000
0.000000 0.000000 0.000000
0.007339 -0.007255 0.000000
-0.007255 0.006614 0.000000
0.000000 0.000000 0.000000
0.008307 0.000359 0.000000
0.000359 -0.009019 0.000000
0.000000 0.000000 0.000000
-0.001323 -0.000501 0.000000
-0.000501 0.009497 0.000000
0.000000 0.000000 0.000000
-0.007058 -0.003848 0.000000
-0.003848 -0.013892 0.000000
0.000000 0.000000 0.000000
-0.007753 -0.005448 0.000000
-0.005448 0.006027 0.000000
0.000000 0.000000 0.000000
-0.001276 -0.001991 0.000000
-0.001991 -0.002045 0.000000
0.000000 0.000000 0.000000
0.018327 -0.011694 0.000000
-0.011694 0.040813 0.000000
0.000000 0.000000 0.000000
0.000334 -0.003022 0.000000
-0.003022 -0.007771 0.000000
0.000000 0.000000 0.000000
0.025808 -0.031805 0.000000
-0.031805 0.004590 0.000000
0.000000 0.000000 0.000000
0.028344 -0.021020 0.000000
-0.021020 -0.016170 0.000000
0.000000 0.000000 0.000000
-0.003302 -0.006069 0.000000
-0.006069 0.002394 0.000000
0.000000 0.000000 0.000000
0.000257 0.000985 0.000000
0.000985 0.005760 0.000000
0.000000 0.000000 0.000000
-0.011237 -0.000009 0.000000
-0.000009 0.003688 0.000000
0.000000 0.000000 0.000000
-0.011882 0.000867 0.000000
0.000867 0.012510 0.000000
0.000000 0.000000 0.000000
0.004873 0.002387 0.000000
0.002387 0.011354 0.000000
0.000000 0.000000 0.000000
-0.000305 -0.001343 0.000000
-0.001343 0.004768 0.000000
0.000000 0.000000 0.000000
-0.003185 -0.004941 0.000000
-0.004941 -0.027970 0.000000
0.000000 0.000000 0.000000
-0.025225 0.015369 0.000000
0.015369 -0.051396 0.000000
0.000000 0.000000 0.000000
0.013522 -0.002268 0.000000
-0.002268 0.015393 0.000000
0.000000 0.000000 0.000000
0.018828 -0.010664 0.000000
-0.010664 0.046584 0.000000
0.000000 0.000000 0.000000
-0.017347 0.008762 0.000000
0.008762 -0.005385 0.000000
0.000000 0.000000 0.000000
-0.006377 0.005205 0.000000
0.005205 -0.008065 0.000000
0.000000 0.000000 0.000000
-0.008770 -0.001526 0.000000
-0.001526 -0.013519 0.000000
0.000000 0.000000 0.000000
-0.003285 -0.000234 0.000000
-0.000234 -0.003644 0.000000
0.000000 0.000000 0.000000
-0.007532 -0.008373 0.000000
-0.008373 -0.008365 0.000000
0.000000 0.000000 0.000000
-0.014262 0.018582 0.000000
0.018582 -0.022609 0.000000
0.000000 0.000000 0.000000
-0.012748 -0.003407 0.000000
-0.003407 -0.016333 0.000000
0.000000 0.000000 0.000000
0.016077 0.005771 0.000000
0.005771 0.034969 0.000000
0.000000 0.000000 0.000000
-0.013739 -0.005841 0.000000
-0.005841 0.003417 0.000000
0.000000 0.000000 0.000000
0.000940 -0.008279 0.000000
-0.008279 0.005271 0.000000
0.000000 0.000000 0.000000
0.007581 -0.000339 0.000000
-0.000339 -0.004396 0.000000
0.000000 0.000000 0.000000
-0.007236 -0.002163 0.000000
-0.002163 0.005392 0.000000
0.000000 0.000000 0.000000
-0.010402 -0.011392 0.000000
-0.011392 0.004967 0.000000
0.000000 0.000000 0.000000
-0.017029 0.006583 0.000000
0.006583 0.000869 0.000000
0.000000 0.000000 0.000000
0.000871 0.000639 0.000000
0.000639 -0.004663 0.000000
0.000000 0.000000 0.000000
-0.011858 -0.009436 0.000000
-0.009436 -0.009994 0.000000
0.000000 0.000000 0.000000
-0.007435 0.001303 0.000000
0.001303 0.007237 0.000000
0.000000 0.000000 0.000000
0.009473 -0.032092 0.000000
-0.032092 0.004517 0.000000
0.000000 0.000000 0.000000
0.001991 -0.001575 0.000000
-0.001575 0.002082 0.000000
0.000000 0.000000 0.000000
0.018731 -0.001529 0.000000
-0.001529 0.016857 0.000000
0.000000 0.000000 0.000000
-0.001974 0.009895 0.000000
0.009895 -0.014895 0.000000
0.000000 0.000000 0.000000
-0.020512 0.003003 0.000000
0.003003 -0.013479 0.000000
0.000000 0.000000 0.000000
-0.002188 0.008464 0.000000
0.008464 0.003222 0.000000
0.000000 0.000000 0.000000
-0.007001 -0.005507 0.000000
-0.005507 0.013460 0.000000
0.000000 0.000000 0.000000
0.011885 -0.010611 0.000000
-0.010611 0.016148 0.000000
0.000000 0.000000 0.000000
0.020590 -0.007629 0.000000
-0.007629 0.020327 0.000000
0.000000 0.000000 0.000000
-0.000876 0.003409 0.000000
0.003409 -0.000565 0.000000
0.000000 0.000000 0.000000
0.009963 0.002800 0.000000
0.002800 0.002410 0.000000
0.000000 0.000000 0.000000
0.001729 0.008140 0.000000
0.008140 0.008365 0.000000
0.000000 0.000000 0.000000
0.012158 -0.003425 0.000000
-0.003425 0.015405 0.000000
0.000000 0.000000 0.000000
-0.000800 -0.004628 0.000000
-0.004628 -0.009693 0.000000
0.000000 0.000000 0.000000
-0.000402 -0.004732 0.000000
-0.004732 -0.012695 0.000000
0.000000 0.000000 0.000000
-0.002246 -0.002079 0.000000
-0.002079 -0.013506 0.000000
0.000000 0.000000 0.000000
-0.008212 0.006388 0.000000
0.006388 0.000505 0.000000
0.000000 0.000000 0.000000
0.002587 -0.000499 0.000000
-0.000499 0.001642 0.000000
0.000000 0.000000 0.000000
-0.000888 -0.000241 0.000000
-0.000241 0.013112 0.000000
0.000000 0.000000 0.000000
-0.005253 -0.001592 0.000000
-0.001592 0.017646 0.000000
0.000000 0.000000 0.000000
-0.001767 -0.005791 0.000000
-0.005791 0.007409 0.000000
0.000000 0.000000 0.000000
-0.004963 0.002752 0.000000
0.002752 0.025239 0.000000
0.000000 0.000000 0.000000
0.008120 -0.005156 0.000000
-0.005156 0.022013 0.000000
0.000000 0.000000 0.000000
-0.009465 -0.007774 0.000000
-0.007774 -0.005995 0.000000
0.000000 0.000000 0.000000
0.003966 0.002966 0.000000
0.002966 0.002167 0.000000
0.000000 0.000000 0.000000
-0.005823 0.005076 0.000000
0.005076 0.010275 0.000000
0.000000 0.000000 0.000000
-0.001434 0.003779 0.000000
0.003779 0.008065 0.000000
0.000000 0.000000 0.000000
0.002223 0.000471 0.000000
0.000471 -0.004238 0.000000
0.000000 0.000000 0.000000
-0.000213 0.000977 0.000000
0.000977 0.005290 0.000000
0.000000 0.000000 0.000000
-0.009433 0.003848 0.000000
0.003848 0.003128 0.000000
0.000000 0.000000 0.000000
0.008627 -0.004933 0.000000
-0.004933 0.002578 0.000000
0.000000 0.000000 0.000000
0.014923 -0.009422 0.000000
-0.009422 0.021547 0.000000
0.000000 0.000000 0.000000
0.006758 -0.017846 0.000000
-0.017846 -0.011355 0.000000
0.000000 0.000000 0.000000
-0.000191 0.010156 0.000000
0.010156 -0.016366 0.000000
0.000000 0.000000 0.000000
-0.005345 0.005464 0.000000
0.005464 -0.001427 0.000000
0.000000 0.000000 0.000000
0.003008 0.011028 0.000000
0.011028 -0.009281 0.000000
0.000000 0.000000 0.000000
-0.016932 0.003120 0.000000
0.003120 -0.020638 0.000000
0.000000 0.000000 0.000000
0.018105 -0.002633 0.000000
-0.002633 -0.000799 0.000000
0.000000 0.000000 0.000000
0.001260 -0.005810 0.000000
-0.005810 0.006021 0.000000
0.000000 0.000000 0.000000
-0.003778 0.000471 0.000000
0.000471 -0.017637 0.000000
0.000000 0.000000 0.000000
0.008577 -0.007404 0.000000
-0.007404 0.021506 0.000000
0.000000 0.000000 0.000000
-0.013382 -0.005932 0.000000
-0.005932 -0.005031 0.000000
0.000000 0.000000 0.000000
-0.014476 -0.003042 0.000000
-0.003042 0.001215 0.000000
0.000000 0.000000 0.000000
0.000926 0.039215 0.000000
0.039215 -0.001452 0.000000
0.000000 0.000000 0.000000
0.003839 -0.001807 0.000000
-0.001807 0.003395 0.000000
0.000000 0.000000 0.000000
0.003776 0.008242 0.000000
0.008242 -0.004717 0.000000
0.000000 0.000000 0.000000
0.002721 0.002100 0.000000
0.002100 -0.005510 0.000000
0.000000 0.000000 0.000000
0.002156 -0.004290 0.000000
-0.004290 0.001312 0.000000
0.000000 0.000000 0.000000
-0.005073 0.008580 0.000000
0.008580 -0.019753 0.000000
0.000000 0.000000 0.000000
0.015271 -0.004590 0.000000
-0.004590 -0.016095 0.000000
0.000000 0.000000 0.000000
-0.011394 -0.008128 0.000000
-0.008128 -0.021115 0.000000
0.000000 0.000000 0.000000
0.005210 0.000180 0.000000
0.000180 0.000021 0.000000
0.000000 0.000000 0.000000
-0.022466 -0.008650 0.000000
-0.008650 -0.002555 0.000000
0.000000 0.000000 0.000000
-0.011233 0.001191 0.000000
0.001191 0.009380 0.000000
0.000000 0.000000 0.000000
-0.007687 0.003593 0.000000
0.003593 -0.005233 0.000000
0.000000 0.000000 0.000000
-0.008258 0.002301 0.000000
0.002301 -0.008657 0.000000
0.000000 0.000000 0.000000
0.000531 -0.001713 0.000000
-0.001713 -0.004299 0.000000
0.000000 0.000000 0.000000
0.015856 -0.003468 0.000000
-0.003468 0.003759 0.000000
0.000000 0.000000 0.000000
-0.004454 -0.000811 0.000000
-0.000811 0.007914 0.000000
0.000000 0.000000 0.000000
0.012832 -0.002748 0.000000
-0.002748 0.001763 0.000000
0.000000 0.000000 0.000000
-0.016104 -0.004919 0.000000
-0.004919 0.015851 0.000000
0.000000 0.000000 0.000000
0.018317 -0.001040 0.000000
-0.001040 -0.005114 0.000000
0.000000 0.000000 0.000000
-0.008495 -0.002424 0.000000
-0.002424 -0.007184 0.000000
0.000000 0.000000 0.000000
0.011592 0.002136 0.000000
0.002136 -0.004353 0.000000
0.000000 0.000000 0.000000
-0.003708 0.000605 0.000000
0.000605 0.004244 0.000000
0.000000 0.000000 0.000000
0.012129 -0.007843 0.000000
-0.007843 0.003607 0.000000
0.000000 0.000000 0.000000
-0.015319 0.008858 0.000000
0.008858 -0.017793 0.000000
0.000000 0.000000 0.000000
0.007209 -0.005732 0.000000
-0.005732 -0.005777 0.000000
0.000000 0.000000 0.000000
0.016558 0.012024 0.000000
0.012024 0.001440 0.000000
0.000000 0.000000 0.000000
-0.002829 0.001357 0.000000
0.001357 -0.006523 0.000000
0.000000 0.000000 0.000000
0.003463 -0.000211 0.000000
-0.000211 0.003898 0.000000
0.000000 0.000000 0.000000
0.009932 -0.001614 0.000000
-0.001614 0.021741 0.000000
0.000000 0.000000 0.000000
-0.000356 -0.000778 0.000000
-0.000778 -0.003601 0.000000
0.000000 0.000000 0.000000
0.005463 0.005851 0.000000
0.005851 -0.000117 0.000000
0.000000 0.000000 0.000000
0.002001 0.018496 0.000000
0.018496 0.007419 0.000000
0.000000 0.000000 0.000000
-0.000258 -0.002129 0.000000
-0.002129 0.015163 0.000000
0.000000 0.000000 0.000000
0.000992 0.002726 0.000000
0.002726 0.001882 0.000000
0.000000 0.000000 0.000000
-0.013475 0.008238 0.000000
0.008238 -0.023728 0.000000
0.000000 0.000000 0.000000
0.018540 -0.003261 0.000000
-0.003261 -0.004728 0.000000
0.000000 0.000000 0.000000
-0.006333 -0.005624 0.000000
-0.005624 -0.023365 0.000000
0.000000 0.000000 0.000000
0.001246 0.000506 0.000000
0.000506 0.004670 0.000000
0.000000 0.000000 0.000000
-0.007228 -0.006960 0.000000
-0.006960 0.001099 0.000000
0.000000 0.000000 0.000000
-0.006271 -0.005432 0.000000
-0.005432 0.002326 0.000000
0.000000 0.000000 0.000000
0.010297 -0.017453 0.000000
-0.017453 -0.035616 0.000000
0.000000 0.000000 0.000000
0.003199 0.003694 0.000000
0.003694 0.007850 0.000000
0.000000 0.000000 0.000000
-0.001428 -0.026946 0.000000
-0.026946 -0.004066 0.000000
0.000000 0.000000 0.000000
0.007850 -0.018368 0.000000
-0.018368 0.000282 0.000000
0.000000 0.000000 0.000000
-0.010826 0.004813 0.000000
0.004813 -0.012390 0.000000
0.000000 0.000000 0.000000
0.007560 0.019737 0.000000
0.019737 -0.002299 0.000000
0.000000 0.000000 0.000000
-0.023490 0.002182 0.000000
0.002182 0.014550 0.000000
0.000000 0.000000 0.000000
0.001272 0.000772 0.000000
0.000772 -0.003777 0.000000
0.000000 0.000000 0.000000
-0.001478 -0.009239 0.000000
-0.009239 0.029842 0.000000
0.000000 0.000000 0.000000
-0.009283 -0.000710 0.000000
-0.000710 -0.004372 0.000000
0.000000 0.000000 0.000000
-0.007931 0.000788 0.000000
0.000788 -0.005420 0.000000
0.000000 0.000000 0.000000
-0.009120 -0.008063 0.000000
-0.008063 0.001703 0.000000
0.000000 0.000000 0.000000
-0.001623 0.001164 0.000000
0.001164 -0.002181 0.000000
0.000000 0.000000 0.000000
-0.013812 -0.003004 0.000000
-0.003004 -0.008475 0.000000
0.000000 0.000000 0.000000
0.010949 0.008592 0.000000
0.008592 -0.016859 0.000000
0.000000 0.000000 0.000000
-0.008272 -0.018231 0.000000
-0.018231 0.017441 0.000000
0.000000 0.000000 0.000000
-0.013877 0.007985 0.000000
0.007985 -0.004644 0.000000
0.000000 0.000000 0.000000
0.014147 -0.041987 0.000000
-0.041987 0.027818 0.000000
0.000000 0.000000 0.000000
0.020663 -0.038199 0.000000
-0.038199 0.035356 0.000000
0.000000 0.000000 0.000000
0.007819 -0.001797 0.000000
-0.001797 -0.004267 0.000000
0.000000 0.000000 0.000000
0.001382 -0.003601 0.000000
-0.003601 -0.005728 0.000000
0.000000 0.000000 0.000000
0.003565 0.000234 0.000000
0.000234 -0.007698 0.000000
0.000000 0.000000 0.000000
0.010552 0.000230 0.000000
0.000230 0.030026 0.000000
0.000000 0.000000 0.000000
0.004662 -0.000687 0.000000
-0.000687 0.002933 0.000000
0.000000 0.000000 0.000000
0.006643 0.000185 0.000000
0.000185 0.030767 0.000000
0.000000 0.000000 0.000000
-0.000934 0.005954 0.000000
0.005954 -0.002860 0.000000
0.000000 0.000000 0.000000
-0.008469 0.000561 0.000000
0.000561 -0.008642 0.000000
0.000000 0.000000 0.000000
0.001926 0.005234 0.000000
0.005234 -0.001675 0.000000
0.000000 0.000000 0.000000
0.008989 -0.005335 0.000000
-0.005335 0.016532 0.000000
0.000000 0.000000 0.000000
-0.002257 0.005297 0.000000
0.005297 -0.002191 0.000000
0.000000 0.000000 0.000000
-0.004063 -0.017093 0.000000
-0.017093 0.001041 0.000000
0.000000 0.000000 0.000000
0.003009 0.005921 0.000000
0.005921 -0.006217 0.000000
0.000000 0.000000 0.000000
0.010810 -0.004519 0.000000
-0.004519 0.031392 0.000000
0.000000 0.000000 0.000000
-0.001189 0.000794 0.000000
0.000794 0.000205 0.000000
0.000000 0.000000 0.000000
0.012182 0.008351 0.000000
0.008351 0.004358 0.000000
0.000000 0.000000 0.000000
0.006494 0.006927 0.000000
0.006927 -0.007675 0.000000
0.000000 0.000000 0.000000
0.009923 0.004397 0.000000
0.004397 0.006898 0.000000
0.000000 0.000000 0.000000
-0.000537 0.002242 0.000000
0.002242 0.005550 0.000000
0.000000 0.000000 0.000000
0.014033 -0.012983 0.000000
-0.012983 -0.020238 0.000000
0.000000 0.000000 0.000000
0.004978 0.005982 0.000000
0.005982 -0.007305 0.000000
0.000000 0.000000 0.000000
0.007608 -0.033427 0.000000
-0.033427 0.019511 0.000000
0.000000 0.000000 0.000000
0.019089 0.004088 0.000000
0.004088 0.008263 0.000000
0.000000 0.000000 0.000000
-0.007366 0.001908 0.000000
0.001908 -0.035614 0.000000
0.000000 0.000000 0.000000
0.000005 0.002079 0.000000
0.002079 -0.002897 0.000000
0.000000 0.000000 0.000000
0.009772 -0.005197 0.000000
-0.005197 0.000497 0.000000
0.000000 0.000000 0.000000
-0.008220 0.003510 0.000000
0.003510 -0.016437 0.000000
0.000000 0.000000 0.000000
-0.003713 -0.004227 0.000000
-0.004227 -0.007209 0.000000
0.000000 0.000000 0.000000
0.011256 0.001485 0.000000
0.001485 0.008576 0.000000
0.000000 0.000000 0.000000
-0.000288 0.001982 0.000000
0.001982 -0.012943 0.000000
0.000000 0.000000 0.000000
0.030044 0.020239 0.000000
0.020239 -0.003918 0.000000
0.000000 0.000000 0.000000
0.011528 0.001073 0.000000
0.001073 0.026044 0.000000
0.000000 0.000000 0.000000
0.002737 0.003047 0.000000
0.003047 0.007629 0.000000
0.000000 0.000000 0.000000
-0.021677 0.007140 0.000000
0.007140 -0.026355 0.000000
0.000000 0.000000 0.000000
-0.009693 0.010156 0.000000
0.010156 -0.001701 0.000000
0.000000 0.000000 0.000000
0.009259 -0.000296 0.000000
-0.000296 -0.024664 0.000000
0.000000 0.000000 0.000000
-0.015817 0.001799 0.000000
0.001799 0.002456 0.000000
0.000000 0.000000 0.000000
-0.006160 0.009402 0.000000
0.009402 -0.002427 0.000000
0.000000 0.000000 0.000000
0.001527 -0.009372 0.000000
-0.009372 -0.012898 0.000000
0.000000 0.000000 0.000000
-0.002420 0.001084 0.000000
0.001084 0.003580 0.000000
0.000000 0.000000 0.000000
0.008882 -0.006436 0.000000
-0.006436 -0.008588 0.000000
0.000000 0.000000 0.000000
0.013562 0.000067 0.000000
0.000067 0.004643 0.000000
0.000000 0.000000 0.000000
-0.007087 -0.012352 0.000000
-0.012352 0.003777 0.000000
0.000000 0.000000 0.000000
0.012760 -0.015484 0.000000
-0.015484 0.002592 0.000000
0.000000 0.000000 0.000000
-0.011552 -0.007763 0.000000
-0.007763 0.004905 0.000000
0.000000 0.000000 0.000000
0.008935 -0.006307 0.000000
-0.006307 -0.005024 0.000000
0.000000 0.000000 0.000000
-0.050987 0.042246 0.000000
0.042246 -0.008371 0.000000
0.000000 0.000000 0.000000
-0.013559 0.010649 0.000000
0.010649 -0.004042 0.000000
0.000000 0.000000 0.000000
0.006631 -0.002915 0.000000
-0.002915 0.045266 0.000000
0.000000 0.000000 0.000000
-0.017289 -0.001967 0.000000
-0.001967 -0.032695 0.000000
0.000000 0.000000 0.000000
-0.008279 -0.004726 0.000000
-0.004726 -0.003405 0.000000
0.000000 0.000000 0.000000
0.003341 0.003500 0.000000
0.003500 -0.006123 0.000000
0.000000 0.000000 0.000000
-0.012099 -0.009157 0.000000
-0.009157 -0.015978 0.000000
0.000000 0.000000 0.000000
-0.015208 -0.002272 0.000000
-0.002272 -0.029733 0.000000
0.000000 0.000000 0.000000
0.010935 -0.006560 0.000000
-0.006560 0.002461 0.000000
0.000000 0.000000 0.000000
0.008993 0.001743 0.000000
0.001743 -0.003366 0.000000
0.000000 0.000000 0.000000
0.024255 -0.028012 0.000000
-0.028012 0.003282 0.000000
0.000000 0.000000 0.000000
0.015977 0.008064 0.000000
0.008064 0.026683 0.000000
0.000000 0.000000 0.000000
0.003945 0.000646 0.000000
0.000646 -0.002683 0.000000
0.000000 0.000000 0.000000
0.017654 -0.001346 0.000000
-0.001346 0.003428 0.000000
0.000000 0.000000 0.000000
-0.020551 -0.017242 0.000000
-0.017242 -0.015181 0.000000
0.000000 0.000000 0.000000
0.002459 -0.000612 0.000000
-0.000612 0.005376 0.000000
0.000000 0.000000 0.000000
0.003235 -0.000512 0.000000
-0.000512 0.005615 0.000000
0.000000 0.000000 0.000000
0.000202 -0.000935 0.000000
-0.000935 0.004516 0.000000
0.000000 0.000000 0.000000
0.007599 -0.000698 0.000000
-0.000698 0.004939 0.000000
0.000000 0.000000 0.000000
0.000562 -0.000004 0.000000
-0.000004 -0.004442 0.000000
0.000000 0.000000 0.000000
0.009420 0.011282 0.000000
0.011282 0.028015 0.000000
0.000000 0.000000 0.000000
-0.019845 0.027360 0.000000
0.027360 0.007505 0.000000
0.000000 0.000000 0.000000
0.002204 0.005516 0.000000
0.005516 -0.037087 0.000000
0.000000 0.000000 0.000000
-0.006908 -0.001242 0.000000
-0.001242 0.012217 0.000000
0.000000 0.000000 0.000000
-0.007097 -0.003409 0.000000
-0.003409 0.013395 0.000000
0.000000 0.000000 0.000000
-0.004177 -0.000771 0.000000
-0.000771 -0.022543 0.000000
0.000000 0.000000 0.000000
-0.004506 0.002941 0.000000
0.002941 -0.015931 0.000000
0.000000 0.000000 0.000000
-0.000916 0.002324 0.000000
0.002324 -0.015261 0.000000
0.000000 0.000000 0.000000
-0.004947 -0.008664 0.000000
-0.008664 -0.004982 0.000000
0.000000 0.000000 0.000000
-0.009225 -0.007504 0.000000
-0.007504 -0.006560 0.000000
0.000000 0.000000 0.000000
0.001946 0.022538 0.000000
0.022538 -0.007916 0.000000
0.000000 0.000000 0.000000
-0.004369 -0.001636 0.000000
-0.001636 0.001476 0.000000
0.000000 0.000000 0.000000
-0.002495 0.001057 0.000000
0.001057 -0.000909 0.000000
0.000000 0.000000 0.000000
-0.006506 -0.016627 0.000000
-0.016627 0.003167 0.000000
0.000000 0.000000 0.000000
0.004799 -0.000142 0.000000
-0.000142 -0.000085 0.000000
0.000000 0.000000 0.000000
-0.012298 -0.006327 0.000000
-0.006327 0.021819 0.000000
0.000000 0.000000 0.000000
0.010665 -0.003510 0.000000
-0.003510 -0.010045 0.000000
0.000000 0.000000 0.000000
0.009084 0.007468 0.000000
0.007468 0.006522 0.000000
0.000000 0.000000 0.000000
-0.019041 -0.010271 0.000000
-0.010271 -0.035874 0.000000
0.000000 0.000000 0.000000
-0.004203 0.004582 0.000000
0.004582 -0.008666 0.000000
0.000000 0.000000 0.000000
0.001646 0.002435 0.000000
0.002435 -0.003444 0.000000
0.000000 0.000000 0.000000
0.000215 0.001210 0.000000
0.001210 -0.017764 0.000000
0.000000 0.000000 0.000000
-0.002181 0.002752 0.000000
0.002752 -0.004698 0.000000
0.000000 0.000000 0.000000
0.011984 -0.009048 0.000000
-0.009048 0.004400 0.000000
0.000000 0.000000 0.000000
0.000005 -0.012946 0.000000
-0.012946 0.008736 0.000000
0.000000 0.000000 0.000000
-0.005421 -0.001698 0.000000
-0.001698 0.008731 0.000000
0.000000 0.000000 0.000000
-0.002751 -0.000431 0.000000
-0.000431 -0.000053 0.000000
0.000000 0.000000 0.000000
0.002428 -0.000136 0.000000
-0.000136 -0.004538 0.000000
0.000000 0.000000 0.000000
-0.004695 -0.003409 0.000000
-0.003409 0.000346 0.000000
0.000000 0.000000 0.000000
-0.006187 -0.001128 0.000000
-0.001128 0.005111 0.000000
0.000000 0.000000 0.000000
0.005567 0.003184 0.000000
0.003184 0.011216 0.000000
0.000000 0.000000 0.000000
0.000129 -0.000466 0.000000
-0.000466 0.002882 0.000000
0.000000 0.000000 0.000000
-0.016385 0.001080 0.000000
0.001080 -0.000090 0.000000
0.000000 0.000000 0.000000
0.001465 -0.000417 0.000000
-0.000417 -0.007418 0.000000
0.000000 0.000000 0.000000
-0.000771 0.004488 0.000000
0.004488 0.000025 0.000000
0.000000 0.000000 0.000000
-0.011195 -0.000262 0.000000
-0.000262 -0.000909 0.000000
0.000000 0.000000 0.000000
0.004982 0.000767 0.000000
0.000767 0.011319 0.000000
0.000000 0.000000 0.000000
0.007111 0.005187 0.000000
0.005187 0.004662 0.000000
0.000000 0.000000 0.000000
0.007975 -0.006233 0.000000
-0.006233 -0.000766 0.000000
0.000000 0.000000 0.000000
0.004274 -0.005124 0.000000
-0.005124 0.001373 0.000000
0.000000 0.000000 0.000000
-0.011560 -0.009310 0.000000
-0.009310 0.009250 0.000000
0.000000 0.000000 0.000000
-0.009540 -0.020273 0.000000
-0.020273 0.014927 0.000000
0.000000 0.000000 0.000000
0.015953 -0.006527 0.000000
-0.006527 0.006187 0.000000
0.000000 0.000000 0.000000
0.012735 -0.016465 0.000000
-0.016465 -0.025433 0.000000
0.000000 0.000000 0.000000
-0.001896 -0.010683 0.000000
-0.010683 -0.016471 0.000000
0.000000 0.000000 0.000000
0.002993 -0.000054 0.000000
-0.000054 0.001917 0.000000
0.000000 0.000000 0.000000
0.000688 0.001036 0.000000
0.001036 0.011160 0.000000
0.000000 0.000000 0.000000
-0.010506 -0.009165 0.000000
-0.009165 -0.017113 0.000000
0.000000 0.000000 0.000000
-0.004415 0.003105 0.000000
0.003105 0.002594 0.000000
0.000000 0.000000 0.000000
-0.017444 0.013198 0.000000
0.013198 -0.029782 0.000000
0.000000 0.000000 0.000000
-0.009111 -0.003046 0.000000
-0.003046 0.011724 0.000000
0.000000 0.000000 0.000000
-0.004457 -0.000766 0.000000
-0.000766 0.004848 0.000000
0.000000 0.000000 0.000000
-0.012777 -0.004493 0.000000
-0.004493 0.009862 0.000000
0.000000 0.000000 0.000000
-0.005502 0.003062 0.000000
0.003062 0.002362 0.000000
0.000000 0.000000 0.000000
-0.013455 0.003875 0.000000
0.003875 0.000723 0.000000
0.000000 0.000000 0.000000
-0.002403 0.000250 0.000000
0.000250 0.010732 0.000000
0.000000 0.000000 0.000000
-0.008474 -0.005360 0.000000
-0.005360 0.010162 0.000000
0.000000 0.000000 0.000000
-0.016685 -0.018108 0.000000
-0.018108 -0.010608 0.000000
0.000000 0.000000 0.000000
0.013924 0.002184 0.000000
0.002184 0.001912 0.000000
0.000000 0.000000 0.000000
0.008100 0.005643 0.000000
0.005643 -0.005404 0.000000
0.000000 0.000000 0.000000
0.002253 0.001722 0.000000
0.001722 -0.002438 0.000000
0.000000 0.000000 0.000000
-0.005159 -0.003964 0.000000
-0.003964 -0.015901 0.000000
0.000000 0.000000 0.000000
0.003605 0.010563 0.000000
0.010563 0.024784 0.000000
0.000000 0.000000 0.000000
0.015116 -0.012775 0.000000
-0.012775 0.005248 0.000000
0.000000 0.000000 0.000000
0.002582 0.009057 0.000000
0.009057 0.022389 0.000000
0.000000 0.000000 0.000000
0.007813 0.010672 0.000000
0.010672 0.024824 0.000000
0.000000 0.000000 0.000000
0.010677 0.003971 0.000000
0.003971 -0.006829 0.000000
0.000000 0.000000 0.000000
0.005573 0.002966 0.000000
0.002966 0.005390 0.000000
0.000000 0.000000 0.000000
-0.000002 -0.018571 0.000000
-0.018571 -0.016864 0.000000
0.000000 0.000000 0.000000
-0.004190 -0.001652 0.000000
-0.001652 -0.007465 0.000000
0.000000 0.000000 0.000000
0.000201 -0.001577 0.000000
-0.001577 -0.009364 0.000000
0.000000 0.000000 0.000000
-0.001731 -0.001599 0.000000
-0.001599 -0.017696 0.000000
0.000000 0.000000 0.000000
-0.005427 -0.005048 0.000000
-0.005048 0.010230 0.000000
0.000000 0.000000 0.000000
0.012671 -0.008896 0.000000
-0.008896 -0.006200 0.000000
0.000000 0.000000 0.000000
-0.012862 -0.006961 0.000000
-0.006961 -0.019648 0.000000
0.000000 0.000000 0.000000
-0.007503 -0.002941 0.000000
-0.002941 -0.006684 0.000000
0.000000 0.000000 0.000000
0.003925 0.007460 0.000000
0.007460 0.009659 0.000000
0.000000 0.000000 0.000000
0.005600 -0.002333 0.000000
-0.002333 0.009090 0.000000
0.000000 0.000000 0.000000
-0.013058 -0.004686 0.000000
-0.004686 -0.000334 0.000000
0.000000 0.000000 0.000000
0.000455 -0.000241 0.000000
-0.000241 0.004623 0.000000
0.000000 0.000000 0.000000
0.000436 0.003759 0.000000
0.003759 -0.012534 0.000000
0.000000 0.000000 0.000000
-0.012042 -0.017818 0.000000
-0.017818 -0.012832 0.000000
0.000000 0.000000 0.000000
-0.002115 -0.003109 0.000000
-0.003109 -0.000655 0.000000
0.000000 0.000000 0.000000
0.001853 -0.003782 0.000000
-0.003782 0.012047 0.000000
0.000000 0.000000 0.000000
0.010147 -0.003728 0.000000
-0.003728 -0.006031 0.000000
0.000000 0.000000 0.000000
0.005634 -0.000043 0.000000
-0.000043 -0.016058 0.000000
0.000000 0.000000 0.000000
0.000786 -0.000776 0.000000
-0.000776 0.000303 0.000000
0.000000 0.000000 0.000000
-0.004738 -0.004031 0.000000
-0.004031 -0.017915 0.000000
0.000000 0.000000 0.000000
-0.010309 -0.006151 0.000000
-0.006151 -0.016394 0.000000
0.000000 0.000000 0.000000
-0.021415 -0.010391 0.000000
-0.010391 -0.031410 0.000000
0.000000 0.000000 0.000000
-0.005387 -0.000133 0.000000
-0.000133 -0.027229 0.000000
0.000000 0.000000 0.000000
-0.006295 0.000645 0.000000
0.000645 0.001431 0.000000
0.000000 0.000000 0.000000
-0.012414 -0.000359 0.000000
-0.000359 -0.000698 0.000000
0.000000 0.000000 0.000000
-0.010176 -0.005146 0.000000
-0.005146 -0.002886 0.000000
0.000000 0.000000 0.000000
-0.001571 -0.012081 0.000000
-0.012081 -0.001115 0.000000
0.000000 0.000000 0.000000
-0.027792 0.010344 0.000000
0.010344 0.008689 0.000000
0.000000 0.000000 0.000000
-0.002716 0.008754 0.000000
0.008754 0.000836 0.000000
0.000000 0.000000 0.000000
0.004089 -0.005508 0.000000
-0.005508 0.005423 0.000000
0.000000 0.000000 0.000000
0.001907 -0.004809 0.000000
-0.004809 -0.002408 0.000000
0.000000 0.000000 0.000000
-0.006790 -0.003985 0.000000
-0.003985 -0.001750 0.000000
0.000000 0.000000 0.000000
0.004987 0.004650 0.000000
0.004650 0.013709 0.000000
0.000000 0.000000 0.000000
0.001896 0.002565 0.000000
0.002565 -0.002992 0.000000
0.000000 0.000000 0.000000
0.017867 -0.006049 0.000000
-0.006049 0.016109 0.000000
0.000000 0.000000 0.000000
-0.007083 -0.003928 0.000000
-0.003928 0.005938 0.000000
0.000000 0.000000 0.000000
-0.010833 -0.001180 0.000000
-0.001180 -0.004366 0.000000
0.000000 0.000000 0.000000
-0.000473 -0.011424 0.000000
-0.011424 0.016258 0.000000
0.000000 0.000000 0.000000
-0.003065 -0.010560 0.000000
-0.010560 0.016664 0.000000
0.000000 0.000000 0.000000
-0.001036 -0.012357 0.000000
-0.012357 0.016639 0.000000
0.000000 0.000000 0.000000
-0.011424 0.004460 0.000000
0.004460 0.006030 0.000000
0.000000 0.000000 0.000000
0.010531 -0.008492 0.000000
-0.008492 -0.002792 0.000000
0.000000 0.000000 0.000000
0.003018 -0.003218 0.000000
-0.003218 -0.014388 0.000000
0.000000 0.000000 0.000000
-0.000211 -0.001382 0.000000
-0.001382 0.001971 0.000000
0.000000 0.000000 0.000000
0.022115 -0.029986 0.000000
-0.029986 -0.001906 0.000000
0.000000 0.000000 0.000000
0.005040 0.002054 0.000000
0.002054 -0.006074 0.000000
0.000000 0.000000 0.000000
0.010341 0.005554 0.000000
0.005554 0.011478 0.000000
0.000000 0.000000 0.000000
-0.016895 -0.021550 0.000000
-0.021550 -0.002515 0.000000
0.000000 0.000000 0.000000
-0.003222 0.001239 0.000000
0.001239 -0.011688 0.000000
0.000000 0.000000 0.000000
-0.009501 -0.002155 0.000000
-0.002155 -0.020586 0.000000
0.000000 0.000000 0.000000
-0.017963 -0.004211 0.000000
-0.004211 -0.022597 0.000000
0.000000 0.000000 0.000000
-0.005977 0.001580 0.000000
0.001580 0.000854 0.000000
0.000000 0.000000 0.000000
-0.005828 -0.009395 0.000000
-0.009395 0.004236 0.000000
0.000000 0.000000 0.000000
-0.000342 -0.004773 0.000000
-0.004773 -0.006736 0.000000
0.000000 0.000000 0.000000
-0.008356 0.003665 0.000000
0.003665 0.020980 0.000000
0.000000 0.000000 0.000000
-0.008765 -0.009013 0.000000
-0.009013 0.005070 0.000000
0.000000 0.000000 0.000000
-0.003030 0.001308 0.000000
0.001308 -0.004887 0.000000
0.000000 0.000000 0.000000
0.019194 0.001786 0.000000
0.001786 0.007188 0.000000
0.000000 0.000000 0.000000
0.004063 0.007900 0.000000
0.007900 0.019539 0.000000
0.000000 0.000000 0.000000
-0.016785 0.003608 0.000000
0.003608 -0.015903 0.000000
0.000000 0.000000 0.000000
0.005832 -0.005266 0.000000
-0.005266 0.003382 0.000000
0.000000 0.000000 0.000000
-0.025698 0.012132 0.000000
0.012132 -0.026967 0.000000
0.000000 0.000000 0.000000
0.011629 0.001565 0.000000
0.001565 0.004880 0.000000
0.000000 0.000000 0.000000
0.004236 0.003351 0.000000
0.003351 -0.002374 0.000000
0.000000 0.000000 0.000000
-0.006053 0.001496 0.000000
0.001496 0.013432 0.000000
0.000000 0.000000 0.000000
-0.001021 0.009800 0.000000
0.009800 0.019872 0.000000
0.000000 0.000000 0.000000
-0.000225 0.000383 0.000000
0.000383 0.003299 0.000000
0.000000 0.000000 0.000000
0.012323 0.008782 0.000000
0.008782 0.005877 0.000000
0.000000 0.000000 0.000000
0.000657 -0.001545 0.000000
-0.001545 0.001996 0.000000
0.000000 0.000000 0.000000
0.003215 0.003230 0.000000
0.003230 -0.004710 0.000000
0.000000 0.000000 0.000000
0.012438 0.010965 0.000000
0.010965 -0.004706 0.000000
0.000000 0.000000 0.000000
-0.004724 0.004917 0.000000
0.004917 -0.004372 0.000000
0.000000 0.000000 0.000000
-0.002977 0.001317 0.000000
0.001317 -0.001191 0.000000
0.000000 0.000000 0.000000
0.000331 -0.004209 0.000000
-0.004209 -0.000455 0.000000
0.000000 0.000000 0.000000
0.008588 -0.005229 0.000000
-0.005229 0.006460 0.000000
0.000000 0.000000 0.000000
-0.010240 0.023291 0.000000
0.023291 0.015667 0.000000
0.000000 0.000000 0.000000
-0.009153 0.009109 0.000000
0.009109 -0.000569 0.000000
0.000000 0.000000 0.000000
0.023060 -0.006135 0.000000
-0.006135 0.013716 0.000000
0.000000 0.000000 0.000000
0.006958 -0.000131 0.000000
-0.000131 0.018722 0.000000
0.000000 0.000000 0.000000
0.014841 0.008990 0.000000
0.008990 -0.000946 0.000000
0.000000 0.000000 0.000000
-0.004201 -0.002512 0.000000
-0.002512 -0.018108 0.000000
0.000000 0.000000 0.000000
-0.003436 0.002277 0.000000
0.002277 -0.007358 0.000000
0.000000 0.000000 0.000000
-0.000780 0.000416 0.000000
0.000416 -0.012041 0.000000
0.000000 0.000000 0.000000
0.001112 0.002662 0.000000
0.002662 0.003821 0.000000
0.000000 0.000000 0.000000
0.018376 0.005935 0.000000
0.005935 -0.009313 0.000000
0.000000 0.000000 0.000000
0.002457 -0.001045 0.000000
-0.001045 0.020972 0.000000
0.000000 0.000000 0.000000
0.000027 -0.001320 0.000000
-0.001320 0.008651 0.000000
0.000000 0.000000 0.000000
0.000398 -0.002136 0.000000
-0.002136 -0.014524 0.000000
0.000000 0.000000 0.000000
-0.017596 0.002103 0.000000
0.002103 0.001967 0.000000
0.000000 0.000000 0.000000
-0.001463 0.001005 0.000000
0.001005 -0.003058 0.000000
0.000000 0.000000 0.000000
-0.007892 -0.005382 0.000000
-0.005382 0.005374 0.000000
0.000000 0.000000 0.000000
-0.012142 0.006162 0.000000
0.006162 -0.006547 0.000000
0.000000 0.000000 0.000000
0.007768 0.002701 0.000000
0.002701 -0.001481 0.000000
0.000000 0.000000 0.000000
0.001237 -0.010172 0.000000
-0.010172 0.006349 0.000000
0.000000 0.000000 0.000000
-0.010951 0.038411 0.000000
0.038411 0.000093 0.000000
0.000000 0.000000 0.000000
-0.012621 0.037996 0.000000
0.037996 0.014170 0.000000
0.000000 0.000000 0.000000
-0.003113 0.002898 0.000000
0.002898 -0.028030 0.000000
0.000000 0.000000 0.000000
-0.009324 -0.004184 0.000000
-0.004184 0.009207 0.000000
0.000000 0.000000 0.000000
-0.012538 -0.004382 0.000000
-0.004382 0.008765 0.000000
0.000000 0.000000 0.000000
-0.003495 -0.002164 0.000000
-0.002164 -0.014583 0.000000
0.000000 0.000000 0.000000
0.007677 0.009229 0.000000
0.009229 0.013679 0.000000
0.000000 0.000000 0.000000
-0.001915 0.005145 0.000000
0.005145 -0.028173 0.000000
0.000000 0.000000 0.000000
0.009355 -0.002924 0.000000
-0.002924 -0.003032 0.000000
0.000000 0.000000 0.000000
0.001142 0.023855 0.000000
0.023855 -0.000842 0.000000
0.000000 0.000000 0.000000
0.003877 -0.000112 0.000000
-0.000112 0.014960 0.000000
0.000000 0.000000 0.000000
-0.004879 -0.001384 0.000000
-0.001384 -0.019127 0.000000
0.000000 0.000000 0.000000
0.036344 0.016833 0.000000
0.016833 0.020393 0.000000
0.000000 0.000000 0.000000
0.000603 -0.001843 0.000000
-0.001843 0.002926 0.000000
0.000000 0.000000 0.000000
0.008346 0.003992 0.000000
0.003992 0.006434 0.000000
0.000000 0.000000 0.000000
0.000068 0.002550 0.000000
0.002550 0.011739 0.000000
0.000000 0.000000 0.000000
0.002520 -0.002619 0.000000
-0.002619 -0.004571 0.000000
0.000000 0.000000 0.000000
0.004732 -0.023749 0.000000
-0.023749 -0.024042 0.000000
0.000000 0.000000 0.000000
-0.007667 -0.007214 0.000000
-0.007214 -0.002817 0.000000
0.000000 0.000000 0.000000
0.000374 0.004216 0.000000
0.004216 -0.009297 0.000000
0.000000 0.000000 0.000000
0.001333 0.002537 0.000000
0.002537 -0.007264 0.000000
0.000000 0.000000 0.000000
-0.001766 0.007721 0.000000
0.007721 0.002898 0.000000
0.000000 0.000000 0.000000
0.011784 -0.007291 0.000000
-0.007291 0.012146 0.000000
0.000000 0.000000 0.000000
0.000028 0.001425 0.000000
0.001425 -0.006262 0.000000
0.000000 0.000000 0.000000
-0.016641 -0.003154 0.000000
-0.003154 0.003717 0.000000
0.000000 0.000000 0.000000
-0.012702 -0.001199 0.000000
-0.001199 0.021950 0.000000
0.000000 0.000000 0.000000
-0.001648 0.002516 0.000000
0.002516 -0.005280 0.000000
0.000000 0.000000 0.000000
-0.018547 0.000325 0.000000
0.000325 0.002712 0.000000
0.000000 0.000000 0.000000
-0.006253 -0.004448 0.000000
-0.004448 0.014490 0.000000
0.000000 0.000000 0.000000
-0.005546 -0.005458 0.000000
-0.005458 0.014765 0.000000
0.000000 0.000000 0.000000
0.004079 -0.008786 0.000000
-0.008786 -0.005498 0.000000
0.000000 0.000000 0.000000
0.009502 -0.005458 0.000000
-0.005458 0.007451 0.000000
0.000000 0.000000 0.000000
-0.002490 -0.000319 0.000000
-0.000319 -0.024012 0.000000
0.000000 0.000000 0.000000
0.007499 0.002278 0.000000
0.002278 -0.008232 0.000000
0.000000 0.000000 0.000000
-0.010208 -0.002339 0.000000
-0.002339 -0.003265 0.000000
0.000000 0.000000 0.000000
-0.000267 -0.001072 0.000000
-0.001072 -0.009656 0.000000
0.000000 0.000000 0.000000
-0.012531 -0.000005 0.000000
-0.000005 0.010399 0.000000
0.000000 0.000000 0.000000
0.003517 -0.003509 0.000000
-0.003509 -0.000800 0.000000
0.000000 0.000000 0.000000
0.003853 -0.012604 0.000000
-0.012604 -0.012394 0.000000
0.000000 0.000000 0.000000
0.004784 -0.011661 0.000000
-0.011661 -0.006591 0.000000
0.000000 0.000000 0.000000
-0.005983 0.017353 0.000000
0.017353 0.001030 0.000000
0.000000 0.000000 0.000000
-0.010791 -0.020028 0.000000
-0.020028 -0.001652 0.000000
0.000000 0.000000 0.000000
-0.000312 0.016119 0.000000
0.016119 0.020593 0.000000
0.000000 0.000000 0.000000
-0.006369 -0.003711 0.000000
-0.003711 -0.017076 0.000000
0.000000 0.000000 0.000000
0.001691 0.003403 0.000000
0.003403 0.000861 0.000000
0.000000 0.000000 0.000000
-0.006346 -0.001091 0.000000
-0.001091 -0.011479 0.000000
0.000000 0.000000 0.000000
0.008870 -0.002413 0.000000
-0.002413 -0.023181 0.000000
0.000000 0.000000 0.000000
0.002595 0.005658 0.000000
0.005658 -0.004060 0.000000
0.000000 0.000000 0.000000
0.007964 0.002139 0.000000
0.002139 0.008787 0.000000
0.000000 0.000000 0.000000
0.001791 -0.001459 0.000000
-0.001459 0.003200 0.000000
0.000000 0.000000 0.000000
-0.006422 -0.002505 0.000000
-0.002505 -0.022929 0.000000
0.000000 0.000000 0.000000
-0.011204 0.000068 0.000000
0.000068 -0.026480 0.000000
0.000000 0.000000 0.000000
-0.002252 -0.004192 0.000000
-0.004192 0.006580 0.000000
0.000000 0.000000 0.000000
-0.001867 -0.001098 0.000000
-0.001098 0.007188 0.000000
0.000000 0.000000 0.000000
-0.004004 -0.001049 0.000000
-0.001049 -0.007295 0.000000
0.000000 0.000000 0.000000
0.001402 -0.012241 0.000000
-0.012241 0.012261 0.000000
0.000000 0.000000 0.000000
-0.004394 0.000380 0.000000
0.000380 -0.003963 0.000000
0.000000 0.000000 0.000000
-0.005936 -0.005119 0.000000
-0.005119 0.003615 0.000000
0.000000 0.000000 0.000000
-0.006310 0.000612 0.000000
0.000612 -0.007258 0.000000
0.000000 0.000000 0.000000
0.003613 0.000397 0.000000
0.000397 0.018967 0.000000
0.000000 0.000000 0.000000
-0.002627 -0.001887 0.000000
-0.001887 -0.004695 0.000000
0.000000 0.000000 0.000000
-0.004578 0.000627 0.000000
0.000627 -0.013426 0.000000
0.000000 0.000000 0.000000
0.009426 -0.001692 0.000000
-0.001692 0.022179 0.000000
0.000000 0.000000 0.000000
0.007785 0.000943 0.000000
0.000943 -0.031237 0.000000
0.000000 0.000000 0.000000
-0.004502 0.006075 0.000000
0.006075 -0.069395 0.000000
0.000000 0.000000 0.000000
0.005351 0.002425 0.000000
0.002425 0.007528 0.000000
0.000000 0.000000 0.000000
-0.007778 0.002885 0.000000
0.002885 -0.009469 0.000000
0.000000 0.000000 0.000000
-0.019804 0.000955 0.000000
0.000955 -0.011409 0.000000
0.000000 0.000000 0.000000
-0.006055 0.009117 0.000000
0.009117 -0.016657 0.000000
0.000000 0.000000 0.000000
-0.014440 -0.000953 0.000000
-0.000953 -0.017659 0.000000
0.000000 0.000000 0.000000
-0.008360 0.010923 0.000000
0.010923 -0.016836 0.000000
0.000000 0.000000 0.000000
0.010321 -0.002764 0.000000
-0.002764 -0.002771 0.000000
0.000000 0.000000 0.000000
0.010572 0.007642 0.000000
0.007642 -0.003874 0.000000
0.000000 0.000000 0.000000
-0.022322 0.014338 0.000000
0.014338 0.004260 0.000000
0.000000 0.000000 0.000000
-0.004767 -0.005098 0.000000
-0.005098 -0.016003 0.000000
0.000000 0.000000 0.000000
-0.001600 0.004006 0.000000
0.004006 0.005523 0.000000
0.000000 0.000000 0.000000
0.020116 0.007485 0.000000
0.007485 -0.007346 0.000000
0.000000 0.000000 0.000000
0.010989 0.000397 0.000000
0.000397 -0.001470 0.000000
0.000000 0.000000 0.000000
-0.003870 0.001151 0.000000
0.001151 -0.014559 0.000000
0.000000 0.000000 0.000000
-0.004915 -0.001103 0.000000
-0.001103 0.005486 0.000000
0.000000 0.000000 0.000000
0.006113 -0.002234 0.000000
-0.002234 0.004889 0.000000
0.000000 0.000000 0.000000
-0.009118 -0.002481 0.000000
-0.002481 -0.026327 0.000000
0.000000 0.000000 0.000000
-0.023874 0.012753 0.000000
0.012753 -0.009643 0.000000
0.000000 0.000000 0.000000
0.009197 -0.004064 0.000000
-0.004064 -0.021091 0.000000
0.000000 0.000000 0.000000
-0.015349 0.009125 0.000000
0.009125 -0.005441 0.000000
0.000000 0.000000 0.000000
0.001013 -0.010514 0.000000
-0.010514 -0.007522 0.000000
0.000000 0.000000 0.000000
0.002451 0.000817 0.000000
0.000817 0.004196 0.000000
0.000000 0.000000 0.000000
0.000028 -0.011058 0.000000
-0.011058 -0.008365 0.000000
0.000000 0.000000 0.000000
0.002964 0.000494 0.000000
0.000494 0.006692 0.000000
0.000000 0.000000 0.000000
-0.013791 -0.013861 0.000000
-0.013861 0.006976 0.000000
0.000000 0.000000 0.000000
-0.011130 -0.009122 0.000000
-0.009122 0.009553 0.000000
0.000000 0.000000 0.000000
-0.006517 0.000363 0.000000
0.000363 0.005976 0.000000
0.000000 0.000000 0.000000
-0.033078 -0.005506 0.000000
-0.005506 0.004241 0.000000
0.000000 0.000000 0.000000
0.001346 -0.002245 0.000000
-0.002245 0.008841 0.000000
0.000000 0.000000 0.000000
0.002247 -0.003069 0.000000
-0.003069 0.012189 0.000000
0.000000 0.000000 0.000000
0.024617 -0.002548 0.000000
-0.002548 0.009573 0.000000
0.000000 0.000000 0.000000
-0.012560 0.002471 0.000000
0.002471 -0.015667 0.000000
0.000000 0.000000 0.000000
-0.012961 -0.000816 0.000000
-0.000816 0.006706 0.000000
0.000000 0.000000 0.000000
-0.010516 -0.000600 0.000000
-0.000600 -0.001149 0.000000
0.000000 0.000000 0.000000
0.005467 -0.003519 0.000000
-0.003519 0.001928 0.000000
0.000000 0.000000 0.000000
-0.009195 0.003273 0.000000
0.003273 -0.015682 0.000000
0.000000 0.000000 0.000000
-0.007435 0.005128 0.000000
0.005128 0.004409 0.000000
0.000000 0.000000 0.000000
-0.003153 0.001429 0.000000
0.001429 0.010845 0.000000
0.000000 0.000000 0.000000
0.004423 -0.000566 0.000000
-0.000566 0.010058 0.000000
0.000000 0.000000 0.000000
0.004325 -0.001956 0.000000
-0.001956 0.016674 0.000000
0.000000 0.000000 0.000000
-0.009054 0.003950 0.000000
0.003950 -0.010501 0.000000
0.000000 0.000000 0.000000
0.002386 0.002042 0.000000
0.002042 0.000611 0.000000
0.000000 0.000000 0.000000
0.002677 -0.004429 0.000000
-0.004429 0.002930 0.000000
0.000000 0.000000 0.000000
0.016932 0.008217 0.000000
0.008217 -0.003077 0.000000
0.000000 0.000000 0.000000
0.003731 0.005205 0.000000
0.005205 0.000602 0.000000
0.000000 0.000000 0.000000
0.005726 0.004298 0.000000
0.004298 -0.002077 0.000000
0.000000 0.000000 0.000000
0.004221 0.001095 0.000000
0.001095 0.010711 0.000000
0.000000 0.000000 0.000000
0.003112 -0.004117 0.000000
-0.004117 -0.023086 0.000000
0.000000 0.000000 0.000000
-0.004096 0.002126 0.000000
0.002126 -0.024176 0.000000
0.000000 0.000000 0.000000
0.000853 0.005375 0.000000
0.005375 -0.007330 0.000000
0.000000 0.000000 0.000000
0.005681 -0.002961 0.000000
-0.002961 0.007562 0.000000
0.000000 0.000000 0.000000
-0.001435 -0.002442 0.000000
-0.002442 -0.005061 0.000000
0.000000 0.000000 0.000000
0.000626 0.001351 0.000000
0.001351 -0.003401 0.000000
0.000000 0.000000 0.000000
0.003951 0.007556 0.000000
0.007556 -0.013437 0.000000
0.000000 0.000000 0.000000
-0.000312 0.005986 0.000000
0.005986 0.003509 0.000000
0.000000 0.000000 0.000000
-0.000905 -0.001366 0.000000
-0.001366 -0.000920 0.000000
0.000000 0.000000 0.000000
0.008153 0.045094 0.000000
0.045094 0.011209 0.000000
0.000000 0.000000 0.000000
0.003197 0.026854 0.000000
0.026854 -0.002704 0.000000
0.000000 0.000000 0.000000
-0.005175 0.006926 0.000000
0.006926 -0.007967 0.000000
0.000000 0.000000 0.000000
-0.000818 0.001927 0.000000
0.001927 -0.011626 0.000000
0.000000 0.000000 0.000000
0.006823 0.000766 0.000000
0.000766 -0.013919 0.000000
0.000000 0.000000 0.000000
0.013715 0.008948 0.000000
0.008948 0.031666 0.000000
0.000000 0.000000 0.000000
-0.005058 0.007600 0.000000
0.007600 -0.006823 0.000000
0.000000 0.000000 0.000000
0.014799 0.037899 0.000000
0.037899 0.029640 0.000000
0.000000 0.000000 0.000000
0.000868 0.001332 0.000000
0.001332 -0.001121 0.000000
0.000000 0.000000 0.000000
0.003718 -0.003702 0.000000
-0.003702 -0.005817 0.000000
0.000000 0.000000 0.000000
0.000620 0.004791 0.000000
0.004791 0.002317 0.000000
0.000000 0.000000 0.000000
-0.015620 -0.005907 0.000000
-0.005907 -0.006998 0.000000
0.000000 0.000000 0.000000
-0.024763 0.001693 0.000000
0.001693 -0.002393 0.000000
0.000000 0.000000 0.000000
0.008872 0.018057 0.000000
0.018057 0.014803 0.000000
0.000000 0.000000 0.000000
0.003319 0.000566 0.000000
0.000566 -0.000236 0.000000
0.000000 0.000000 0.000000
0.001158 0.002776 0.000000
0.002776 -0.000020 0.000000
0.000000 0.000000 0.000000
0.008524 0.015602 0.000000
0.015602 0.016332 0.000000
0.000000 0.000000 0.000000
-0.022734 0.008969 0.000000
0.008969 -0.000414 0.000000
0.000000 0.000000 0.000000
0.007660 -0.002013 0.000000
-0.002013 0.004790 0.000000
0.000000 0.000000 0.000000
0.006434 0.010488 0.000000
0.010488 -0.004803 0.000000
0.000000 0.000000 0.000000
0.002311 0.000969 0.000000
0.000969 0.000440 0.000000
0.000000 0.000000 0.000000
-0.027780 -0.017324 0.000000
-0.017324 -0.029422 0.000000
0.000000 0.000000 0.000000
-0.012022 -0.002048 0.000000
-0.002048 -0.006024 0.000000
0.000000 0.000000 0.000000
-0.035620 -0.007505 0.000000
-0.007505 -0.012676 0.000000
0.000000 0.000000 0.000000
0.009525 0.002710 0.000000
0.002710 -0.008861 0.000000
0.000000 0.000000 0.000000
-0.004273 0.005130 0.000000
0.005130 0.004164 0.000000
0.000000 0.000000 0.000000
-0.003651 0.001970 0.000000
0.001970 -0.016995 0.000000
0.000000 0.000000 0.000000
0.005531 -0.000995 0.000000
-0.000995 0.013041 0.000000
0.000000 0.000000 0.000000
0.004941 -0.002517 0.000000
-0.002517 0.014145 0.000000
0.000000 0.000000 0.000000
0.005806 -0.011206 0.000000
-0.011206 0.000143 0.000000
0.000000 0.000000 0.000000
-0.019015 -0.004179 0.000000
-0.004179 -0.011195 0.000000
0.000000 0.000000 0.000000
0.008089 0.000381 0.000000
0.000381 -0.012709 0.000000
0.000000 0.000000 0.000000
0.012871 0.002647 0.000000
0.002647 -0.013676 0.000000
0.000000 0.000000 0.000000
-0.000915 -0.001230 0.000000
-0.001230 -0.017237 0.000000
0.000000 0.000000 0.000000
0.000694 0.005096 0.000000
0.005096 -0.005072 0.000000
0.000000 0.000000 0.000000
-0.002689 0.004917 0.000000
0.004917 -0.004337 0.000000
0.000000 0.000000 0.000000
-0.000394 0.004518 0.000000
0.004518 0.001331 0.000000
0.000000 0.000000 0.000000
0.001799 -0.005874 0.000000
-0.005874 -0.012223 0.000000
0.000000 0.000000 0.000000
-0.002365 -0.003360 0.000000
-0.003360 0.002467 0.000000
0.000000 0.000000 0.000000
0.023861 -0.011444 0.000000
-0.011444 0.014263 0.000000
0.000000 0.000000 0.000000
0.001113 0.005702 0.000000
0.005702 0.003258 0.000000
0.000000 0.000000 0.000000
0.004707 0.005140 0.000000
0.005140 0.000062 0.000000
0.000000 0.000000 0.000000
-0.027166 0.018627 0.000000
0.018627 -0.021294 0.000000
0.000000 0.000000 0.000000
0.005264 0.006844 0.000000
0.006844 0.005038 0.000000
0.000000 0.000000 0.000000
-0.016009 -0.008065 0.000000
-0.008065 -0.016816 0.000000
0.000000 0.000000 0.000000
0.003203 0.003669 0.000000
0.003669 -0.000486 0.000000
0.000000 0.000000 0.000000
0.004414 0.001190 0.000000
0.001190 -0.000383 0.000000
0.000000 0.000000 0.000000
0.001267 0.021525 0.000000
0.021525 -0.017084 0.000000
0.000000 0.000000 0.000000
-0.000294 0.002068 0.000000
0.002068 0.002816 0.000000
0.000000 0.000000 0.000000
0.006126 0.026575 0.000000
0.026575 -0.006547 0.000000
0.000000 0.000000 0.000000
-0.007244 0.019591 0.000000
0.019591 0.015736 0.000000
0.000000 0.000000 0.000000
0.005726 0.006987 0.000000
0.006987 -0.007928 0.000000
0.000000 0.000000 0.000000
0.006976 -0.003689 0.000000
-0.003689 0.001661 0.000000
0.000000 0.000000 0.000000
0.004564 0.004148 0.000000
0.004148 0.011909 0.000000
0.000000 0.000000 0.000000
-0.011542 -0.002554 0.000000
-0.002554 -0.003906 0.000000
0.000000 0.000000 0.000000
-0.005749 0.009193 0.000000
0.009193 0.005335 0.000000
0.000000 0.000000 0.000000
-0.005930 -0.001390 0.000000
-0.001390 -0.014101 0.000000
0.000000 0.000000 0.000000
-0.010925 0.002077 0.000000
0.002077 -0.005564 0.000000
0.000000 0.000000 0.000000
-0.008474 0.009957 0.000000
0.009957 0.005934 0.000000
0.000000 0.000000 0.000000
-0.007354 -0.006027 0.000000
-0.006027 0.017656 0.000000
0.000000 0.000000 0.000000
0.001062 -0.008441 0.000000
-0.008441 0.004741 0.000000
0.000000 0.000000 0.000000
-0.031424 0.009098 0.000000
0.009098 -0.001195 0.000000
0.000000 0.000000 0.000000
-0.001549 -0.001416 0.000000
-0.001416 0.001850 0.000000
0.000000 0.000000 0.000000
0.013497 0.002191 0.000000
0.002191 -0.016018 0.000000
0.000000 0.000000 0.000000
-0.003043 0.002169 0.000000
0.002169 -0.016132 0.000000
0.000000 0.000000 0.000000
-0.005425 -0.002647 0.000000
-0.002647 0.005361 0.000000
0.000000 0.000000 0.000000
0.008809 0.013353 0.000000
0.013353 -0.007887 0.000000
0.000000 0.000000 0.000000
0.012663 0.010377 0.000000
0.010377 0.029989 0.000000
0.000000 0.000000 0.000000
0.021130 0.003346 0.000000
0.003346 0.018810 0.000000
0.000000 0.000000 0.000000
0.016418 0.000780 0.000000
0.000780 0.014490 0.000000
0.000000 0.000000 0.000000
-0.011629 -0.003818 0.000000
-0.003818 0.000926 0.000000
0.000000 0.000000 0.000000
0.013430 0.011823 0.000000
0.011823 0.015458 0.000000
0.000000 0.000000 0.000000
-0.002122 0.000577 0.000000
0.000577 0.000366 0.000000
0.000000 0.000000 0.000000
-0.009479 -0.014125 0.000000
-0.014125 0.002853 0.000000
0.000000 0.000000 0.000000
-0.010724 0.018901 0.000000
0.018901 0.008984 0.000000
0.000000 0.000000 0.000000
-0.023930 -0.002528 0.000000
-0.002528 0.002141 0.000000
0.000000 0.000000 0.000000
0.011112 0.002031 0.000000
0.002031 -0.008679 0.000000
0.000000 0.000000 0.000000
0.003260 0.000217 0.000000
0.000217 -0.008492 0.000000
0.000000 0.000000 0.000000
-0.008353 -0.000252 0.000000
-0.000252 -0.017615 0.000000
0.000000 0.000000 0.000000
-0.007401 -0.004436 0.000000
-0.004436 -0.018200 0.000000
0.000000 0.000000 0.000000
-0.008498 -0.007796 0.000000
-0.007796 0.000104 0.000000
0.000000 0.000000 0.000000
0.024966 -0.011435 0.000000
-0.011435 0.007350 0.000000
0.000000 0.000000 0.000000
0.002702 0.003283 0.000000
0.003283 -0.003091 0.000000
0.000000 0.000000 0.000000
-0.008882 0.007560 0.000000
0.007560 -0.013018 0.000000
0.000000 0.000000 0.000000
-0.013689 -0.018681 0.000000
-0.018681 0.016838 0.000000
0.000000 0.000000 0.000000
-0.002604 -0.000781 0.000000
-0.000781 0.001401 0.000000
0.000000 0.000000 0.000000
0.003224 -0.002974 0.000000
-0.002974 0.010351 0.000000
0.000000 0.000000 0.000000
0.004244 -0.005258 0.000000
-0.005258 0.012525 0.000000
0.000000 0.000000 0.000000
-0.004776 0.000620 0.000000
0.000620 0.000799 0.000000
0.000000 0.000000 0.000000
-0.007622 -0.003557 0.000000
-0.003557 -0.005182 0.000000
0.000000 0.000000 0.000000
0.010947 0.000694 0.000000
0.000694 0.015358 0.000000
0.000000 0.000000 0.000000
-0.001798 -0.001944 0.000000
-0.001944 0.006379 0.000000
0.000000 0.000000 0.000000
-0.001947 -0.000343 0.000000
-0.000343 -0.007157 0.000000
0.000000 0.000000 0.000000
-0.003710 0.004902 0.000000
0.004902 -0.003378 0.000000
0.000000 0.000000 0.000000
-0.015182 0.007210 0.000000
0.007210 -0.007422 0.000000
0.000000 0.000000 0.000000
-0.001544 -0.002208 0.000000
-0.002208 -0.004007 0.000000
0.000000 0.000000 0.000000
0.005929 -0.012115 0.000000
-0.012115 -0.004822 0.000000
0.000000 0.000000 0.000000
0.002572 -0.004822 0.000000
-0.004822 0.013480 0.000000
0.000000 0.000000 0.000000
0.004576 -0.011020 0.000000
-0.011020 0.007152 0.000000
0.000000 0.000000 0.000000
-0.006799 -0.005446 0.000000
-0.005446 -0.000939 0.000000
0.000000 0.000000 0.000000
-0.001515 -0.014376 0.000000
-0.014376 -0.010162 0.000000
0.000000 0.000000 0.000000
-0.006533 0.005765 0.000000
0.005765 -0.006037 0.000000
0.000000 0.000000 0.000000
0.002841 0.000549 0.000000
0.000549 -0.016124 0.000000
0.000000 0.000000 0.000000
-0.015014 0.003356 0.000000
0.003356 0.000969 0.000000
0.000000 0.000000 0.000000
-0.003132 -0.002397 0.000000
-0.002397 -0.003426 0.000000
0.000000 0.000000 0.000000
0.040520 0.008642 0.000000
0.008642 -0.027951 0.000000
0.000000 0.000000 0.000000
0.014068 -0.005476 0.000000
-0.005476 -0.001872 0.000000
0.000000 0.000000 0.000000
-0.005281 -0.003149 0.000000
-0.003149 0.002439 0.000000
0.000000 0.000000 0.000000
-0.004455 -0.000510 0.000000
-0.000510 0.001916 0.000000
0.000000 0.000000 0.000000
0.002642 -0.016987 0.000000
-0.016987 0.014063 0.000000
0.000000 0.000000 0.000000
-0.006402 -0.012748 0.000000
-0.012748 0.017124 0.000000
0.000000 0.000000 0.000000
-0.009048 -0.010816 0.000000
-0.010816 0.010278 0.000000
0.000000 0.000000 0.000000
-0.010839 0.006080 0.000000
0.006080 -0.017540 0.000000
0.000000 0.000000 0.000000
0.000839 -0.000666 0.000000
-0.000666 -0.013337 0.000000
0.000000 0.000000 0.000000
-0.012704 0.006551 0.000000
0.006551 -0.028447 0.000000
0.000000 0.000000 0.000000
-0.000880 -0.005059 0.000000
-0.005059 -0.014665 0.000000
0.000000 0.000000 0.000000
0.001281 -0.017044 0.000000
-0.017044 -0.004478 0.000000
0.000000 0.000000 0.000000
0.008953 0.008067 0.000000
0.008067 -0.008151 0.000000
0.000000 0.000000 0.000000
-0.004378 -0.006512 0.000000
-0.006512 0.000235 0.000000
0.000000 0.000000 0.000000
0.013508 0.002972 0.000000
0.002972 -0.007418 0.000000
0.000000 0.000000 0.000000
-0.022366 -0.010536 0.000000
-0.010536 -0.035252 0.000000
0.000000 0.000000 0.000000
0.001955 -0.025337 0.000000
-0.025337 -0.015191 0.000000
0.000000 0.000000 0.000000
0.006370 0.005208 0.000000
0.005208 0.010631 0.000000
0.000000 0.000000 0.000000
0.010798 -0.000082 0.000000
-0.000082 0.002685 0.000000
0.000000 0.000000 0.000000
-0.001064 -0.001287 0.000000
-0.001287 0.008131 0.000000
0.000000 0.000000 0.000000
0.011347 -0.006264 0.000000
-0.006264 0.014792 0.000000
0.000000 0.000000 0.000000
0.009869 0.006986 0.000000
0.006986 -0.007446 0.000000
0.000000 0.000000 0.000000
-0.005102 -0.004069 0.000000
-0.004069 0.003402 0.000000
0.000000 0.000000 0.000000
-0.008439 -0.004840 0.000000
-0.004840 0.003311 0.000000
0.000000 0.000000 0.000000
0.003586 -0.000093 0.000000
-0.000093 0.001669 0.000000
0.000000 0.000000 0.000000
0.014912 -0.005315 0.000000
-0.005315 0.023704 0.000000
0.000000 0.000000 0.000000
-0.004984 -0.004950 0.000000
-0.004950 -0.014126 0.000000
0.000000 0.000000 0.000000
-0.031548 -0.002492 0.000000
-0.002492 -0.002666 0.000000
0.000000 0.000000 0.000000
-0.017846 0.022376 0.000000
0.022376 -0.009687 0.000000
0.000000 0.000000 0.000000
-0.004400 -0.003048 0.000000
-0.003048 0.002292 0.000000
0.000000 0.000000 0.000000
-0.002781 -0.002041 0.000000
-0.002041 -0.001201 0.000000
0.000000 0.000000 0.000000
-0.005795 0.006089 0.000000
0.006089 0.007113 0.000000
0.000000 0.000000 0.000000
-0.003988 -0.000667 0.000000
-0.000667 0.000122 0.000000
0.000000 0.000000 0.000000
0.032070 -0.012967 0.000000
-0.012967 0.010884 0.000000
0.000000 0.000000 0.000000
-0.010874 -0.009590 0.000000
-0.009590 -0.017910 0.000000
0.000000 0.000000 0.000000
-0.002448 -0.010613 0.000000
-0.010613 -0.015303 0.000000
0.000000 0.000000 0.000000
0.004002 -0.000653 0.000000
-0.000653 -0.005901 0.000000
0.000000 0.000000 0.000000
-0.018886 0.000587 0.000000
0.000587 0.015429 0.000000
0.000000 0.000000 0.000000
0.006922 0.002191 0.000000
0.002191 -0.002274 0.000000
0.000000 0.000000 0.000000
0.000378 0.002141 0.000000
0.002141 0.000279 0.000000
0.000000 0.000000 0.000000
0.000793 -0.000152 0.000000
-0.000152 -0.005817 0.000000
0.000000 0.000000 0.000000
0.013246 0.004324 0.000000
0.004324 0.027445 0.000000
0.000000 0.000000 0.000000
-0.002720 0.000963 0.000000
0.000963 -0.002800 0.000000
0.000000 0.000000 0.000000
-0.002168 0.001763 0.000000
0.001763 -0.005207 0.000000
0.000000 0.000000 0.000000
-0.007417 0.011218 0.000000
0.011218 -0.007531 0.000000
0.000000 0.000000 0.000000
0.000968 0.000914 0.000000
0.000914 -0.007285 0.000000
0.000000 0.000000 0.000000
-0.009305 0.010651 0.000000
0.010651 -0.006759 0.000000
0.000000 0.000000 0.000000
-0.003841 0.008523 0.000000
0.008523 -0.013670 0.000000
0.000000 0.000000 0.000000
0.004917 0.000502 0.000000
0.000502 0.039328 0.000000
0.000000 0.000000 0.000000
0.013399 0.004366 0.000000
0.004366 0.015925 0.000000
0.000000 0.000000 0.000000
-0.002450 -0.000796 0.000000
-0.000796 -0.000800 0.000000
0.000000 0.000000 0.000000
-0.007232 -0.004337 0.000000
-0.004337 0.009464 0.000000
0.000000 0.000000 0.000000
0.008125 -0.003492 0.000000
-0.003492 -0.013132 0.000000
0.000000 0.000000 0.000000
-0.000273 -0.005783 0.000000
-0.005783 0.004329 0.000000
0.000000 0.000000 0.000000
0.004070 -0.001587 0.000000
-0.001587 0.005816 0.000000
0.000000 0.000000 0.000000
0.018255 0.000527 0.000000
0.000527 0.013160 0.000000
0.000000 0.000000 0.000000
-0.021160 -0.002728 0.000000
-0.002728 -0.015000 0.000000
0.000000 0.000000 0.000000
-0.008168 0.004477 0.000000
0.004477 -0.003729 0.000000
0.000000 0.000000 0.000000
-0.023769 -0.005711 0.000000
-0.005711 -0.015862 0.000000
0.000000 0.000000 0.000000
-0.013511 0.008814 0.000000
0.008814 0.001418 0.000000
0.000000 0.000000 0.000000
0.008185 0.004682 0.000000
0.004682 -0.009674 0.000000
0.000000 0.000000 0.000000
0.000784 0.001892 0.000000
0.001892 0.001050 0.000000
0.000000 0.000000 0.000000
-0.011270 -0.004302 0.000000
-0.004302 -0.000304 0.000000
0.000000 0.000000 0.000000
-0.009700 -0.011796 0.000000
-0.011796 -0.012006 0.000000
0.000000 0.000000 0.000000
-0.002724 0.002850 0.000000
0.002850 -0.003045 0.000000
0.000000 0.000000 0.000000
-0.006704 -0.001933 0.000000
-0.001933 -0.019229 0.000000
0.000000 0.000000 0.000000
0.010585 -0.000074 0.000000
-0.000074 0.020084 0.000000
0.000000 0.000000 0.000000
-0.006583 -0.008344 0.000000
-0.008344 -0.020161 0.000000
0.000000 0.000000 0.000000
-0.011912 0.002999 0.000000
0.002999 0.016232 0.000000
0.000000 0.000000 0.000000
0.021382 -0.007884 0.000000
-0.007884 -0.004186 0.000000
0.000000 0.000000 0.000000
0.000616 0.002467 0.000000
0.002467 0.015708 0.000000
0.000000 0.000000 0.000000
-0.001487 0.003263 0.000000
0.003263 0.011075 0.000000
0.000000 0.000000 0.000000
0.001927 -0.002549 0.000000
-0.002549 -0.000199 0.000000
0.000000 0.000000 0.000000
-0.017814 0.017638 0.000000
0.017638 -0.020338 0.000000
0.000000 0.000000 0.000000
0.000928 -0.000947 0.000000
-0.000947 0.001761 0.000000
0.000000 0.000000 0.000000
-0.003655 -0.001793 0.000000
-0.001793 -0.004931 0.000000
0.000000 0.000000 0.000000
-0.009633 0.013853 0.000000
0.013853 0.005726 0.000000
0.000000 0.000000 0.000000
-0.003573 0.000782 0.000000
0.000782 -0.005874 0.000000
0.000000 0.000000 0.000000
-0.008586 -0.002057 0.000000
-0.002057 -0.025887 0.000000
0.000000 0.000000 0.000000
-0.016361 -0.003495 0.000000
-0.003495 0.004479 0.000000
0.000000 0.000000 0.000000
-0.009448 -0.006063 0.000000
-0.006063 -0.025580 0.000000
0.000000 0.000000 0.000000
-0.005645 0.016742 0.000000
0.016742 0.010731 0.000000
0.000000 0.000000 0.000000
0.005520 -0.000792 0.000000
-0.000792 -0.005663 0.000000
0.000000 0.000000 0.000000
0.006407 0.001084 0.000000
0.001084 -0.007773 0.000000
0.000000 0.000000 0.000000
0.005383 -0.001474 0.000000
-0.001474 -0.014411 0.000000
0.000000 0.000000 0.000000
0.008273 -0.005039 0.000000
-0.005039 -0.000347 0.000000
0.000000 0.000000 0.000000
0.003125 -0.002175 0.000000
-0.002175 -0.009141 0.000000
0.000000 0.000000 0.000000
0.006704 0.000230 0.000000
0.000230 -0.000700 0.000000
0.000000 0.000000 0.000000
0.010972 -0.007260 0.000000
-0.007260 -0.009079 0.000000
0.000000 0.000000 0.000000
0.011494 -0.014862 0.000000
-0.014862 0.014046 0.000000
0.000000 0.000000 0.000000
-0.014744 0.001978 0.000000
0.001978 -0.000831 0.000000
0.000000 0.000000 0.000000
0.000536 0.002216 0.000000
0.002216 -0.008904 0.000000
0.000000 0.000000 0.000000
0.006610 0.007254 0.000000
0.007254 0.003830 0.000000
0.000000 0.000000 0.000000
-0.003245 0.008844 0.000000
0.008844 0.000067 0.000000
0.000000 0.000000 0.000000
0.005626 -0.002686 0.000000
-0.002686 0.001630 0.000000
0.000000 0.000000 0.000000
0.001565 -0.010439 0.000000
-0.010439 0.007026 0.000000
0.000000 0.000000 0.000000
0.009260 0.008333 0.000000
0.008333 0.006105 0.000000
0.000000 0.000000 0.000000
0.010596 -0.006864 0.000000
-0.006864 0.020647 0.000000
0.000000 0.000000 0.000000
0.005953 -0.003025 0.000000
-0.003025 0.016645 0.000000
0.000000 0.000000 0.000000
0.023095 -0.005858 0.000000
-0.005858 0.008000 0.000000
0.000000 0.000000 0.000000
-0.005069 -0.009354 0.000000
-0.009354 -0.008430 0.000000
0.000000 0.000000 0.000000
-0.005648 -0.003513 0.000000
-0.003513 0.009855 0.000000
0.000000 0.000000 0.000000
-0.000179 0.000240 0.000000
0.000240 0.010710 0.000000
0.000000 0.000000 0.000000
-0.007977 0.005317 0.000000
0.005317 -0.013305 0.000000
0.000000 0.000000 0.000000
-0.009958 -0.002987 0.000000
-0.002987 -0.001846 0.000000
0.000000 0.000000 0.000000
-0.012033 0.006019 0.000000
0.006019 -0.004462 0.000000
0.000000 0.000000 0.000000
0.001650 0.001912 0.000000
0.001912 0.004419 0.000000
0.000000 0.000000 0.000000
-0.001968 0.001859 0.000000
0.001859 -0.008254 0.000000
0.000000 0.000000 0.000000
-0.004179 -0.000011 0.000000
-0.000011 -0.011145 0.000000
0.000000 0.000000 0.000000
-0.005137 -0.003019 0.000000
-0.003019 -0.005653 0.000000
0.000000 0.000000 0.000000
-0.002039 -0.003590 0.000000
-0.003590 -0.006736 0.000000
0.000000 0.000000 0.000000
0.005301 0.002935 0.000000
0.002935 -0.008664 0.000000
0.000000 0.000000 0.000000
0.003750 0.003334 0.000000
0.003334 -0.006861 0.000000
0.000000 0.000000 0.000000
0.001962 -0.002187 0.000000
-0.002187 -0.007614 0.000000
0.000000 0.000000 0.000000
-0.001314 0.003783 0.000000
0.003783 -0.004840 0.000000
0.000000 0.000000 0.000000
0.003936 -0.001358 0.000000
-0.001358 0.007070 0.000000
0.000000 0.000000 0.000000
0.001596 -0.002988 0.000000
-0.002988 0.007589 0.000000
0.000000 0.000000 0.000000
-0.016872 -0.004681 0.000000
-0.004681 0.002114 0.000000
0.000000 0.000000 0.000000
-0.008153 -0.017867 0.000000
-0.017867 0.013263 0.000000
0.000000 0.000000 0.000000
-0.005587 -0.001241 0.000000
-0.001241 0.019607 0.000000
0.000000 0.000000 0.000000
-0.002651 -0.000381 0.000000
-0.000381 -0.000423 0.000000
0.000000 0.000000 0.000000
0.001679 -0.001591 0.000000
-0.001591 -0.000987 0.000000
0.000000 0.000000 0.000000
0.018810 -0.007773 0.000000
-0.007773 0.022201 0.000000
0.000000 0.000000 0.000000
0.008715 0.000213 0.000000
0.000213 -0.002196 0.000000
0.000000 0.000000 0.000000
0.005335 0.002543 0.000000
0.002543 0.009522 0.000000
0.000000 0.000000 0.000000
0.005939 -0.002735 0.000000
-0.002735 0.009375 0.000000
0.000000 0.000000 0.000000
0.001191 0.013709 0.000000
0.013709 0.015620 0.000000
0.000000 0.000000 0.000000
0.012588 0.004217 0.000000
0.004217 0.013339 0.000000
0.000000 0.000000 0.000000
-0.002533 0.003286 0.000000
0.003286 0.004263 0.000000
0.000000 0.000000 0.000000
0.000200 0.001894 0.000000
0.001894 0.005395 0.000000
0.000000 0.000000 0.000000
0.010962 0.003815 0.000000
0.003815 0.014696 0.000000
0.000000 0.000000 0.000000
-0.010335 -0.004881 0.000000
-0.004881 0.001995 0.000000
0.000000 0.000000 0.000000
-0.019676 -0.000248 0.000000
-0.000248 0.002821 0.000000
0.000000 0.000000 0.000000
-0.015840 0.003631 0.000000
0.003631 0.002272 0.000000
0.000000 0.000000 0.000000
0.006275 0.012032 0.000000
0.012032 -0.007845 0.000000
0.000000 0.000000 0.000000
0.010076 0.013832 0.000000
0.013832 -0.013630 0.000000
0.000000 0.000000 0.000000
0.003214 0.014932 0.000000
0.014932 -0.000917 0.000000
0.000000 0.000000 0.000000
-0.017284 -0.005980 0.000000
-0.005980 -0.005997 0.000000
0.000000 0.000000 0.000000
-0.001376 -0.000557 0.000000
-0.000557 0.002475 0.000000
0.000000 0.000000 0.000000
0.002029 0.006608 0.000000
0.006608 -0.002316 0.000000
0.000000 0.000000 0.000000
-0.006672 0.000817 0.000000
0.000817 -0.018039 0.000000
0.000000 0.000000 0.000000
0.002729 0.005798 0.000000
0.005798 0.004434 0.000000
0.000000 0.000000 0.000000
-0.004527 0.004184 0.000000
0.004184 0.009796 0.000000
0.000000 0.000000 0.000000
0.007238 -0.001293 0.000000
-0.001293 0.017288 0.000000
0.000000 0.000000 0.000000
0.004487 0.001035 0.000000
0.001035 0.003584 0.000000
0.000000 0.000000 0.000000
0.001141 -0.001754 0.000000
-0.001754 0.001258 0.000000
0.000000 0.000000 0.000000
0.008783 0.011931 0.000000
0.011931 0.004101 0.000000
0.000000 0.000000 0.000000
-0.007997 -0.004875 0.000000
-0.004875 0.007348 0.000000
0.000000 0.000000 0.000000
0.011216 0.009273 0.000000
0.009273 0.002655 0.000000
0.000000 0.000000 0.000000
-0.012413 -0.000180 0.000000
-0.000180 -0.010238 0.000000
0.000000 0.000000 0.000000
-0.000652 0.004260 0.000000
0.004260 -0.005400 0.000000
0.000000 0.000000 0.000000
-0.013244 -0.002780 0.000000
-0.002780 0.006900 0.000000
0.000000 0.000000 0.000000
0.011025 -0.009325 0.000000
-0.009325 -0.002754 0.000000
0.000000 0.000000 0.000000
0.012007 -0.010886 0.000000
-0.010886 -0.000373 0.000000
0.000000 0.000000 0.000000
-0.007129 0.001793 0.000000
0.001793 0.003210 0.000000
0.000000 0.000000 0.000000
-0.004382 0.003400 0.000000
0.003400 0.009700 0.000000
0.000000 0.000000 0.000000
0.006926 0.004252 0.000000
0.004252 0.015208 0.000000
0.000000 0.000000 0.000000
-0.010664 0.002990 0.000000
0.002990 0.008280 0.000000
0.000000 0.000000 0.000000
-0.007236 0.006071 0.000000
0.006071 -0.002010 0.000000
0.000000 0.000000 0.000000
0.001740 0.008238 0.000000
0.008238 0.007810 0.000000
0.000000 0.000000 0.000000
0.012120 0.006519 0.000000
0.006519 -0.003736 0.000000
0.000000 0.000000 0.000000
-0.009791 -0.000029 0.000000
-0.000029 -0.024712 0.000000
0.000000 0.000000 0.000000
-0.009879 0.011283 0.000000
0.011283 0.003190 0.000000
0.000000 0.000000 0.000000
0.022091 0.000693 0.000000
0.000693 0.008582 0.000000
0.000000 0.000000 0.000000
-0.000873 0.007560 0.000000
0.007560 0.000107 0.000000
0.000000 0.000000 0.000000
-0.001027 -0.009460 0.000000
-0.009460 -0.014488 0.000000
0.000000 0.000000 0.000000
0.017775 0.002536 0.000000
0.002536 0.017840 0.000000
0.000000 0.000000 0.000000
0.006577 -0.015798 0.000000
-0.015798 0.017354 0.000000
0.000000 0.000000 0.000000
-0.000683 0.006522 0.000000
0.006522 0.002012 0.000000
0.000000 0.000000 0.000000
0.004114 -0.000809 0.000000
-0.000809 -0.014946 0.000000
0.000000 0.000000 0.000000
0.012798 -0.003766 0.000000
-0.003766 -0.011702 0.000000
0.000000 0.000000 0.000000
-0.005339 0.009508 0.000000
0.009508 -0.001761 0.000000
0.000000 0.000000 0.000000
0.015325 -0.004801 0.000000
-0.004801 0.009580 0.000000
0.000000 0.000000 0.000000
-0.003216 -0.004451 0.000000
-0.004451 0.012366 0.000000
0.000000 0.000000 0.000000
0.000525 -0.002122 0.000000
-0.002122 0.011046 0.000000
0.000000 0.000000 0.000000
0.000018 0.003500 0.000000
0.003500 -0.001875 0.000000
0.000000 0.000000 0.000000
0.001324 -0.001946 0.000000
-0.001946 0.011854 0.000000
0.000000 0.000000 0.000000
0.001141 0.010350 0.000000
0.010350 0.025596 0.000000
0.000000 0.000000 0.000000
-0.011021 -0.002525 0.000000
-0.002525 -0.017312 0.000000
0.000000 0.000000 0.000000
0.001879 0.004590 0.000000
0.004590 0.011303 0.000000
0.000000 0.000000 0.000000
-0.001598 0.000901 0.000000
0.000901 -0.009160 0.000000
0.000000 0.000000 0.000000
0.004835 -0.007414 0.000000
-0.007414 0.020182 0.000000
0.000000 0.000000 0.000000
-0.001987 -0.012124 0.000000
-0.012124 0.005304 0.000000
0.000000 0.000000 0.000000
0.011931 -0.007077 0.000000
-0.007077 0.010315 0.000000
0.000000 0.000000 0.000000
-0.023954 -0.001553 0.000000
-0.001553 0.020289 0.000000
0.000000 0.000000 0.000000
0.002757 -0.015596 0.000000
-0.015596 0.001254 0.000000
0.000000 0.000000 0.000000
-0.016152 -0.007954 0.000000
-0.007954 -0.008021 0.000000
0.000000 0.000000 0.000000
0.017504 -0.037314 0.000000
-0.037314 -0.005735 0.000000
0.000000 0.000000 0.000000
-0.014697 -0.008091 0.000000
-0.008091 0.014778 0.000000
0.000000 0.000000 0.000000
0.000137 0.004721 0.000000
0.004721 -0.026411 0.000000
0.000000 0.000000 0.000000
-0.012495 0.010083 0.000000
0.010083 -0.022238 0.000000
0.000000 0.000000 0.000000
0.004969 -0.001331 0.000000
-0.001331 0.018201 0.000000
0.000000 0.000000 0.000000
0.002900 -0.011843 0.000000
-0.011843 -0.003804 0.000000
0.000000 0.000000 0.000000
-0.004548 -0.001828 0.000000
-0.001828 -0.014038 0.000000
0.000000 0.000000 0.000000
-0.006704 0.003991 0.000000
0.003991 0.017483 0.000000
0.000000 0.000000 0.000000
0.004856 -0.002573 0.000000
-0.002573 0.023545 0.000000
0.000000 0.000000 0.000000
0.004743 -0.007331 0.000000
-0.007331 -0.017033 0.000000
0.000000 0.000000 0.000000
0.008384 -0.007704 0.000000
-0.007704 -0.015971 0.000000
0.000000 0.000000 0.000000
0.011077 -0.000446 0.000000
-0.000446 0.001439 0.000000
0.000000 0.000000 0.000000
0.006323 -0.000381 0.000000
-0.000381 0.000694 0.000000
0.000000 0.000000 0.000000
0.004782 0.008302 0.000000
0.008302 -0.010470 0.000000
0.000000 0.000000 0.000000
-0.010232 0.001933 0.000000
0.001933 -0.004327 0.000000
0.000000 0.000000 0.000000
0.004721 0.003379 0.000000
0.003379 -0.016586 0.000000
0.000000 0.000000 0.000000
0.017968 -0.027051 0.000000
-0.027051 0.018288 0.000000
0.000000 0.000000 0.000000
-0.008266 0.000817 0.000000
0.000817 0.014169 0.000000
0.000000 0.000000 0.000000
-0.011482 0.001203 0.000000
0.001203 -0.013401 0.000000
0.000000 0.000000 0.000000
-0.005518 0.002118 0.000000
0.002118 -0.001774 0.000000
0.000000 0.000000 0.000000
0.015680 -0.027222 0.000000
-0.027222 0.002090 0.000000
0.000000 0.000000 0.000000
-0.012108 -0.003262 0.000000
-0.003262 -0.020953 0.000000
0.000000 0.000000 0.000000
-0.006352 -0.000363 0.000000
-0.000363 -0.025211 0.000000
0.000000 0.000000 0.000000
-0.005933 -0.009068 0.000000
-0.009068 0.003128 0.000000
0.000000 0.000000 0.000000
0.009220 0.007445 0.000000
0.007445 0.002198 0.000000
0.000000 0.000000 0.000000
-0.005786 0.010171 0.000000
0.010171 -0.044961 0.000000
0.000000 0.000000 0.000000
-0.003926 0.005116 0.000000
0.005116 0.002237 0.000000
0.000000 0.000000 0.000000
-0.003874 0.009118 0.000000
0.009118 0.003536 0.000000
0.000000 0.000000 0.000000
0.008707 0.010156 0.000000
0.010156 0.005620 0.000000
0.000000 0.000000 0.000000
-0.003118 -0.007034 0.000000
-0.007034 0.014098 0.000000
0.000000 0.000000 0.000000
0.012476 -0.000463 0.000000
-0.000463 0.006599 0.000000
0.000000 0.000000 0.000000
0.003888 0.015010 0.000000
0.015010 -0.020228 0.000000
0.000000 0.000000 0.000000
0.009087 0.016011 0.000000
0.016011 -0.003089 0.000000
0.000000 0.000000 0.000000
0.000423 -0.001443 0.000000
-0.001443 0.003211 0.000000
0.000000 0.000000 0.000000
0.008373 0.000042 0.000000
0.000042 0.011670 0.000000
0.000000 0.000000 0.000000
0.002791 0.005184 0.000000
0.005184 0.002602 0.000000
0.000000 0.000000 0.000000
0.006760 0.000745 0.000000
0.000745 0.006432 0.000000
0.000000 0.000000 0.000000
-0.011392 0.001109 0.000000
0.001109 -0.002845 0.000000
0.000000 0.000000 0.000000
0.001018 0.000219 0.000000
0.000219 0.001762 0.000000
0.000000 0.000000 0.000000
-0.012026 -0.000295 0.000000
-0.000295 0.000898 0.000000
0.000000 0.000000 0.000000
0.009901 -0.008438 0.000000
-0.008438 0.011792 0.000000
0.000000 0.000000 0.000000
-0.000899 0.002185 0.000000
0.002185 -0.005074 0.000000
0.000000 0.000000 0.000000
0.000374 0.001692 0.000000
0.001692 0.009858 0.000000
0.000000 0.000000 0.000000
0.003857 -0.000152 0.000000
-0.000152 0.000453 0.000000
0.000000 0.000000 0.000000
0.003770 -0.001204 0.000000
-0.001204 0.007923 0.000000
0.000000 0.000000 0.000000
0.000109 0.015312 0.000000
0.015312 0.014884 0.000000
0.000000 0.000000 0.000000
-0.012429 -0.003075 0.000000
-0.003075 0.001476 0.000000
0.000000 0.000000 0.000000
-0.004810 -0.000338 0.000000
-0.000338 -0.002833 0.000000
0.000000 0.000000 0.000000
0.035092 -0.010238 0.000000
-0.010238 -0.004646 0.000000
0.000000 0.000000 0.000000
-0.010205 0.038147 0.000000
0.038147 -0.002732 0.000000
0.000000 0.000000 0.000000
-0.003974 0.019981 0.000000
0.019981 0.032632 0.000000
0.000000 0.000000 0.000000
-0.023069 0.008009 0.000000
0.008009 0.005097 0.000000
0.000000 0.000000 0.000000
-0.000360 0.000363 0.000000
0.000363 0.003784 0.000000
0.000000 0.000000 0.000000
-0.000096 0.000803 0.000000
0.000803 0.002395 0.000000
0.000000 0.000000 0.000000
0.004419 0.000516 0.000000
0.000516 0.001711 0.000000
0.000000 0.000000 0.000000
-0.002085 0.000834 0.000000
0.000834 -0.001830 0.000000
0.000000 0.000000 0.000000
-0.000933 -0.004441 0.000000
-0.004441 -0.006618 0.000000
0.000000 0.000000 0.000000
-0.004001 0.000031 0.000000
0.000031 0.009235 0.000000
0.000000 0.000000 0.000000
0.004596 0.000071 0.000000
0.000071 -0.014231 0.000000
0.000000 0.000000 0.000000
0.012141 -0.018375 0.000000
-0.018375 0.022230 0.000000
0.000000 0.000000 0.000000
0.017483 -0.007637 0.000000
-0.007637 0.022384 0.000000
0.000000 0.000000 0.000000
0.010141 -0.010535 0.000000
-0.010535 0.017833 0.000000
0.000000 0.000000 0.000000
0.002114 -0.003194 0.000000
-0.003194 0.002503 0.000000
0.000000 0.000000 0.000000
-0.011291 -0.001517 0.000000
-0.001517 0.008333 0.000000
0.000000 0.000000 0.000000
-0.005582 -0.001171 0.000000
-0.001171 0.007650 0.000000
0.000000 0.000000 0.000000
-0.017419 0.003999 0.000000
0.003999 -0.002825 0.000000
0.000000 0.000000 0.000000
0.001765 0.002176 0.000000
0.002176 0.008696 0.000000
0.000000 0.000000 0.000000
0.006775 0.001704 0.000000
0.001704 0.004616 0.000000
0.000000 0.000000 0.000000
-0.003793 0.001178 0.000000
0.001178 -0.013581 0.000000
0.000000 0.000000 0.000000
-0.024066 0.002347 0.000000
0.002347 0.002764 0.000000
0.000000 0.000000 0.000000
-0.006578 0.000051 0.000000
0.000051 -0.015853 0.000000
0.000000 0.000000 0.000000
-0.007992 0.004276 0.000000
0.004276 -0.030675 0.000000
0.000000 0.000000 0.000000
0.002691 0.000808 0.000000
0.000808 0.002473 0.000000
0.000000 0.000000 0.000000
0.000850 0.011885 0.000000
0.011885 0.007388 0.000000
0.000000 0.000000 0.000000
0.016840 -0.007351 0.000000
-0.007351 0.005461 0.000000
0.000000 0.000000 0.000000
0.003783 -0.010281 0.000000
-0.010281 0.000297 0.000000
0.000000 0.000000 0.000000
-0.006184 -0.000032 0.000000
-0.000032 -0.023567 0.000000
0.000000 0.000000 0.000000
-0.003909 0.005205 0.000000
0.005205 -0.017084 0.000000
0.000000 0.000000 0.000000
0.017304 0.005360 0.000000
0.005360 -0.013824 0.000000
0.000000 0.000000 0.000000
0.006723 0.007522 0.000000
0.007522 0.004602 0.000000
0.000000 0.000000 0.000000
0.002342 0.004930 0.000000
0.004930 0.005466 0.000000
0.000000 0.000000 0.000000
0.001206 -0.004735 0.000000
-0.004735 -0.000030 0.000000
0.000000 0.000000 0.000000
0.007336 0.004478 0.000000
0.004478 0.013880 0.000000
0.000000 0.000000 0.000000
0.007738 -0.008219 0.000000
-0.008219 0.006143 0.000000
0.000000 0.000000 0.000000
0.027146 0.003064 0.000000
0.003064 -0.002152 0.000000
0.000000 0.000000 0.000000
-0.001049 -0.002641 0.000000
-0.002641 -0.013863 0.000000
0.000000 0.000000 0.000000
0.006501 0.007023 0.000000
0.007023 0.004750 0.000000
0.000000 0.000000 0.000000
-0.004750 -0.001411 0.000000
-0.001411 -0.014717 0.000000
0.000000 0.000000 0.000000
0.016196 -0.000392 0.000000
-0.000392 0.004280 0.000000
0.000000 0.000000 0.000000
0.005635 0.010358 0.000000
0.010358 -0.000766 0.000000
0.000000 0.000000 0.000000
0.011775 0.000173 0.000000
0.000173 0.009642 0.000000
0.000000 0.000000 0.000000
0.013564 0.001615 0.000000
0.001615 -0.000518 0.000000
0.000000 0.000000 0.000000
-0.016952 0.002813 0.000000
0.002813 -0.009510 0.000000
0.000000 0.000000 0.000000
-0.009675 0.008929 0.000000
0.008929 -0.009920 0.000000
0.000000 0.000000 0.000000
-0.006196 -0.005003 0.000000
-0.005003 0.004484 0.000000
0.000000 0.000000 0.000000
-0.006119 -0.000449 0.000000
-0.000449 0.004273 0.000000
0.000000 0.000000 0.000000
0.000433 -0.004409 0.000000
-0.004409 -0.013052 0.000000
0.000000 0.000000 0.000000
-0.020016 -0.006233 0.000000
-0.006233 -0.006901 0.000000
0.000000 0.000000 0.000000
-0.006427 0.004387 0.000000
0.004387 0.023436 0.000000
0.000000 0.000000 0.000000
-0.017756 -0.003660 0.000000
-0.003660 0.010703 0.000000
0.000000 0.000000 0.000000
-0.012120 0.006222 0.000000
0.006222 -0.011436 0.000000
0.000000 0.000000 0.000000
-0.004821 0.000474 0.000000
0.000474 0.000878 0.000000
0.000000 0.000000 0.000000
-0.009290 -0.002202 0.000000
-0.002202 0.022738 0.000000
0.000000 0.000000 0.000000
-0.001890 0.001397 0.000000
0.001397 0.002060 0.000000
0.000000 0.000000 0.000000
-0.001950 0.003685 0.000000
0.003685 -0.003563 0.000000
0.000000 0.000000 0.000000
-0.007094 0.002886 0.000000
0.002886 -0.014521 0.000000
0.000000 0.000000 0.000000
0.008729 -0.005224 0.000000
-0.005224 0.011007 0.000000
0.000000 0.000000 0.000000
0.000970 -0.003102 0.000000
-0.003102 0.001841 0.000000
0.000000 0.000000 0.000000
0.005564 0.007916 0.000000
0.007916 0.004670 0.000000
0.000000 0.000000 0.000000
-0.001167 -0.000727 0.000000
-0.000727 -0.002326 0.000000
0.000000 0.000000 0.000000
0.014029 -0.010348 0.000000
-0.010348 0.013650 0.000000
0.000000 0.000000 0.000000
-0.000987 0.005098 0.000000
0.005098 0.004875 0.000000
0.000000 0.000000 0.000000
0.032660 -0.009841 0.000000
-0.009841 0.005437 0.000000
0.000000 0.000000 0.000000
0.033941 -0.008894 0.000000
-0.008894 0.007014 0.000000
0.000000 0.000000 0.000000
-0.004384 -0.011866 0.000000
-0.011866 0.001070 0.000000
0.000000 0.000000 0.000000
-0.020120 0.010529 0.000000
0.010529 0.000408 0.000000
0.000000 0.000000 0.000000
-0.005331 0.018633 0.000000
0.018633 0.014764 0.000000
0.000000 0.000000 0.000000
0.016358 -0.007790 0.000000
-0.007790 -0.005613 0.000000
0.000000 0.000000 0.000000
0.006061 0.006796 0.000000
0.006796 -0.023604 0.000000
0.000000 0.000000 0.000000
-0.000742 0.004926 0.000000
0.004926 0.005390 0.000000
0.000000 0.000000 0.000000
0.022719 0.010778 0.000000
0.010778 0.019775 0.000000
0.000000 0.000000 0.000000
0.000978 0.021362 0.000000
0.021362 -0.041431 0.000000
0.000000 0.000000 0.000000
0.010271 0.005424 0.000000
0.005424 0.003591 0.000000
0.000000 0.000000 0.000000
0.004773 -0.001034 0.000000
-0.001034 0.000366 0.000000
0.000000 0.000000 0.000000
0.007852 -0.001658 0.000000
-0.001658 0.010816 0.000000
0.000000 0.000000 0.000000
-0.016341 0.001168 0.000000
0.001168 -0.001957 0.000000
0.000000 0.000000 0.000000
-0.009636 0.003332 0.000000
0.003332 -0.004035 0.000000
0.000000 0.000000 0.000000
0.003129 -0.003079 0.000000
-0.003079 -0.000626 0.000000
0.000000 0.000000 0.000000
0.000154 -0.010056 0.000000
-0.010056 0.016550 0.000000
0.000000 0.000000 0.000000
0.002841 0.002395 0.000000
0.002395 -0.011904 0.000000
0.000000 0.000000 0.000000
0.009512 -0.017322 0.000000
-0.017322 0.026401 0.000000
0.000000 0.000000 0.000000
0.003685 -0.000136 0.000000
-0.000136 -0.007373 0.000000
0.000000 0.000000 0.000000
0.014883 0.010002 0.000000
0.010002 -0.009041 0.000000
0.000000 0.000000 0.000000
-0.004708 0.003699 0.000000
0.003699 0.004250 0.000000
0.000000 0.000000 0.000000
0.015750 0.010226 0.000000
0.010226 -0.000400 0.000000
0.000000 0.000000 0.000000
-0.002658 -0.002279 0.000000
-0.002279 -0.000834 0.000000
0.000000 0.000000 0.000000
-0.012057 0.001166 0.000000
0.001166 0.011769 0.000000
0.000000 0.000000 0.000000
0.004173 0.012233 0.000000
0.012233 -0.000813 0.000000
0.000000 0.000000 0.000000
0.005506 0.000936 0.000000
0.000936 0.015665 0.000000
0.000000 0.000000 0.000000
-0.009729 -0.006243 0.000000
-0.006243 -0.005153 0.000000
0.000000 0.000000 0.000000
0.005606 -0.000669 0.000000
-0.000669 -0.007925 0.000000
0.000000 0.000000 0.000000
-0.001995 0.013553 0.000000
0.013553 0.007637 0.000000
0.000000 0.000000 0.000000
-0.018649 0.002741 0.000000
0.002741 -0.012070 0.000000
0.000000 0.000000 0.000000
0.008563 -0.009011 0.000000
-0.009011 0.006296 0.000000
0.000000 0.000000 0.000000
0.006340 -0.001668 0.000000
-0.001668 0.000112 0.000000
0.000000 0.000000 0.000000
-0.002286 -0.007868 0.000000
-0.007868 0.021467 0.000000
0.000000 0.000000 0.000000
0.009633 0.006627 0.000000
0.006627 -0.005998 0.000000
0.000000 0.000000 0.000000
0.019243 -0.001201 0.000000
-0.001201 0.000131 0.000000
0.000000 0.000000 0.000000
0.007004 -0.005975 0.000000
-0.005975 0.001795 0.000000
0.000000 0.000000 0.000000
-0.002461 0.000192 0.000000
0.000192 0.000524 0.000000
0.000000 0.000000 0.000000
0.001118 -0.008796 0.000000
-0.008796 0.002689 0.000000
0.000000 0.000000 0.000000
-0.011189 0.006386 0.000000
0.006386 -0.005033 0.000000
0.000000 0.000000 0.000000
-0.001209 0.000324 0.000000
0.000324 0.005802 0.000000
0.000000 0.000000 0.000000
-0.008508 0.004161 0.000000
0.004161 -0.002857 0.000000
0.000000 0.000000 0.000000
0.012056 -0.003632 0.000000
-0.003632 0.015367 0.000000
0.000000 0.000000 0.000000
0.014397 0.000112 0.000000
0.000112 0.015158 0.000000
0.000000 0.000000 0.000000
0.005500 -0.002220 0.000000
-0.002220 -0.015995 0.000000
0.000000 0.000000 0.000000
0.001926 0.002436 0.000000
0.002436 0.005750 0.000000
0.000000 0.000000 0.000000
0.003312 -0.006055 0.000000
-0.006055 -0.000414 0.000000
0.000000 0.000000 0.000000
-0.006670 -0.001494 0.000000
-0.001494 -0.014663 0.000000
0.000000 0.000000 0.000000
-0.003967 0.001122 0.000000
0.001122 0.004332 0.000000
0.000000 0.000000 0.000000
-0.005612 -0.003583 0.000000
-0.003583 0.000297 0.000000
0.000000 0.000000 0.000000
0.007535 0.011500 0.000000
0.011500 -0.021006 0.000000
0.000000 0.000000 0.000000
0.016592 0.004984 0.000000
0.004984 0.004280 0.000000
0.000000 0.000000 0.000000
-0.029503 0.017352 0.000000
0.017352 -0.010177 0.000000
0.000000 0.000000 0.000000
0.018123 0.003220 0.000000
0.003220 0.000625 0.000000
0.000000 0.000000 0.000000
0.017565 0.008145 0.000000
0.008145 -0.006961 0.000000
0.000000 0.000000 0.000000
0.017983 0.008908 0.000000
0.008908 -0.011346 0.000000
0.000000 0.000000 0.000000
-0.017042 -0.004576 0.000000
-0.004576 0.008132 0.000000
0.000000 0.000000 0.000000
0.002160 -0.001527 0.000000
-0.001527 0.014733 0.000000
0.000000 0.000000 0.000000
-0.003912 0.021508 0.000000
0.021508 -0.013565 0.000000
0.000000 0.000000 0.000000
0.005609 -0.000400 0.000000
-0.000400 0.010470 0.000000
0.000000 0.000000 0.000000
0.000557 0.000324 0.000000
0.000324 -0.001175 0.000000
0.000000 0.000000 0.000000
0.015771 -0.012656 0.000000
-0.012656 0.014643 0.000000
0.000000 0.000000 0.000000
0.006787 0.014638 0.000000
0.014638 0.010806 0.000000
0.000000 0.000000 0.000000
-0.003978 0.020730 0.000000
0.020730 0.000293 0.000000
0.000000 0.000000 0.000000
0.009331 0.012373 0.000000
0.012373 0.020550 0.000000
0.000000 0.000000 0.000000
0.018887 -0.011442 0.000000
-0.011442 0.016558 0.000000
0.000000 0.000000 0.000000
-0.006846 0.004018 0.000000
0.004018 0.015013 0.000000
0.000000 0.000000 0.000000
0.007833 -0.008776 0.000000
-0.008776 0.010493 0.000000
0.000000 0.000000 0.000000
-0.004327 -0.000974 0.000000
-0.000974 -0.003005 0.000000
0.000000 0.000000 0.000000
-0.005642 -0.004123 0.000000
-0.004123 -0.017476 0.000000
0.000000 0.000000 0.000000
0.024565 -0.006329 0.000000
-0.006329 0.013596 0.000000
0.000000 0.000000 0.000000
-0.010276 0.005023 0.000000
0.005023 0.006144 0.000000
0.000000 0.000000 0.000000
-0.008304 -0.002232 0.000000
-0.002232 -0.024180 0.000000
0.000000 0.000000 0.000000
0.000061 0.004367 0.000000
0.004367 -0.005479 0.000000
0.000000 0.000000 0.000000
-0.000458 0.000738 0.000000
0.000738 -0.000227 0.000000
0.000000 0.000000 0.000000
0.003975 0.006719 0.000000
0.006719 0.003155 0.000000
0.000000 0.000000 0.000000
-0.001791 0.009976 0.000000
0.009976 0.001671 0.000000
0.000000 0.000000 0.000000
-0.006524 0.000075 0.000000
0.000075 0.022823 0.000000
0.000000 0.000000 0.000000
0.009614 0.007683 0.000000
0.007683 -0.011784 0.000000
0.000000 0.000000 0.000000
-0.005683 0.005794 0.000000
0.005794 0.005722 0.000000
0.000000 0.000000 0.000000
0.001259 0.007437 0.000000
0.007437 -0.001338 0.000000
0.000000 0.000000 0.000000
0.005352 -0.006718 0.000000
-0.006718 -0.007270 0.000000
0.000000 0.000000 0.000000
0.005120 0.002047 0.000000
0.002047 0.013663 0.000000
0.000000 0.000000 0.000000
0.008870 -0.003882 0.000000
-0.003882 -0.001917 0.000000
0.000000 0.000000 0.000000
0.007815 -0.012876 0.000000
-0.012876 -0.010050 0.000000
0.000000 0.000000 0.000000
0.011519 0.014645 0.000000
0.014645 -0.000853 0.000000
0.000000 0.000000 0.000000
0.001044 0.010759 0.000000
0.010759 0.018359 0.000000
0.000000 0.000000 0.000000
-0.001509 -0.001333 0.000000
-0.001333 0.001764 0.000000
0.000000 0.000000 0.000000
0.022760 -0.000523 0.000000
-0.000523 -0.033694 0.000000
0.000000 0.000000 0.000000
0.000271 0.013811 0.000000
0.013811 -0.004209 0.000000
0.000000 0.000000 0.000000
-0.007162 -0.001805 0.000000
-0.001805 0.005724 0.000000
0.000000 0.000000 0.000000
0.000896 -0.003303 0.000000
-0.003303 0.012856 0.000000
0.000000 0.000000 0.000000
-0.003857 0.004325 0.000000
0.004325 0.007586 0.000000
0.000000 0.000000 0.000000
0.021528 -0.013648 0.000000
-0.013648 -0.016163 0.000000
0.000000 0.000000 0.000000
0.008048 -0.002502 0.000000
-0.002502 0.010358 0.000000
0.000000 0.000000 0.000000
-0.007136 -0.003944 0.000000
-0.003944 -0.005575 0.000000
0.000000 0.000000 0.000000
0.016665 0.002773 0.000000
0.002773 -0.002791 0.000000
0.000000 0.000000 0.000000
0.006251 -0.005144 0.000000
-0.005144 0.006555 0.000000
0.000000 0.000000 0.000000
0.008608 -0.001508 0.000000
-0.001508 0.000423 0.000000
0.000000 0.000000 0.000000
0.020478 0.010565 0.000000
0.010565 0.017763 0.000000
0.000000 0.000000 0.000000
0.013001 0.023118 0.000000
0.023118 0.012752 0.000000
0.000000 0.000000 0.000000
0.001219 -0.001401 0.000000
-0.001401 -0.010722 0.000000
0.000000 0.000000 0.000000
-0.000995 -0.007613 0.000000
-0.007613 -0.003489 0.000000
0.000000 0.000000 0.000000
-0.003726 -0.006585 0.000000
-0.006585 -0.011865 0.000000
0.000000 0.000000 0.000000
0.012625 -0.011974 0.000000
-0.011974 -0.019689 0.000000
0.000000 0.000000 0.000000
0.011116 -0.000539 0.000000
-0.000539 0.028052 0.000000
0.000000 0.000000 0.000000
0.007873 0.010617 0.000000
0.010617 0.025008 0.000000
0.000000 0.000000 0.000000
-0.010728 -0.002396 0.000000
-0.002396 0.019067 0.000000
0.000000 0.000000 0.000000
0.005210 0.008031 0.000000
0.008031 -0.010857 0.000000
0.000000 0.000000 0.000000
0.001330 -0.015564 0.000000
-0.015564 0.009030 0.000000
0.000000 0.000000 0.000000
-0.003376 0.000667 0.000000
0.000667 0.002448 0.000000
0.000000 0.000000 0.000000
-0.000151 0.002034 0.000000
0.002034 -0.002595 0.000000
0.000000 0.000000 0.000000
0.000889 0.001941 0.000000
0.001941 -0.002365 0.000000
0.000000 0.000000 0.000000
0.010107 0.002764 0.000000
0.002764 0.006093 0.000000
0.000000 0.000000 0.000000
-0.009940 0.001541 0.000000
0.001541 -0.001364 0.000000
0.000000 0.000000 0.000000
0.015809 0.012979 0.000000
0.012979 -0.002733 0.000000
0.000000 0.000000 0.000000
0.015300 -0.017817 0.000000
-0.017817 -0.008249 0.000000
0.000000 0.000000 0.000000
-0.004078 0.002222 0.000000
0.002222 0.000223 0.000000
0.000000 0.000000 0.000000
0.013528 0.014204 0.000000
0.014204 -0.000718 0.000000
0.000000 0.000000 0.000000
0.006030 -0.000417 0.000000
-0.000417 -0.008993 0.000000
0.000000 0.000000 0.000000
0.016345 0.001322 0.000000
0.001322 -0.004604 0.000000
0.000000 0.000000 0.000000
-0.000589 0.005969 0.000000
0.005969 -0.013223 0.000000
0.000000 0.000000 0.000000
-0.001710 0.006120 0.000000
0.006120 0.000630 0.000000
0.000000 0.000000 0.000000
-0.006574 0.004476 0.000000
0.004476 -0.014937 0.000000
0.000000 0.000000 0.000000
-0.004838 -0.000731 0.000000
-0.000731 0.006219 0.000000
0.000000 0.000000 0.000000
0.003224 -0.006693 0.000000
-0.006693 -0.005124 0.000000
0.000000 0.000000 0.000000
0.001496 0.002080 0.000000
0.002080 -0.003541 0.000000
0.000000 0.000000 0.000000
-0.011938 0.002747 0.000000
0.002747 -0.013662 0.000000
0.000000 0.000000 0.000000
-0.017603 0.006462 0.000000
0.006462 -0.008063 0.000000
0.000000 0.000000 0.000000
-0.000430 0.004036 0.000000
0.004036 0.002091 0.000000
0.000000 0.000000 0.000000
-0.021105 0.009120 0.000000
0.009120 -0.022999 0.000000
0.000000 0.000000 0.000000
0.001600 -0.002602 0.000000
-0.002602 -0.004813 0.000000
0.000000 0.000000 0.000000
-0.017288 0.008134 0.000000
0.008134 -0.006989 0.000000
0.000000 0.000000 0.000000
0.004669 -0.001852 0.000000
-0.001852 0.008165 0.000000
0.000000 0.000000 0.000000
0.004559 -0.001679 0.000000
-0.001679 0.013024 0.000000
0.000000 0.000000 0.000000
-0.004021 0.001410 0.000000
0.001410 0.008134 0.000000
0.000000 0.000000 0.000000
-0.008513 0.000195 0.000000
0.000195 -0.007163 0.000000
0.000000 0.000000 0.000000
-0.025809 -0.013850 0.000000
-0.013850 -0.011936 0.000000
0.000000 0.000000 0.000000
-0.023473 -0.000653 0.000000
-0.000653 -0.000027 0.000000
0.000000 0.000000 0.000000
-0.000298 0.013302 0.000000
0.013302 0.000172 0.000000
0.000000 0.000000 0.000000
-0.012114 0.003054 0.000000
0.003054 -0.011536 0.000000
0.000000 0.000000 0.000000
-0.006040 0.009392 0.000000
0.009392 -0.021110 0.000000
0.000000 0.000000 0.000000
0.001363 0.001577 0.000000
0.001577 0.002091 0.000000
0.000000 0.000000 0.000000
-0.002715 -0.004315 0.000000
-0.004315 -0.006746 0.000000
0.000000 0.000000 0.000000
0.004986 0.000852 0.000000
0.000852 -0.001971 0.000000
0.000000 0.000000 0.000000
0.017581 -0.013956 0.000000
-0.013956 0.003890 0.000000
0.000000 0.000000 0.000000
-0.001018 -0.003227 0.000000
-0.003227 -0.007042 0.000000
0.000000 0.000000 0.000000
0.005178 -0.010247 0.000000
-0.010247 -0.010055 0.000000
0.000000 0.000000 0.000000
-0.000897 -0.000547 0.000000
-0.000547 -0.011047 0.000000
0.000000 0.000000 0.000000
0.012627 -0.004329 0.000000
-0.004329 0.002171 0.000000
0.000000 0.000000 0.000000
-0.011002 0.009033 0.000000
0.009033 -0.003516 0.000000
0.000000 0.000000 0.000000
-0.001898 -0.004701 0.000000
-0.004701 -0.012965 0.000000
0.000000 0.000000 0.000000
0.004452 0.006470 0.000000
0.006470 0.010089 0.000000
0.000000 0.000000 0.000000
0.012183 -0.003637 0.000000
-0.003637 0.014420 0.000000
0.000000 0.000000 0.000000
0.024127 -0.013710 0.000000
-0.013710 0.006888 0.000000
0.000000 0.000000 0.000000
-0.023816 -0.005549 0.000000
-0.005549 0.004312 0.000000
0.000000 0.000000 0.000000
-0.004530 0.013433 0.000000
0.013433 -0.027178 0.000000
0.000000 0.000000 0.000000
0.023609 -0.004493 0.000000
-0.004493 0.019779 0.000000
0.000000 0.000000 0.000000
0.011158 -0.010777 0.000000
-0.010777 -0.017435 0.000000
0.000000 0.000000 0.000000
0.007433 -0.004829 0.000000
-0.004829 -0.027845 0.000000
0.000000 0.000000 0.000000
0.019519 -0.010693 0.000000
-0.010693 -0.003997 0.000000
0.000000 0.000000 0.000000
-0.002391 0.000379 0.000000
0.000379 0.011119 0.000000
0.000000 0.000000 0.000000
0.005781 -0.000525 0.000000
-0.000525 0.003593 0.000000
0.000000 0.000000 0.000000
0.004069 -0.004519 0.000000
-0.004519 -0.005898 0.000000
0.000000 0.000000 0.000000
0.026402 -0.012250 0.000000
-0.012250 0.011104 0.000000
0.000000 0.000000 0.000000
-0.002489 -0.001574 0.000000
-0.001574 -0.006060 0.000000
0.000000 0.000000 0.000000
-0.001213 -0.002705 0.000000
-0.002705 -0.001320 0.000000
0.000000 0.000000 0.000000
-0.003130 0.002669 0.000000
0.002669 0.004442 0.000000
0.000000 0.000000 0.000000
0.000383 0.003351 0.000000
0.003351 0.003220 0.000000
0.000000 0.000000 0.000000
-0.009461 0.004973 0.000000
0.004973 -0.016337 0.000000
0.000000 0.000000 0.000000
-0.010403 0.000830 0.000000
0.000830 -0.019937 0.000000
0.000000 0.000000 0.000000
-0.014980 -0.001251 0.000000
-0.001251 -0.015740 0.000000
0.000000 0.000000 0.000000
0.012826 0.001732 0.000000
0.001732 0.013900 0.000000
0.000000 0.000000 0.000000
0.024457 0.000070 0.000000
0.000070 0.015264 0.000000
0.000000 0.000000 0.000000
-0.005478 0.001316 0.000000
0.001316 -0.013839 0.000000
0.000000 0.000000 0.000000
0.006368 -0.006085 0.000000
-0.006085 0.018160 0.000000
0.000000 0.000000 0.000000
-0.020566 -0.007072 0.000000
-0.007072 0.004013 0.000000
0.000000 0.000000 0.000000
0.002903 -0.001043 0.000000
-0.001043 -0.004857 0.000000
0.000000 0.000000 0.000000
-0.000040 0.007845 0.000000
0.007845 -0.004339 0.000000
0.000000 0.000000 0.000000
0.006587 0.006437 0.000000
0.006437 -0.005965 0.000000
0.000000 0.000000 0.000000
0.006677 0.005979 0.000000
0.005979 -0.006935 0.000000
0.000000 0.000000 0.000000
0.005858 -0.005064 0.000000
-0.005064 -0.012108 0.000000
0.000000 0.000000 0.000000
0.006036 -0.000670 0.000000
-0.000670 -0.013152 0.000000
0.000000 0.000000 0.000000
0.000663 0.001582 0.000000
0.001582 0.002763 0.000000
0.000000 0.000000 0.000000
0.001443 0.006167 0.000000
0.006167 0.007581 0.000000
0.000000 0.000000 0.000000
-0.000528 -0.004822 0.000000
-0.004822 0.004020 0.000000
0.000000 0.000000 0.000000
-0.001745 0.001604 0.000000
0.001604 0.010915 0.000000
0.000000 0.000000 0.000000
0.002678 -0.003749 0.000000
-0.003749 0.005038 0.000000
0.000000 0.000000 0.000000
-0.008938 -0.010427 0.000000
-0.010427 0.000611 0.000000
0.000000 0.000000 0.000000
0.001026 0.002382 0.000000
0.002382 0.005420 0.000000
0.000000 0.000000 0.000000
0.024976 0.005059 0.000000
0.005059 0.011480 0.000000
0.000000 0.000000 0.000000
-0.019114 -0.006943 0.000000
-0.006943 0.008151 0.000000
0.000000 0.000000 0.000000
-0.027184 -0.001163 0.000000
-0.001163 -0.019953 0.000000
0.000000 0.000000 0.000000
-0.001379 0.006458 0.000000
0.006458 -0.008639 0.000000
0.000000 0.000000 0.000000
-0.027509 0.003293 0.000000
0.003293 -0.000248 0.000000
0.000000 0.000000 0.000000
0.008301 -0.012661 0.000000
-0.012661 0.006038 0.000000
0.000000 0.000000 0.000000
0.004189 -0.006192 0.000000
-0.006192 0.015486 0.000000
0.000000 0.000000 0.000000
-0.000932 0.007990 0.000000
0.007990 -0.001146 0.000000
0.000000 0.000000 0.000000
0.007835 -0.001775 0.000000
-0.001775 0.009001 0.000000
0.000000 0.000000 0.000000
0.021533 0.004468 0.000000
0.004468 -0.005563 0.000000
0.000000 0.000000 0.000000
-0.018756 0.005899 0.000000
0.005899 0.018167 0.000000
0.000000 0.000000 0.000000
0.017349 0.003170 0.000000
0.003170 -0.014643 0.000000
0.000000 0.000000 0.000000
-0.011625 -0.000261 0.000000
-0.000261 -0.015512 0.000000
0.000000 0.000000 0.000000
0.013854 0.004901 0.000000
0.004901 -0.003557 0.000000
0.000000 0.000000 0.000000
0.001615 0.012920 0.000000
0.012920 0.017851 0.000000
0.000000 0.000000 0.000000
-0.002198 0.003056 0.000000
0.003056 0.003676 0.000000
0.000000 0.000000 0.000000
0.010952 0.011241 0.000000
0.011241 -0.027174 0.000000
0.000000 0.000000 0.000000
0.020181 0.000795 0.000000
0.000795 -0.008530 0.000000
0.000000 0.000000 0.000000
0.011325 0.005605 0.000000
0.005605 -0.032431 0.000000
0.000000 0.000000 0.000000
0.001124 0.001644 0.000000
0.001644 0.002811 0.000000
0.000000 0.000000 0.000000
-0.001808 0.003096 0.000000
0.003096 0.000330 0.000000
0.000000 0.000000 0.000000
0.003559 -0.002525 0.000000
-0.002525 0.011220 0.000000
0.000000 0.000000 0.000000
0.024057 0.007399 0.000000
0.007399 0.002401 0.000000
0.000000 0.000000 0.000000
-0.015570 0.011005 0.000000
0.011005 0.021904 0.000000
0.000000 0.000000 0.000000
0.006253 0.005143 0.000000
0.005143 0.013519 0.000000
0.000000 0.000000 0.000000
-0.012781 -0.000214 0.000000
-0.000214 -0.007131 0.000000
0.000000 0.000000 0.000000
-0.004552 -0.001467 0.000000
-0.001467 0.014987 0.000000
0.000000 0.000000 0.000000
-0.019540 0.003488 0.000000
0.003488 -0.007194 0.000000
0.000000 0.000000 0.000000
0.013113 -0.002072 0.000000
-0.002072 0.010919 0.000000
0.000000 0.000000 0.000000
0.008775 0.002944 0.000000
0.002944 0.021030 0.000000
0.000000 0.000000 0.000000
-0.006819 0.008547 0.000000
0.008547 0.012308 0.000000
0.000000 0.000000 0.000000
0.022180 -0.007772 0.000000
-0.007772 0.024110 0.000000
0.000000 0.000000 0.000000
-0.013302 0.014921 0.000000
0.014921 -0.007842 0.000000
0.000000 0.000000 0.000000
0.004497 0.000367 0.000000
0.000367 0.012728 0.000000
0.000000 0.000000 0.000000
0.002970 0.002565 0.000000
0.002565 0.010512 0.000000
0.000000 0.000000 0.000000
-0.000898 0.008254 0.000000
0.008254 0.004511 0.000000
0.000000 0.000000 0.000000
-0.000074 0.003239 0.000000
0.003239 0.010382 0.000000
0.000000 0.000000 0.000000
0.005058 0.003494 0.000000
0.003494 -0.011884 0.000000
0.000000 0.000000 0.000000
-0.006232 -0.000102 0.000000
-0.000102 0.012981 0.000000
0.000000 0.000000 0.000000
-0.003535 -0.008772 0.000000
-0.008772 -0.003038 0.000000
0.000000 0.000000 0.000000
0.004649 0.000245 0.000000
0.000245 0.012692 0.000000
0.000000 0.000000 0.000000
0.013774 0.005937 0.000000
0.005937 -0.005602 0.000000
0.000000 0.000000 0.000000
0.006576 0.001567 0.000000
0.001567 0.012489 0.000000
0.000000 0.000000 0.000000
-0.001427 0.001574 0.000000
0.001574 -0.000416 0.000000
0.000000 0.000000 0.000000
0.003024 -0.000130 0.000000
-0.000130 -0.000528 0.000000
0.000000 0.000000 0.000000
-0.008224 -0.000514 0.000000
-0.000514 -0.005042 0.000000
0.000000 0.000000 0.000000
-0.003887 -0.002476 0.000000
-0.002476 0.001632 0.000000
0.000000 0.000000 0.000000
0.002366 0.000430 0.000000
0.000430 0.001351 0.000000
0.000000 0.000000 0.000000
-0.000959 -0.005111 0.000000
-0.005111 -0.002824 0.000000
0.000000 0.000000 0.000000
-0.001407 -0.008636 0.000000
-0.008636 0.007482 0.000000
0.000000 0.000000 0.000000
-0.011160 -0.003037 0.000000
-0.003037 -0.003740 0.000000
0.000000 0.000000 0.000000
-0.010403 -0.013399 0.000000
-0.013399 -0.003887 0.000000
0.000000 0.000000 0.000000
0.008312 -0.004080 0.000000
-0.004080 -0.009280 0.000000
0.000000 0.000000 0.000000
-0.014660 -0.008227 0.000000
-0.008227 -0.002706 0.000000
0.000000 0.000000 0.000000
-0.014121 0.005604 0.000000
0.005604 0.006849 0.000000
0.000000 0.000000 0.000000
-0.016467 -0.001312 0.000000
-0.001312 0.012738 0.000000
0.000000 0.000000 0.000000
-0.009275 -0.004533 0.000000
-0.004533 -0.010355 0.000000
0.000000 0.000000 0.000000
-0.000871 0.006010 0.000000
0.006010 0.008929 0.000000
0.000000 0.000000 0.000000
0.001062 -0.003349 0.000000
-0.003349 -0.007612 0.000000
0.000000 0.000000 0.000000
-0.001688 0.001948 0.000000
0.001948 -0.009672 0.000000
0.000000 0.000000 0.000000
-0.028036 -0.004139 0.000000
-0.004139 -0.022823 0.000000
0.000000 0.000000 0.000000
0.001048 0.000647 0.000000
0.000647 -0.001859 0.000000
0.000000 0.000000 0.000000
0.010816 0.003582 0.000000
0.003582 -0.006583 0.000000
0.000000 0.000000 0.000000
0.007930 -0.006303 0.000000
-0.006303 -0.005945 0.000000
0.000000 0.000000 0.000000
0.008699 0.005476 0.000000
0.005476 0.011090 0.000000
0.000000 0.000000 0.000000
-0.000700 0.005387 0.000000
0.005387 -0.000458 0.000000
0.000000 0.000000 0.000000
0.001149 0.002782 0.000000
0.002782 0.003330 0.000000
0.000000 0.000000 0.000000
-0.008563 0.001025 0.000000
0.001025 0.001615 0.000000
0.000000 0.000000 0.000000
-0.004707 0.001307 0.000000
0.001307 0.009321 0.000000
0.000000 0.000000 0.000000
0.011025 0.005624 0.000000
0.005624 -0.003382 0.000000
0.000000 0.000000 0.000000
-0.002061 -0.008814 0.000000
-0.008814 -0.002586 0.000000
0.000000 0.000000 0.000000
0.002514 -0.002886 0.000000
-0.002886 -0.000912 0.000000
0.000000 0.000000 0.000000
-0.002590 -0.006924 0.000000
-0.006924 -0.012704 0.000000
0.000000 0.000000 0.000000
-0.015310 -0.001067 0.000000
-0.001067 -0.001330 0.000000
0.000000 0.000000 0.000000
-0.013231 0.003081 0.000000
0.003081 0.008289 0.000000
0.000000 0.000000 0.000000
-0.003000 -0.005378 0.000000
-0.005378 -0.013608 0.000000
0.000000 0.000000 0.000000
-0.016293 -0.029314 0.000000
-0.029314 -0.037678 0.000000
0.000000 0.000000 0.000000
-0.006284 0.000278 0.000000
0.000278 -0.016231 0.000000
0.000000 0.000000 0.000000
-0.002688 -0.001321 0.000000
-0.001321 -0.005271 0.000000
0.000000 0.000000 0.000000
0.011143 -0.007405 0.000000
-0.007405 -0.005287 0.000000
0.000000 0.000000 0.000000
0.003928 0.003018 0.000000
0.003018 -0.000097 0.000000
0.000000 0.000000 0.000000
0.009215 0.000293 0.000000
0.000293 0.004493 0.000000
0.000000 0.000000 0.000000
0.002147 0.005535 0.000000
0.005535 -0.001895 0.000000
0.000000 0.000000 0.000000
-0.002880 0.002133 0.000000
0.002133 0.001451 0.000000
0.000000 0.000000 0.000000
-0.006435 -0.005236 0.000000
-0.005236 0.000383 0.000000
0.000000 0.000000 0.000000
-0.007317 -0.000244 0.000000
-0.000244 -0.004494 0.000000
0.000000 0.000000 0.000000
0.000724 0.001103 0.000000
0.001103 -0.000046 0.000000
0.000000 0.000000 0.000000
0.002614 0.000776 0.000000
0.000776 0.012721 0.000000
0.000000 0.000000 0.000000
0.001688 0.006336 0.000000
0.006336 -0.000703 0.000000
0.000000 0.000000 0.000000
-0.003968 -0.000554 0.000000
-0.000554 -0.016184 0.000000
0.000000 0.000000 0.000000
0.005773 0.008581 0.000000
0.008581 0.000493 0.000000
0.000000 0.000000 0.000000
0.000050 0.000771 0.000000
0.000771 0.004854 0.000000
0.000000 0.000000 0.000000
-0.004676 -0.000663 0.000000
-0.000663 -0.014007 0.000000
0.000000 0.000000 0.000000
0.010702 -0.006273 0.000000
-0.006273 0.013749 0.000000
0.000000 0.000000 0.000000
-0.002024 -0.004128 0.000000
-0.004128 0.001950 0.000000
0.000000 0.000000 0.000000
-0.020215 0.007644 0.000000
0.007644 0.006743 0.000000
0.000000 0.000000 0.000000
0.000983 -0.000646 0.000000
-0.000646 0.008869 0.000000
0.000000 0.000000 0.000000
-0.015284 0.010854 0.000000
0.010854 0.014803 0.000000
0.000000 0.000000 0.000000
-0.003923 -0.001456 0.000000
-0.001456 -0.002493 0.000000
0.000000 0.000000 0.000000
-0.006521 0.004684 0.000000
0.004684 -0.005371 0.000000
0.000000 0.000000 0.000000
0.014339 -0.002690 0.000000
-0.002690 0.012676 0.000000
0.000000 0.000000 0.000000
0.001174 -0.003244 0.000000
-0.003244 0.003146 0.000000
0.000000 0.000000 0.000000
-0.005490 0.001542 0.000000
0.001542 -0.004822 0.000000
0.000000 0.000000 0.000000
0.001742 0.001052 0.000000
0.001052 -0.010639 0.000000
0.000000 0.000000 0.000000
0.006526 0.001869 0.000000
0.001869 0.003873 0.000000
0.000000 0.000000 0.000000
-0.008240 0.008330 0.000000
0.008330 0.004628 0.000000
0.000000 0.000000 0.000000
0.007911 -0.002202 0.000000
-0.002202 0.006991 0.000000
0.000000 0.000000 0.000000
0.022927 0.024915 0.000000
0.024915 -0.000608 0.000000
0.000000 0.000000 0.000000
0.024954 0.023738 0.000000
0.023738 0.004453 0.000000
0.000000 0.000000 0.000000
-0.005534 0.003203 0.000000
0.003203 0.003472 0.000000
0.000000 0.000000 0.000000
0.013640 0.007447 0.000000
0.007447 0.032207 0.000000
0.000000 0.000000 0.000000
0.009561 0.005817 0.000000
0.005817 0.033256 0.000000
0.000000 0.000000 0.000000
-0.000951 0.000818 0.000000
0.000818 0.003597 0.000000
0.000000 0.000000 0.000000
0.007214 -0.004795 0.000000
-0.004795 0.001179 0.000000
0.000000 0.000000 0.000000
-0.002772 0.000814 0.000000
0.000814 -0.003027 0.000000
0.000000 0.000000 0.000000
0.006150 -0.006181 0.000000
-0.006181 0.001566 0.000000
0.000000 0.000000 0.000000
-0.001392 -0.002513 0.000000
-0.002513 -0.005786 0.000000
0.000000 0.000000 0.000000
0.006283 -0.000213 0.000000
-0.000213 0.005763 0.000000
0.000000 0.000000 0.000000
-0.000272 0.007969 0.000000
0.007969 -0.002481 0.000000
0.000000 0.000000 0.000000
-0.024407 -0.001529 0.000000
-0.001529 -0.006552 0.000000
0.000000 0.000000 0.000000
-0.028963 0.002780 0.000000
0.002780 0.007330 0.000000
0.000000 0.000000 0.000000
-0.007864 -0.028149 0.000000
-0.028149 0.014496 0.000000
0.000000 0.000000 0.000000
-0.003278 -0.024757 0.000000
-0.024757 0.016921 0.000000
0.000000 0.000000 0.000000
0.002347 0.000080 0.000000
0.000080 0.014706 0.000000
0.000000 0.000000 0.000000
0.003750 0.006263 0.000000
0.006263 0.006073 0.000000
0.000000 0.000000 0.000000
0.004527 -0.001238 0.000000
-0.001238 0.008661 0.000000
0.000000 0.000000 0.000000
0.003393 0.005930 0.000000
0.005930 0.001104 0.000000
0.000000 0.000000 0.000000
-0.004591 -0.001836 0.000000
-0.001836 0.010149 0.000000
0.000000 0.000000 0.000000
-0.007713 0.000330 0.000000
0.000330 0.002589 0.000000
0.000000 0.000000 0.000000
-0.009442 -0.001401 0.000000
-0.001401 0.001787 0.000000
0.000000 0.000000 0.000000
0.004423 0.003994 0.000000
0.003994 0.004891 0.000000
0.000000 0.000000 0.000000
-0.008072 -0.005046 0.000000
-0.005046 0.009484 0.000000
0.000000 0.000000 0.000000
0.007648 -0.000185 0.000000
-0.000185 -0.001884 0.000000
0.000000 0.000000 0.000000
0.015247 0.000607 0.000000
0.000607 0.021270 0.000000
0.000000 0.000000 0.000000
-0.008733 -0.010991 0.000000
-0.010991 -0.010308 0.000000
0.000000 0.000000 0.000000
-0.000793 0.001928 0.000000
0.001928 -0.003271 0.000000
0.000000 0.000000 0.000000
-0.003243 0.001721 0.000000
0.001721 -0.003878 0.000000
0.000000 0.000000 0.000000
-0.025345 -0.026642 0.000000
-0.026642 -0.011881 0.000000
0.000000 0.000000 0.000000
-0.011019 -0.016704 0.000000
-0.016704 0.010490 0.000000
0.000000 0.000000 0.000000
0.001396 0.013694 0.000000
0.013694 0.004072 0.000000
0.000000 0.000000 0.000000
-0.005630 0.001037 0.000000
0.001037 -0.004467 0.000000
0.000000 0.000000 0.000000
-0.000493 0.003273 0.000000
0.003273 -0.002459 0.000000
0.000000 0.000000 0.000000
-0.000250 0.002858 0.000000
0.002858 -0.004573 0.000000
0.000000 0.000000 0.000000
0.001861 0.001447 0.000000
0.001447 -0.001613 0.000000
0.000000 0.000000 0.000000
0.012149 0.000142 0.000000
0.000142 -0.004812 0.000000
0.000000 0.000000 0.000000
0.002214 -0.004379 0.000000
-0.004379 -0.002301 0.000000
0.000000 0.000000 0.000000
0.003167 0.006097 0.000000
0.006097 -0.011452 0.000000
0.000000 0.000000 0.000000
-0.000966 -0.003541 0.000000
-0.003541 0.003934 0.000000
0.000000 0.000000 0.000000
0.009113 0.000302 0.000000
0.000302 0.002579 0.000000
0.000000 0.000000 0.000000
0.002960 0.001776 0.000000
0.001776 -0.001159 0.000000
0.000000 0.000000 0.000000
-0.001385 0.002391 0.000000
0.002391 0.000338 0.000000
0.000000 0.000000 0.000000
0.004921 -0.005681 0.000000
-0.005681 -0.001452 0.000000
0.000000 0.000000 0.000000
-0.000123 -0.006196 0.000000
-0.006196 0.001513 0.000000
0.000000 0.000000 0.000000
0.008787 -0.000499 0.000000
-0.000499 -0.004527 0.000000
0.000000 0.000000 0.000000
0.018045 0.006417 0.000000
0.006417 -0.012775 0.000000
0.000000 0.000000 0.000000
-0.021107 -0.000742 0.000000
-0.000742 -0.009891 0.000000
0.000000 0.000000 0.000000
-0.003274 0.004547 0.000000
0.004547 -0.003449 0.000000
0.000000 0.000000 0.000000
0.000615 0.002895 0.000000
0.002895 -0.002624 0.000000
0.000000 0.000000 0.000000
0.002810 -0.011874 0.000000
-0.011874 -0.007231 0.000000
0.000000 0.000000 0.000000
0.016059 0.000049 0.000000
0.000049 0.010010 0.000000
0.000000 0.000000 0.000000
0.001415 -0.002048 0.000000
-0.002048 -0.002949 0.000000
0.000000 0.000000 0.000000
-0.003526 -0.001489 0.000000
-0.001489 0.011938 0.000000
0.000000 0.000000 0.000000
-0.013340 0.013983 0.000000
0.013983 -0.019739 0.000000
0.000000 0.000000 0.000000
-0.008416 0.004160 0.000000
0.004160 -0.007025 0.000000
0.000000 0.000000 0.000000
-0.002488 0.000574 0.000000
0.000574 -0.006687 0.000000
0.000000 0.000000 0.000000
0.003884 -0.000071 0.000000
-0.000071 -0.004656 0.000000
0.000000 0.000000 0.000000
-0.001586 0.004288 0.000000
0.004288 -0.026228 0.000000
0.000000 0.000000 0.000000
-0.015204 -0.002078 0.000000
-0.002078 0.002652 0.000000
0.000000 0.000000 0.000000
-0.010037 0.009355 0.000000
0.009355 -0.020647 0.000000
0.000000 0.000000 0.000000
-0.003288 0.006650 0.000000
0.006650 0.011117 0.000000
0.000000 0.000000 0.000000
-0.004032 0.008177 0.000000
0.008177 -0.022982 0.000000
0.000000 0.000000 0.000000
0.000758 -0.004255 0.000000
-0.004255 -0.001587 0.000000
0.000000 0.000000 0.000000
0.004927 -0.011153 0.000000
-0.011153 0.014411 0.000000
0.000000 0.000000 0.000000
0.006828 -0.002141 0.000000
-0.002141 -0.009480 0.000000
0.000000 0.000000 0.000000
-0.004066 0.000149 0.000000
0.000149 0.005286 0.000000
0.000000 0.000000 0.000000
0.000394 -0.003517 0.000000
-0.003517 -0.008273 0.000000
0.000000 0.000000 0.000000
0.013544 -0.009324 0.000000
-0.009324 -0.004128 0.000000
0.000000 0.000000 0.000000
-0.002853 -0.005071 0.000000
-0.005071 -0.004805 0.000000
0.000000 0.000000 0.000000
0.029715 -0.003936 0.000000
-0.003936 0.003877 0.000000
0.000000 0.000000 0.000000
0.013425 -0.005908 0.000000
-0.005908 0.003559 0.000000
0.000000 0.000000 0.000000
0.011142 -0.015216 0.000000
-0.015216 0.012505 0.000000
0.000000 0.000000 0.000000
0.005508 -0.000923 0.000000
-0.000923 -0.005143 0.000000
0.000000 0.000000 0.000000
0.004432 -0.007839 0.000000
-0.007839 0.003457 0.000000
0.000000 0.000000 0.000000
0.011069 -0.007879 0.000000
-0.007879 -0.005446 0.000000
0.000000 0.000000 0.000000
-0.014072 0.001716 0.000000
0.001716 -0.011974 0.000000
0.000000 0.000000 0.000000
-0.010393 0.002026 0.000000
0.002026 -0.000147 0.000000
0.000000 0.000000 0.000000
0.005794 0.006146 0.000000
0.006146 -0.017299 0.000000
0.000000 0.000000 0.000000
0.013019 -0.006027 0.000000
-0.006027 -0.002135 0.000000
0.000000 0.000000 0.000000
-0.008688 -0.006176 0.000000
-0.006176 0.000962 0.000000
0.000000 0.000000 0.000000
-0.008485 -0.000732 0.000000
-0.000732 -0.008417 0.000000
0.000000 0.000000 0.000000
-0.008868 0.000897 0.000000
0.000897 -0.001053 0.000000
0.000000 0.000000 0.000000
-0.018028 0.002612 0.000000
0.002612 -0.016529 0.000000
0.000000 0.000000 0.000000
-0.006709 -0.004367 0.000000
-0.004367 0.013450 0.000000
0.000000 0.000000 0.000000
-0.003265 0.003634 0.000000
0.003634 0.000976 0.000000
0.000000 0.000000 0.000000
-0.007605 -0.004113 0.000000
-0.004113 -0.005171 0.000000
0.000000 0.000000 0.000000
-0.004005 0.004438 0.000000
0.004438 -0.002115 0.000000
0.000000 0.000000 0.000000
-0.005908 -0.004055 0.000000
-0.004055 -0.006330 0.000000
0.000000 0.000000 0.000000
0.002515 0.000215 0.000000
0.000215 -0.006858 0.000000
0.000000 0.000000 0.000000
-0.002613 -0.006123 0.000000
-0.006123 0.001736 0.000000
0.000000 0.000000 0.000000
0.006962 -0.001417 0.000000
-0.001417 0.011920 0.000000
0.000000 0.000000 0.000000
-0.009585 0.005113 0.000000
0.005113 -0.026104 0.000000
0.000000 0.000000 0.000000
-0.005966 0.001283 0.000000
0.001283 0.009872 0.000000
0.000000 0.000000 0.000000
-0.009330 0.007205 0.000000
0.007205 -0.019618 0.000000
0.000000 0.000000 0.000000
-0.008815 -0.000806 0.000000
-0.000806 0.001657 0.000000
0.000000 0.000000 0.000000
-0.013195 0.005250 0.000000
0.005250 -0.010466 0.000000
0.000000 0.000000 0.000000
-0.017140 0.007417 0.000000
0.007417 0.000205 0.000000
0.000000 0.000000 0.000000
0.005873 -0.004247 0.000000
-0.004247 -0.000148 0.000000
0.000000 0.000000 0.000000
0.008106 0.002192 0.000000
0.002192 0.009408 0.000000
0.000000 0.000000 0.000000
0.002390 -0.002717 0.000000
-0.002717 0.000955 0.000000
0.000000 0.000000 0.000000
-0.002384 0.009883 0.000000
0.009883 0.007749 0.000000
0.000000 0.000000 0.000000
-0.003365 -0.000035 0.000000
-0.000035 -0.008410 0.000000
0.000000 0.000000 0.000000
0.000380 -0.003821 0.000000
-0.003821 -0.009252 0.000000
0.000000 0.000000 0.000000
-0.000183 -0.000802 0.000000
-0.000802 -0.007322 0.000000
0.000000 0.000000 0.000000
-0.007732 -0.004632 0.000000
-0.004632 -0.004539 0.000000
0.000000 0.000000 0.000000
0.001338 0.003804 0.000000
0.003804 0.004673 0.000000
0.000000 0.000000 0.000000
0.000853 -0.000952 0.000000
-0.000952 0.000607 0.000000
0.000000 0.000000 0.000000
0.001441 0.004039 0.000000
0.004039 0.003391 0.000000
0.000000 0.000000 0.000000
0.001370 0.004486 0.000000
0.004486 0.003654 0.000000
0.000000 0.000000 0.000000
-0.008209 0.006488 0.000000
0.006488 -0.016756 0.000000
0.000000 0.000000 0.000000
0.012346 -0.007808 0.000000
-0.007808 0.010980 0.000000
0.000000 0.000000 0.000000
-0.011520 -0.003461 0.000000
-0.003461 0.008178 0.000000
0.000000 0.000000 0.000000
-0.009801 -0.000038 0.000000
-0.000038 0.003339 0.000000
0.000000 0.000000 0.000000
0.008936 0.001013 0.000000
0.001013 -0.012756 0.000000
0.000000 0.000000 0.000000
0.004135 0.002936 0.000000
0.002936 0.006952 0.000000
0.000000 0.000000 0.000000
-0.003501 0.007021 0.000000
0.007021 -0.010416 0.000000
0.000000 0.000000 0.000000
0.009185 -0.011708 0.000000
-0.011708 0.019786 0.000000
0.000000 0.000000 0.000000
0.014825 -0.010029 0.000000
-0.010029 0.017825 0.000000
0.000000 0.000000 0.000000
-0.002441 0.005782 0.000000
0.005782 -0.010112 0.000000
0.000000 0.000000 0.000000
-0.000140 -0.001660 0.000000
-0.001660 -0.003559 0.000000
0.000000 0.000000 0.000000
-0.008101 -0.009043 0.000000
-0.009043 0.005703 0.000000
0.000000 0.000000 0.000000
0.003263 -0.015962 0.000000
-0.015962 0.009019 0.000000
0.000000 0.000000 0.000000
0.007890 -0.016566 0.000000
-0.016566 0.005425 0.000000
0.000000 0.000000 0.000000
-0.002108 -0.003630 0.000000
-0.003630 -0.014079 0.000000
0.000000 0.000000 0.000000
-0.006056 0.007268 0.000000
0.007268 -0.004461 0.000000
0.000000 0.000000 0.000000
0.009774 0.002205 0.000000
0.002205 -0.004700 0.000000
0.000000 0.000000 0.000000
-0.003213 0.006791 0.000000
0.006791 0.005457 0.000000
0.000000 0.000000 0.000000
0.006148 0.001497 0.000000
0.001497 -0.013719 0.000000
0.000000 0.000000 0.000000
-0.011366 0.002869 0.000000
0.002869 0.000798 0.000000
0.000000 0.000000 0.000000
0.028050 -0.030027 0.000000
-0.030027 -0.024544 0.000000
0.000000 0.000000 0.000000
0.008162 -0.003080 0.000000
-0.003080 -0.011213 0.000000
0.000000 0.000000 0.000000
0.031633 -0.034301 0.000000
-0.034301 0.017724 0.000000
0.000000 0.000000 0.000000
0.036969 -0.009896 0.000000
-0.009896 -0.004451 0.000000
0.000000 0.000000 0.000000
0.017330 -0.024909 0.000000
-0.024909 -0.007608 0.000000
0.000000 0.000000 0.000000
0.025453 0.013130 0.000000
0.013130 -0.007330 0.000000
0.000000 0.000000 0.000000
-0.013659 -0.003264 0.000000
-0.003264 -0.013010 0.000000
0.000000 0.000000 0.000000
-0.004362 0.002054 0.000000
0.002054 0.004594 0.000000
0.000000 0.000000 0.000000
-0.003749 0.003425 0.000000
0.003425 -0.004316 0.000000
0.000000 0.000000 0.000000
0.008868 0.007428 0.000000
0.007428 -0.000456 0.000000
0.000000 0.000000 0.000000
0.018267 0.016391 0.000000
0.016391 0.006149 0.000000
0.000000 0.000000 0.000000
0.014312 0.002517 0.000000
0.002517 0.008705 0.000000
0.000000 0.000000 0.000000
-0.012072 -0.015186 0.000000
-0.015186 -0.021059 0.000000
0.000000 0.000000 0.000000
0.001360 -0.000201 0.000000
-0.000201 0.007256 0.000000
0.000000 0.000000 0.000000
-0.003158 0.007977 0.000000
0.007977 -0.018842 0.000000
0.000000 0.000000 0.000000
-0.011092 0.006748 0.000000
0.006748 -0.016420 0.000000
0.000000 0.000000 0.000000
0.000888 0.002929 0.000000
0.002929 0.004128 0.000000
0.000000 0.000000 0.000000
0.003334 -0.001746 0.000000
-0.001746 0.007644 0.000000
0.000000 0.000000 0.000000
0.022320 0.004291 0.000000
0.004291 0.024264 0.000000
0.000000 0.000000 0.000000
0.024012 0.003867 0.000000
0.003867 0.024681 0.000000
0.000000 0.000000 0.000000
0.011029 -0.001460 0.000000
-0.001460 -0.013361 0.000000
0.000000 0.000000 0.000000
-0.015876 -0.001478 0.000000
-0.001478 -0.013079 0.000000
0.000000 0.000000 0.000000
0.004513 0.011799 0.000000
0.011799 0.008786 0.000000
0.000000 0.000000 0.000000
-0.015762 0.001318 0.000000
0.001318 -0.011323 0.000000
0.000000 0.000000 0.000000
-0.005136 -0.002985 0.000000
-0.002985 0.004223 0.000000
0.000000 0.000000 0.000000
-0.002416 0.011021 0.000000
0.011021 0.012001 0.000000
0.000000 0.000000 0.000000
0.003345 -0.003505 0.000000
-0.003505 0.023898 0.000000
0.000000 0.000000 0.000000
-0.009879 0.012365 0.000000
0.012365 0.000088 0.000000
0.000000 0.000000 0.000000
0.002622 -0.004101 0.000000
-0.004101 0.025582 0.000000
0.000000 0.000000 0.000000
0.007316 -0.012289 0.000000
-0.012289 -0.004749 0.000000
0.000000 0.000000 0.000000
0.003706 -0.009902 0.000000
-0.009902 -0.025933 0.000000
0.000000 0.000000 0.000000
-0.004340 -0.001294 0.000000
-0.001294 -0.003597 0.000000
0.000000 0.000000 0.000000
-0.002281 -0.005342 0.000000
-0.005342 0.001490 0.000000
0.000000 0.000000 0.000000
-0.001185 -0.006221 0.000000
-0.006221 0.000363 0.000000
0.000000 0.000000 0.000000
-0.000585 -0.000900 0.000000
-0.000900 0.005303 0.000000
0.000000 0.000000 0.000000
-0.016810 0.005567 0.000000
0.005567 -0.002509 0.000000
0.000000 0.000000 0.000000
0.007995 0.010600 0.000000
0.010600 -0.020077 0.000000
0.000000 0.000000 0.000000
0.013501 -0.006736 0.000000
-0.006736 0.016672 0.000000
0.000000 0.000000 0.000000
0.007177 -0.005908 0.000000
-0.005908 0.002942 0.000000
0.000000 0.000000 0.000000
-0.002947 -0.005893 0.000000
-0.005893 -0.007570 0.000000
0.000000 0.000000 0.000000
0.018344 0.000756 0.000000
0.000756 0.001360 0.000000
0.000000 0.000000 0.000000
-0.004842 -0.006193 0.000000
-0.006193 -0.001025 0.000000
0.000000 0.000000 0.000000
0.010943 0.009730 0.000000
0.009730 -0.006136 0.000000
0.000000 0.000000 0.000000
0.024535 -0.007831 0.000000
-0.007831 0.002622 0.000000
0.000000 0.000000 0.000000
-0.002457 0.011709 0.000000
0.011709 -0.006204 0.000000
0.000000 0.000000 0.000000
0.026037 -0.004450 0.000000
-0.004450 0.004150 0.000000
0.000000 0.000000 0.000000
0.001884 0.013391 0.000000
0.013391 -0.004774 0.000000
0.000000 0.000000 0.000000
-0.012308 0.000431 0.000000
0.000431 -0.008806 0.000000
0.000000 0.000000 0.000000
0.056056 -0.015552 0.000000
-0.015552 -0.001162 0.000000
0.000000 0.000000 0.000000
-0.007436 0.001073 0.000000
0.001073 -0.009304 0.000000
0.000000 0.000000 0.000000
0.004362 -0.005349 0.000000
-0.005349 -0.005875 0.000000
0.000000 0.000000 0.000000
-0.010406 0.004185 0.000000
0.004185 -0.003788 0.000000
0.000000 0.000000 0.000000
-0.031392 -0.003868 0.000000
-0.003868 -0.017880 0.000000
0.000000 0.000000 0.000000
-0.004006 -0.000645 0.000000
-0.000645 -0.001563 0.000000
0.000000 0.000000 0.000000
-0.003150 0.003209 0.000000
0.003209 -0.003928 0.000000
0.000000 0.000000 0.000000
0.002302 0.006405 0.000000
0.006405 -0.012434 0.000000
0.000000 0.000000 0.000000
0.037430 0.008066 0.000000
0.008066 -0.063893 0.000000
0.000000 0.000000 0.000000
0.002685 0.000964 0.000000
0.000964 0.022742 0.000000
0.000000 0.000000 0.000000
-0.006917 0.005590 0.000000
0.005590 -0.006859 0.000000
0.000000 0.000000 0.000000
-0.006621 0.001050 0.000000
0.001050 -0.008531 0.000000
0.000000 0.000000 0.000000
-0.004401 0.011629 0.000000
0.011629 0.010170 0.000000
0.000000 0.000000 0.000000
-0.018789 -0.010571 0.000000
-0.010571 -0.007089 0.000000
0.000000 0.000000 0.000000
-0.000849 -0.007055 0.000000
-0.007055 0.006269 0.000000
0.000000 0.000000 0.000000
0.001322 0.003237 0.000000
0.003237 -0.008381 0.000000
0.000000 0.000000 0.000000
-0.012057 -0.002768 0.000000
-0.002768 -0.000514 0.000000
0.000000 0.000000 0.000000
-0.010218 0.007596 0.000000
0.007596 -0.006516 0.000000
0.000000 0.000000 0.000000
0.003613 0.000365 0.000000
0.000365 -0.000305 0.000000
0.000000 0.000000 0.000000
0.001764 0.003836 0.000000
0.003836 -0.000163 0.000000
0.000000 0.000000 0.000000
0.000495 -0.028587 0.000000
-0.028587 0.007891 0.000000
0.000000 0.000000 0.000000
-0.020225 0.003668 0.000000
0.003668 -0.012364 0.000000
0.000000 0.000000 0.000000
-0.000889 0.005141 0.000000
0.005141 0.005736 0.000000
0.000000 0.000000 0.000000
-0.005463 -0.025258 0.000000
-0.025258 0.015391 0.000000
0.000000 0.000000 0.000000
0.016961 0.005786 0.000000
0.005786 -0.019555 0.000000
0.000000 0.000000 0.000000
-0.004724 -0.000885 0.000000
-0.000885 0.000214 0.000000
0.000000 0.000000 0.000000
0.007284 -0.004497 0.000000
-0.004497 -0.007285 0.000000
0.000000 0.000000 0.000000
0.003553 -0.006105 0.000000
-0.006105 0.004806 0.000000
0.000000 0.000000 0.000000
-0.017244 0.006453 0.000000
0.006453 -0.029221 0.000000
0.000000 0.000000 0.000000
0.006977 -0.000614 0.000000
-0.000614 0.005838 0.000000
0.000000 0.000000 0.000000
0.001462 -0.003884 0.000000
-0.003884 -0.000223 0.000000
0.000000 0.000000 0.000000
0.002026 -0.001302 0.000000
-0.001302 -0.002757 0.000000
0.000000 0.000000 0.000000
0.011911 0.005517 0.000000
0.005517 0.004660 0.000000
0.000000 0.000000 0.000000
0.006647 -0.000712 0.000000
-0.000712 0.012607 0.000000
0.000000 0.000000 0.000000
0.002517 -0.000715 0.000000
-0.000715 -0.002707 0.000000
0.000000 0.000000 0.000000
0.008947 0.003497 0.000000
0.003497 -0.002312 0.000000
0.000000 0.000000 0.000000
-0.001211 -0.001180 0.000000
-0.001180 -0.003928 0.000000
0.000000 0.000000 0.000000
-0.001107 0.005283 0.000000
0.005283 0.002875 0.000000
0.000000 0.000000 0.000000
-0.007652 0.010208 0.000000
0.010208 -0.000566 0.000000
0.000000 0.000000 0.000000
-0.011023 -0.009749 0.000000
-0.009749 0.005038 0.000000
0.000000 0.000000 0.000000
0.000654 0.002118 0.000000
0.002118 0.009411 0.000000
0.000000 0.000000 0.000000
0.001599 0.003818 0.000000
0.003818 0.002772 0.000000
0.000000 0.000000 0.000000
-0.006605 0.008932 0.000000
0.008932 -0.005652 0.000000
0.000000 0.000000 0.000000
0.001843 0.002944 0.000000
0.002944 0.004518 0.000000
0.000000 0.000000 0.000000
0.005600 0.004447 0.000000
0.004447 -0.030644 0.000000
0.000000 0.000000 0.000000
-0.000797 0.003605 0.000000
0.003605 -0.005972 0.000000
0.000000 0.000000 0.000000
0.002096 -0.004964 0.000000
-0.004964 0.016002 0.000000
0.000000 0.000000 0.000000
-0.006983 -0.004383 0.000000
-0.004383 0.011972 0.000000
0.000000 0.000000 0.000000
0.005084 0.002756 0.000000
0.002756 0.019497 0.000000
0.000000 0.000000 0.000000
-0.003130 0.006606 0.000000
0.006606 0.003194 0.000000
0.000000 0.000000 0.000000
0.009735 0.002135 0.000000
0.002135 0.020252 0.000000
0.000000 0.000000 0.000000
-0.015943 0.000269 0.000000
0.000269 -0.012228 0.000000
0.000000 0.000000 0.000000
-0.002718 0.007266 0.000000
0.007266 0.019574 0.000000
0.000000 0.000000 0.000000
-0.010215 0.004204 0.000000
0.004204 -0.009718 0.000000
0.000000 0.000000 0.000000
-0.007310 0.010550 0.000000
0.010550 -0.008665 0.000000
0.000000 0.000000 0.000000
-0.009184 -0.001168 0.000000
-0.001168 -0.005119 0.000000
0.000000 0.000000 0.000000
-0.010322 0.010419 0.000000
0.010419 -0.005276 0.000000
0.000000 0.000000 0.000000
-0.006217 0.006078 0.000000
0.006078 0.006778 0.000000
0.000000 0.000000 0.000000
0.002544 0.006494 0.000000
0.006494 -0.001737 0.000000
0.000000 0.000000 0.000000
0.020099 0.004236 0.000000
0.004236 -0.004401 0.000000
0.000000 0.000000 0.000000
0.002307 -0.000161 0.000000
-0.000161 -0.011120 0.000000
0.000000 0.000000 0.000000
0.022006 0.003083 0.000000
0.003083 0.013326 0.000000
0.000000 0.000000 0.000000
-0.000797 -0.009519 0.000000
-0.009519 0.018993 0.000000
0.000000 0.000000 0.000000
0.004201 -0.003253 0.000000
-0.003253 0.004784 0.000000
0.000000 0.000000 0.000000
0.001002 -0.001242 0.000000
-0.001242 0.002522 0.000000
0.000000 0.000000 0.000000
0.003386 0.000974 0.000000
0.000974 -0.000678 0.000000
0.000000 0.000000 0.000000
0.010233 0.001622 0.000000
0.001622 -0.018893 0.000000
0.000000 0.000000 0.000000
0.000343 0.000780 0.000000
0.000780 0.009369 0.000000
0.000000 0.000000 0.000000
0.002279 0.004807 0.000000
0.004807 0.010184 0.000000
0.000000 0.000000 0.000000
0.000785 0.008703 0.000000
0.008703 -0.021257 0.000000
0.000000 0.000000 0.000000
0.000552 0.056519 0.000000
0.056519 -0.018224 0.000000
0.000000 0.000000 0.000000
0.026102 0.033571 0.000000
0.033571 0.019100 0.000000
0.000000 0.000000 0.000000
0.006252 0.003585 0.000000
0.003585 0.012112 0.000000
0.000000 0.000000 0.000000
-0.000437 -0.001800 0.000000
-0.001800 0.009303 0.000000
0.000000 0.000000 0.000000
-0.008784 -0.015563 0.000000
-0.015563 0.015947 0.000000
0.000000 0.000000 0.000000
-0.000772 0.003319 0.000000
0.003319 0.014122 0.000000
0.000000 0.000000 0.000000
-0.015996 -0.019911 0.000000
-0.019911 -0.008396 0.000000
0.000000 0.000000 0.000000
-0.018210 0.002552 0.000000
0.002552 -0.002333 0.000000
0.000000 0.000000 0.000000
0.021553 0.005475 0.000000
0.005475 0.013351 0.000000
0.000000 0.000000 0.000000
-0.000896 -0.005159 0.000000
-0.005159 -0.000667 0.000000
0.000000 0.000000 0.000000
0.017941 0.006319 0.000000
0.006319 0.011889 0.000000
0.000000 0.000000 0.000000
0.010094 0.008056 0.000000
0.008056 0.035736 0.000000
0.000000 0.000000 0.000000
0.003287 0.005387 0.000000
0.005387 0.034469 0.000000
0.000000 0.000000 0.000000
0.005691 0.001882 0.000000
0.001882 -0.013468 0.000000
0.000000 0.000000 0.000000
0.006395 0.000727 0.000000
0.000727 0.013507 0.000000
0.000000 0.000000 0.000000
0.009353 -0.000377 0.000000
-0.000377 0.016799 0.000000
0.000000 0.000000 0.000000
-0.011567 0.001628 0.000000
0.001628 -0.011586 0.000000
0.000000 0.000000 0.000000
0.007768 -0.001059 0.000000
-0.001059 0.007029 0.000000
0.000000 0.000000 0.000000
0.008131 -0.002041 0.000000
-0.002041 0.007127 0.000000
0.000000 0.000000 0.000000
0.000953 0.002717 0.000000
0.002717 -0.013211 0.000000
0.000000 0.000000 0.000000
0.004873 0.002139 0.000000
0.002139 0.004075 0.000000
0.000000 0.000000 0.000000
-0.012212 -0.012116 0.000000
-0.012116 -0.009829 0.000000
0.000000 0.000000 0.000000
-0.009409 -0.002902 0.000000
-0.002902 0.004192 0.000000
0.000000 0.000000 0.000000
-0.007321 -0.002715 0.000000
-0.002715 0.011173 0.000000
0.000000 0.000000 0.000000
-0.003566 -0.002347 0.000000
-0.002347 -0.016279 0.000000
0.000000 0.000000 0.000000
0.009613 -0.000123 0.000000
-0.000123 0.009189 0.000000
0.000000 0.000000 0.000000
0.002488 0.014331 0.000000
0.014331 0.028025 0.000000
0.000000 0.000000 0.000000
-0.010427 -0.009418 0.000000
-0.009418 0.015410 0.000000
0.000000 0.000000 0.000000
0.012483 0.012202 0.000000
0.012202 0.012801 0.000000
0.000000 0.000000 0.000000
-0.010880 0.009014 0.000000
0.009014 -0.001234 0.000000
0.000000 0.000000 0.000000
-0.002657 0.013656 0.000000
0.013656 0.007079 0.000000
0.000000 0.000000 0.000000
0.014750 0.008320 0.000000
0.008320 -0.020534 0.000000
0.000000 0.000000 0.000000
-0.008686 -0.001843 0.000000
-0.001843 -0.004711 0.000000
0.000000 0.000000 0.000000
0.012588 0.011787 0.000000
0.011787 -0.014107 0.000000
0.000000 0.000000 0.000000
0.021811 0.019794 0.000000
0.019794 0.012320 0.000000
0.000000 0.000000 0.000000
-0.004064 -0.003776 0.000000
-0.003776 -0.015570 0.000000
0.000000 0.000000 0.000000
0.001357 -0.006122 0.000000
-0.006122 -0.013986 0.000000
0.000000 0.000000 0.000000
0.002980 -0.000988 0.000000
-0.000988 -0.011531 0.000000
0.000000 0.000000 0.000000
0.004171 0.008485 0.000000
0.008485 -0.012476 0.000000
0.000000 0.000000 0.000000
-0.003645 0.002612 0.000000
0.002612 -0.001177 0.000000
0.000000 0.000000 0.000000
-0.019214 0.001554 0.000000
0.001554 -0.013930 0.000000
0.000000 0.000000 0.000000
-0.000141 0.000236 0.000000
0.000236 0.006953 0.000000
0.000000 0.000000 0.000000
-0.008608 0.009117 0.000000
0.009117 0.009037 0.000000
0.000000 0.000000 0.000000
-0.010949 -0.002415 0.000000
-0.002415 0.006427 0.000000
0.000000 0.000000 0.000000
0.021925 0.007809 0.000000
0.007809 0.002919 0.000000
0.000000 0.000000 0.000000
-0.007875 -0.001112 0.000000
-0.001112 -0.026453 0.000000
0.000000 0.000000 0.000000
0.003206 -0.001647 0.000000
-0.001647 -0.003037 0.000000
0.000000 0.000000 0.000000
-0.018467 -0.009130 0.000000
-0.009130 -0.016674 0.000000
0.000000 0.000000 0.000000
-0.000257 -0.003760 0.000000
-0.003760 -0.016430 0.000000
0.000000 0.000000 0.000000
-0.030839 0.004546 0.000000
0.004546 -0.020960 0.000000
0.000000 0.000000 0.000000
-0.004000 -0.010667 0.000000
-0.010667 -0.006122 0.000000
0.000000 0.000000 0.000000
-0.000455 -0.006873 0.000000
-0.006873 0.027782 0.000000
0.000000 0.000000 0.000000
-0.009320 0.000582 0.000000
0.000582 -0.013135 0.000000
0.000000 0.000000 0.000000
0.006979 -0.000841 0.000000
-0.000841 0.006161 0.000000
0.000000 0.000000 0.000000
0.003791 0.002285 0.000000
0.002285 -0.003630 0.000000
0.000000 0.000000 0.000000
-0.007855 0.002199 0.000000
0.002199 -0.007114 0.000000
0.000000 0.000000 0.000000
-0.004299 -0.006914 0.000000
-0.006914 -0.003466 0.000000
0.000000 0.000000 0.000000
0.017201 0.001085 0.000000
0.001085 0.007239 0.000000
0.000000 0.000000 0.000000
-0.001269 0.013602 0.000000
0.013602 0.002934 0.000000
0.000000 0.000000 0.000000
0.015791 0.006775 0.000000
0.006775 0.011452 0.000000
0.000000 0.000000 0.000000
0.006782 0.001367 0.000000
0.001367 0.016626 0.000000
0.000000 0.000000 0.000000
0.007786 -0.007327 0.000000
-0.007327 -0.023538 0.000000
0.000000 0.000000 0.000000
-0.002513 0.002130 0.000000
0.002130 -0.005670 0.000000
0.000000 0.000000 0.000000
-0.000242 0.008518 0.000000
0.008518 -0.014453 0.000000
0.000000 0.000000 0.000000
0.002512 0.007472 0.000000
0.007472 -0.004950 0.000000
0.000000 0.000000 0.000000
-0.003780 0.001719 0.000000
0.001719 -0.004282 0.000000
0.000000 0.000000 0.000000
0.010198 -0.019813 0.000000
-0.019813 0.027576 0.000000
0.000000 0.000000 0.000000
0.003054 -0.010398 0.000000
-0.010398 0.022993 0.000000
0.000000 0.000000 0.000000
-0.010984 -0.003908 0.000000
-0.003908 -0.008420 0.000000
0.000000 0.000000 0.000000
0.007953 -0.007146 0.000000
-0.007146 0.025703 0.000000
0.000000 0.000000 0.000000
0.007102 0.002539 0.000000
0.002539 0.004054 0.000000
0.000000 0.000000 0.000000
0.001370 0.000900 0.000000
0.000900 0.007462 0.000000
0.000000 0.000000 0.000000
0.012263 0.001858 0.000000
0.001858 0.004869 0.000000
0.000000 0.000000 0.000000
0.001955 -0.002887 0.000000
-0.002887 -0.007922 0.000000
0.000000 0.000000 0.000000
-0.003081 0.005270 0.000000
0.005270 -0.000849 0.000000
0.000000 0.000000 0.000000
0.001782 0.001255 0.000000
0.001255 0.008014 0.000000
0.000000 0.000000 0.000000
-0.000937 0.003269 0.000000
0.003269 0.004924 0.000000
0.000000 0.000000 0.000000
-0.007247 -0.000062 0.000000
-0.000062 -0.026783 0.000000
0.000000 0.000000 0.000000
-0.004405 0.001069 0.000000
0.001069 -0.008173 0.000000
0.000000 0.000000 0.000000
-0.000450 -0.000926 0.000000
-0.000926 -0.006034 0.000000
0.000000 0.000000 0.000000
-0.007689 -0.000963 0.000000
-0.000963 0.004690 0.000000
0.000000 0.000000 0.000000
-0.007856 -0.001139 0.000000
-0.001139 0.006104 0.000000
0.000000 0.000000 0.000000
-0.010991 -0.003347 0.000000
-0.003347 -0.008495 0.000000
0.000000 0.000000 0.000000
-0.000903 0.004049 0.000000
0.004049 0.003379 0.000000
0.000000 0.000000 0.000000
-0.002824 -0.025957 0.000000
-0.025957 0.001557 0.000000
0.000000 0.000000 0.000000
-0.000853 0.003581 0.000000
0.003581 0.009974 0.000000
0.000000 0.000000 0.000000
0.006343 0.001486 0.000000
0.001486 0.008325 0.000000
0.000000 0.000000 0.000000
0.004684 0.004059 0.000000
0.004059 0.004795 0.000000
0.000000 0.000000 0.000000
-0.007143 -0.000763 0.000000
-0.000763 0.012183 0.000000
0.000000 0.000000 0.000000
0.023091 -0.010805 0.000000
-0.010805 0.005240 0.000000
0.000000 0.000000 0.000000
0.007419 0.003482 0.000000
0.003482 -0.003087 0.000000
0.000000 0.000000 0.000000
0.010560 -0.003865 0.000000
-0.003865 -0.000498 0.000000
0.000000 0.000000 0.000000
-0.013627 0.010126 0.000000
0.010126 -0.004175 0.000000
0.000000 0.000000 0.000000
0.001629 0.003814 0.000000
0.003814 0.003430 0.000000
0.000000 0.000000 0.000000
-0.005366 -0.009472 0.000000
-0.009472 0.016884 0.000000
0.000000 0.000000 0.000000
0.008010 -0.002625 0.000000
-0.002625 0.013615 0.000000
0.000000 0.000000 0.000000
0.007732 -0.002940 0.000000
-0.002940 -0.007738 0.000000
0.000000 0.000000 0.000000
0.003760 0.001087 0.000000
0.001087 -0.016612 0.000000
0.000000 0.000000 0.000000
0.001417 0.030291 0.000000
0.030291 0.011789 0.000000
0.000000 0.000000 0.000000
-0.019787 -0.008329 0.000000
-0.008329 -0.022646 0.000000
0.000000 0.000000 0.000000
-0.003968 -0.004067 0.000000
-0.004067 -0.014309 0.000000
0.000000 0.000000 0.000000
0.000457 -0.001746 0.000000
-0.001746 -0.000866 0.000000
0.000000 0.000000 0.000000
0.010697 0.005012 0.000000
0.005012 0.005105 0.000000
0.000000 0.000000 0.000000
-0.002931 0.001017 0.000000
0.001017 -0.001151 0.000000
0.000000 0.000000 0.000000
0.002186 0.004500 0.000000
0.004500 -0.001836 0.000000
0.000000 0.000000 0.000000
0.002432 0.000304 0.000000
0.000304 0.015928 0.000000
0.000000 0.000000 0.000000
0.005328 0.006302 0.000000
0.006302 -0.000178 0.000000
0.000000 0.000000 0.000000
-0.008055 0.021002 0.000000
0.021002 -0.021729 0.000000
0.000000 0.000000 0.000000
0.017801 0.002428 0.000000
0.002428 0.016980 0.000000
0.000000 0.000000 0.000000
-0.007104 -0.000696 0.000000
-0.000696 0.003599 0.000000
0.000000 0.000000 0.000000
0.018144 -0.020556 0.000000
-0.020556 -0.006352 0.000000
0.000000 0.000000 0.000000
-0.004419 -0.000994 0.000000
-0.000994 -0.013511 0.000000
0.000000 0.000000 0.000000
-0.002877 0.001080 0.000000
0.001080 -0.003681 0.000000
0.000000 0.000000 0.000000
-0.003883 -0.002684 0.000000
-0.002684 0.011239 0.000000
0.000000 0.000000 0.000000
0.003805 0.000422 0.000000
0.000422 -0.009802 0.000000
0.000000 0.000000 0.000000
0.005649 -0.000730 0.000000
-0.000730 0.014546 0.000000
0.000000 0.000000 0.000000
-0.002534 0.002054 0.000000
0.002054 -0.015584 0.000000
0.000000 0.000000 0.000000
-0.009483 -0.002425 0.000000
-0.002425 -0.001474 0.000000
0.000000 0.000000 0.000000
0.001890 0.001436 0.000000
0.001436 0.014177 0.000000
0.000000 0.000000 0.000000
0.004507 -0.007949 0.000000
-0.007949 -0.024385 0.000000
0.000000 0.000000 0.000000
0.000979 0.000525 0.000000
0.000525 0.001946 0.000000
0.000000 0.000000 0.000000
-0.007453 0.001904 0.000000
0.001904 -0.017033 0.000000
0.000000 0.000000 0.000000
-0.002717 -0.001011 0.000000
-0.001011 0.000787 0.000000
0.000000 0.000000 0.000000
-0.000373 0.004184 0.000000
0.004184 -0.000595 0.000000
0.000000 0.000000 0.000000
0.001737 0.010894 0.000000
0.010894 0.015659 0.000000
0.000000 0.000000 0.000000
0.001016 -0.001711 0.000000
-0.001711 -0.001677 0.000000
0.000000 0.000000 0.000000
0.000437 0.023920 0.000000
0.023920 -0.006766 0.000000
0.000000 0.000000 0.000000
-0.010286 -0.012720 0.000000
-0.012720 -0.012526 0.000000
0.000000 0.000000 0.000000
0.004192 -0.003976 0.000000
-0.003976 0.009255 0.000000
0.000000 0.000000 0.000000
0.018948 -0.006351 0.000000
-0.006351 0.013586 0.000000
0.000000 0.000000 0.000000
-0.001835 0.001696 0.000000
0.001696 0.001165 0.000000
0.000000 0.000000 0.000000
0.010078 0.000600 0.000000
0.000600 -0.014101 0.000000
0.000000 0.000000 0.000000
0.013553 0.014563 0.000000
0.014563 0.016965 0.000000
0.000000 0.000000 0.000000
-0.005467 -0.000274 0.000000
-0.000274 -0.002492 0.000000
0.000000 0.000000 0.000000
0.026878 0.018900 0.000000
0.018900 0.007579 0.000000
0.000000 0.000000 0.000000
-0.019013 -0.004776 0.000000
-0.004776 -0.002881 0.000000
0.000000 0.000000 0.000000
0.023551 0.013885 0.000000
0.013885 0.014668 0.000000
0.000000 0.000000 0.000000
0.000454 -0.002822 0.000000
-0.002822 0.007916 0.000000
0.000000 0.000000 0.000000
-0.005621 0.012263 0.000000
0.012263 -0.000736 0.000000
0.000000 0.000000 0.000000
0.001492 -0.005418 0.000000
-0.005418 0.001574 0.000000
0.000000 0.000000 0.000000
-0.014604 0.004114 0.000000
0.004114 0.001369 0.000000
0.000000 0.000000 0.000000
-0.001853 -0.009661 0.000000
-0.009661 -0.017132 0.000000
0.000000 0.000000 0.000000
-0.014675 0.008369 0.000000
0.008369 -0.000488 0.000000
0.000000 0.000000 0.000000
0.000732 -0.003120 0.000000
-0.003120 0.001070 0.000000
0.000000 0.000000 0.000000
0.001384 0.010749 0.000000
0.010749 -0.004450 0.000000
0.000000 0.000000 0.000000
-0.006292 0.007610 0.000000
0.007610 0.011494 0.000000
0.000000 0.000000 0.000000
0.009297 -0.017011 0.000000
-0.017011 0.011402 0.000000
0.000000 0.000000 0.000000
0.005358 0.000456 0.000000
0.000456 0.012094 0.000000
0.000000 0.000000 0.000000
-0.015449 -0.003395 0.000000
-0.003395 0.002664 0.000000
0.000000 0.000000 0.000000
-0.015198 -0.008592 0.000000
-0.008592 -0.013220 0.000000
0.000000 0.000000 0.000000
-0.006642 0.004967 0.000000
0.004967 -0.010608 0.000000
0.000000 0.000000 0.000000
-0.002066 0.006414 0.000000
0.006414 -0.006223 0.000000
0.000000 0.000000 0.000000
0.004544 -0.004276 0.000000
-0.004276 -0.026702 0.000000
0.000000 0.000000 0.000000
-0.005197 0.001516 0.000000
0.001516 -0.010629 0.000000
0.000000 0.000000 0.000000
0.000856 -0.002390 0.000000
-0.002390 0.007429 0.000000
0.000000 0.000000 0.000000
-0.000622 -0.002082 0.000000
-0.002082 0.008439 0.000000
0.000000 0.000000 0.000000
0.004340 -0.005738 0.000000
-0.005738 0.007236 0.000000
0.000000 0.000000 0.000000
-0.006061 0.001450 0.000000
0.001450 -0.011397 0.000000
0.000000 0.000000 0.000000
0.005660 0.001008 0.000000
0.001008 -0.005431 0.000000
0.000000 0.000000 0.000000
0.004264 -0.003137 0.000000
-0.003137 0.018640 0.000000
0.000000 0.000000 0.000000
0.005431 -0.000023 0.000000
-0.000023 0.007179 0.000000
0.000000 0.000000 0.000000
-0.019130 -0.011466 0.000000
-0.011466 -0.010712 0.000000
0.000000 0.000000 0.000000
0.005388 0.001150 0.000000
0.001150 0.003995 0.000000
0.000000 0.000000 0.000000
0.007756 -0.005201 0.000000
-0.005201 0.024985 0.000000
0.000000 0.000000 0.000000
0.000424 0.000377 0.000000
0.000377 -0.006516 0.000000
0.000000 0.000000 0.000000
-0.012704 -0.012413 0.000000
-0.012413 0.017621 0.000000
0.000000 0.000000 0.000000
-0.001939 0.000791 0.000000
0.000791 0.000550 0.000000
0.000000 0.000000 0.000000
0.029606 0.000812 0.000000
0.000812 -0.012354 0.000000
0.000000 0.000000 0.000000
0.035244 0.001944 0.000000
0.001944 0.024216 0.000000
0.000000 0.000000 0.000000
0.008426 0.000072 0.000000
0.000072 0.016040 0.000000
0.000000 0.000000 0.000000
-0.002665 0.000736 0.000000
0.000736 0.000894 0.000000
0.000000 0.000000 0.000000
-0.000816 -0.000900 0.000000
-0.000900 -0.012264 0.000000
0.000000 0.000000 0.000000
0.008148 -0.008243 0.000000
-0.008243 -0.013662 0.000000
0.000000 0.000000 0.000000
-0.001236 -0.003674 0.000000
-0.003674 0.000090 0.000000
0.000000 0.000000 0.000000
-0.014093 0.003863 0.000000
0.003863 0.002185 0.000000
0.000000 0.000000 0.000000
0.025647 0.005098 0.000000
0.005098 0.018109 0.000000
0.000000 0.000000 0.000000
0.007000 0.010941 0.000000
0.010941 0.013059 0.000000
0.000000 0.000000 0.000000
-0.000846 0.015850 0.000000
0.015850 -0.005714 0.000000
0.000000 0.000000 0.000000
0.013906 0.014034 0.000000
0.014034 0.017465 0.000000
0.000000 0.000000 0.000000
-0.001388 -0.001295 0.000000
-0.001295 -0.008115 0.000000
0.000000 0.000000 0.000000
-0.000487 -0.006395 0.000000
-0.006395 0.024680 0.000000
0.000000 0.000000 0.000000
-0.000152 0.005727 0.000000
0.005727 -0.005447 0.000000
0.000000 0.000000 0.000000
0.000038 0.007956 0.000000
0.007956 -0.000211 0.000000
0.000000 0.000000 0.000000
-0.003181 0.005433 0.000000
0.005433 0.008950 0.000000
0.000000 0.000000 0.000000
0.004232 0.003923 0.000000
0.003923 0.016787 0.000000
0.000000 0.000000 0.000000
-0.001648 0.001770 0.000000
0.001770 -0.001051 0.000000
0.000000 0.000000 0.000000
0.000532 0.002526 0.000000
0.002526 0.016192 0.000000
0.000000 0.000000 0.000000
0.001424 0.007046 0.000000
0.007046 0.000542 0.000000
0.000000 0.000000 0.000000
0.011693 0.000664 0.000000
0.000664 -0.000964 0.000000
0.000000 0.000000 0.000000
-0.009081 -0.007252 0.000000
-0.007252 -0.005122 0.000000
0.000000 0.000000 0.000000
0.013471 -0.001766 0.000000
-0.001766 0.008256 0.000000
0.000000 0.000000 0.000000
0.008390 0.001602 0.000000
0.001602 -0.000933 0.000000
0.000000 0.000000 0.000000
-0.000306 -0.009907 0.000000
-0.009907 0.005893 0.000000
0.000000 0.000000 0.000000
0.014638 -0.009836 0.000000
-0.009836 -0.012282 0.000000
0.000000 0.000000 0.000000
-0.000685 0.002343 0.000000
0.002343 -0.002709 0.000000
0.000000 0.000000 0.000000
0.003682 0.002285 0.000000
0.002285 0.011847 0.000000
0.000000 0.000000 0.000000
-0.000663 -0.001507 0.000000
-0.001507 -0.002039 0.000000
0.000000 0.000000 0.000000
0.011164 0.005904 0.000000
0.005904 0.003751 0.000000
0.000000 0.000000 0.000000
0.010995 0.000559 0.000000
0.000559 0.008632 0.000000
0.000000 0.000000 0.000000
-0.003704 -0.010534 0.000000
-0.010534 -0.001553 0.000000
0.000000 0.000000 0.000000
-0.001698 -0.000506 0.000000
-0.000506 0.008837 0.000000
0.000000 0.000000 0.000000
-0.005638 -0.006414 0.000000
-0.006414 -0.003886 0.000000
0.000000 0.000000 0.000000
-0.008246 -0.004842 0.000000
-0.004842 -0.030397 0.000000
0.000000 0.000000 0.000000
-0.001075 -0.000381 0.000000
-0.000381 0.002104 0.000000
0.000000 0.000000 0.000000
-0.009408 -0.002512 0.000000
-0.002512 -0.012143 0.000000
0.000000 0.000000 0.000000
-0.002905 -0.001656 0.000000
-0.001656 -0.001605 0.000000
0.000000 0.000000 0.000000
-0.005808 -0.002975 0.000000
-0.002975 0.004173 0.000000
0.000000 0.000000 0.000000
-0.001461 0.004798 0.000000
0.004798 0.011878 0.000000
0.000000 0.000000 0.000000
0.000754 -0.002230 0.000000
-0.002230 -0.001432 0.000000
0.000000 0.000000 0.000000
-0.000737 -0.002499 0.000000
-0.002499 0.004155 0.000000
0.000000 0.000000 0.000000
-0.004202 0.001222 0.000000
0.001222 0.000189 0.000000
0.000000 0.000000 0.000000
0.004852 0.002026 0.000000
0.002026 0.011221 0.000000
0.000000 0.000000 0.000000
0.005226 0.002047 0.000000
0.002047 0.003382 0.000000
0.000000 0.000000 0.000000
0.007134 -0.000207 0.000000
-0.000207 0.010361 0.000000
0.000000 0.000000 0.000000
-0.001590 -0.002175 0.000000
-0.002175 -0.000535 0.000000
0.000000 0.000000 0.000000
-0.000237 -0.003405 0.000000
-0.003405 0.012428 0.000000
0.000000 0.000000 0.000000
-0.002794 0.002728 0.000000
0.002728 0.008351 0.000000
0.000000 0.000000 0.000000
0.011239 -0.005642 0.000000
-0.005642 -0.011434 0.000000
0.000000 0.000000 0.000000
-0.001290 0.000949 0.000000
0.000949 -0.009557 0.000000
0.000000 0.000000 0.000000
-0.008138 0.008122 0.000000
0.008122 -0.012411 0.000000
0.000000 0.000000 0.000000
0.003797 -0.003789 0.000000
-0.003789 -0.008447 0.000000
0.000000 0.000000 0.000000
0.000731 -0.000313 0.000000
-0.000313 0.004473 0.000000
0.000000 0.000000 0.000000
0.010172 -0.006949 0.000000
-0.006949 -0.007236 0.000000
0.000000 0.000000 0.000000
-0.001692 -0.001153 0.000000
-0.001153 0.004371 0.000000
0.000000 0.000000 0.000000
-0.005462 0.005456 0.000000
0.005456 -0.011093 0.000000
0.000000 0.000000 0.000000
0.006968 -0.001765 0.000000
-0.001765 0.008096 0.000000
0.000000 0.000000 0.000000
0.010205 0.002535 0.000000
0.002535 -0.002760 0.000000
0.000000 0.000000 0.000000
-0.009204 0.002378 0.000000
0.002378 0.014981 0.000000
0.000000 0.000000 0.000000
-0.010029 0.009173 0.000000
0.009173 -0.021598 0.000000
0.000000 0.000000 0.000000
-0.002340 -0.010420 0.000000
-0.010420 -0.012112 0.000000
0.000000 0.000000 0.000000
0.007058 0.000588 0.000000
0.000588 -0.005713 0.000000
0.000000 0.000000 0.000000
0.016116 -0.000662 0.000000
-0.000662 0.009948 0.000000
0.000000 0.000000 0.000000
0.012277 0.005642 0.000000
0.005642 0.009604 0.000000
0.000000 0.000000 0.000000
0.028216 0.009677 0.000000
0.009677 0.026442 0.000000
0.000000 0.000000 0.000000
-0.005170 0.001056 0.000000
0.001056 -0.000779 0.000000
0.000000 0.000000 0.000000
0.008031 0.001976 0.000000
0.001976 -0.003520 0.000000
0.000000 0.000000 0.000000
-0.003085 0.004476 0.000000
0.004476 0.000299 0.000000
0.000000 0.000000 0.000000
-0.021727 -0.010372 0.000000
-0.010372 -0.021455 0.000000
0.000000 0.000000 0.000000
-0.009401 0.001155 0.000000
0.001155 -0.021393 0.000000
0.000000 0.000000 0.000000
-0.002916 -0.000538 0.000000
-0.000538 -0.012333 0.000000
0.000000 0.000000 0.000000
-0.003221 -0.003766 0.000000
-0.003766 -0.002926 0.000000
0.000000 0.000000 0.000000
-0.004521 0.002122 0.000000
0.002122 -0.016193 0.000000
0.000000 0.000000 0.000000
0.004976 0.006488 0.000000
0.006488 -0.008979 0.000000
0.000000 0.000000 0.000000
0.000392 0.002774 0.000000
0.002774 -0.018215 0.000000
0.000000 0.000000 0.000000
0.017566 0.001619 0.000000
0.001619 0.011490 0.000000
0.000000 0.000000 0.000000
-0.006845 -0.006413 0.000000
-0.006413 0.004989 0.000000
0.000000 0.000000 0.000000
-0.001204 0.008349 0.000000
0.008349 0.020557 0.000000
0.000000 0.000000 0.000000
0.006602 0.002996 0.000000
0.002996 0.001918 0.000000
0.000000 0.000000 0.000000
-0.015308 -0.006137 0.000000
-0.006137 -0.012698 0.000000
0.000000 0.000000 0.000000
-0.014318 -0.004297 0.000000
-0.004297 0.001824 0.000000
0.000000 0.000000 0.000000
-0.011110 0.001157 0.000000
0.001157 -0.005833 0.000000
0.000000 0.000000 0.000000
0.006677 -0.011921 0.000000
-0.011921 -0.005674 0.000000
0.000000 0.000000 0.000000
0.001780 0.008557 0.000000
0.008557 -0.001698 0.000000
0.000000 0.000000 0.000000
-0.004946 0.001227 0.000000
0.001227 -0.001975 0.000000
0.000000 0.000000 0.000000
-0.000866 0.007623 0.000000
0.007623 -0.001896 0.000000
0.000000 0.000000 0.000000
-0.000988 -0.001796 0.000000
-0.001796 0.004364 0.000000
0.000000 0.000000 0.000000
-0.002534 0.000854 0.000000
0.000854 -0.009493 0.000000
0.000000 0.000000 0.000000
0.007848 0.007268 0.000000
0.007268 0.001928 0.000000
0.000000 0.000000 0.000000
0.002397 -0.002810 0.000000
-0.002810 -0.001313 0.000000
0.000000 0.000000 0.000000
-0.001047 -0.002730 0.000000
-0.002730 -0.004773 0.000000
0.000000 0.000000 0.000000
-0.003691 0.003524 0.000000
0.003524 0.004445 0.000000
0.000000 0.000000 0.000000
-0.003093 -0.004056 0.000000
-0.004056 0.007015 0.000000
0.000000 0.000000 0.000000
-0.008462 0.000480 0.000000
0.000480 -0.003580 0.000000
0.000000 0.000000 0.000000
-0.002253 -0.003201 0.000000
-0.003201 -0.012855 0.000000
0.000000 0.000000 0.000000
-0.025971 -0.005929 0.000000
-0.005929 0.007928 0.000000
0.000000 0.000000 0.000000
-0.005441 -0.009879 0.000000
-0.009879 0.007323 0.000000
0.000000 0.000000 0.000000
-0.020761 0.003024 0.000000
0.003024 0.021590 0.000000
0.000000 0.000000 0.000000
0.001815 -0.000938 0.000000
-0.000938 0.007817 0.000000
0.000000 0.000000 0.000000
0.012304 0.007264 0.000000
0.007264 0.016450 0.000000
0.000000 0.000000 0.000000
0.005231 -0.007522 0.000000
-0.007522 0.002385 0.000000
0.000000 0.000000 0.000000
0.017304 0.002728 0.000000
0.002728 -0.005841 0.000000
0.000000 0.000000 0.000000
0.015779 -0.004920 0.000000
-0.004920 0.005616 0.000000
0.000000 0.000000 0.000000
0.009933 -0.001933 0.000000
-0.001933 -0.009348 0.000000
0.000000 0.000000 0.000000
0.003854 -0.000762 0.000000
-0.000762 0.005070 0.000000
0.000000 0.000000 0.000000
0.002196 -0.006924 0.000000
-0.006924 -0.002411 0.000000
0.000000 0.000000 0.000000
-0.002754 -0.003559 0.000000
-0.003559 0.000736 0.000000
0.000000 0.000000 0.000000
0.007141 -0.000577 0.000000
-0.000577 -0.009409 0.000000
0.000000 0.000000 0.000000
0.009632 0.005764 0.000000
0.005764 0.006609 0.000000
0.000000 0.000000 0.000000
-0.016308 -0.008929 0.000000
-0.008929 -0.003702 0.000000
0.000000 0.000000 0.000000
-0.001618 -0.005135 0.000000
-0.005135 0.009765 0.000000
0.000000 0.000000 0.000000
0.002296 -0.001456 0.000000
-0.001456 0.004644 0.000000
0.000000 0.000000 0.000000
0.006877 0.005617 0.000000
0.005617 0.005292 0.000000
0.000000 0.000000 0.000000
0.019955 0.007641 0.000000
0.007641 0.019016 0.000000
0.000000 0.000000 0.000000
0.009173 -0.001222 0.000000
-0.001222 -0.016550 0.000000
0.000000 0.000000 0.000000
0.000448 0.001180 0.000000
0.001180 -0.019997 0.000000
0.000000 0.000000 0.000000
0.005533 -0.000912 0.000000
-0.000912 0.009837 0.000000
0.000000 0.000000 0.000000
0.003251 -0.001077 0.000000
-0.001077 0.002223 0.000000
0.000000 0.000000 0.000000
-0.000633 -0.006123 0.000000
-0.006123 0.009339 0.000000
0.000000 0.000000 0.000000
0.001220 -0.004937 0.000000
-0.004937 0.009422 0.000000
0.000000 0.000000 0.000000
0.017123 0.009138 0.000000
0.009138 0.011375 0.000000
0.000000 0.000000 0.000000
-0.006249 -0.000209 0.000000
-0.000209 -0.006982 0.000000
0.000000 0.000000 0.000000
-0.001293 0.003465 0.000000
0.003465 0.008258 0.000000
0.000000 0.000000 0.000000
0.008454 -0.007046 0.000000
-0.007046 -0.002039 0.000000
0.000000 0.000000 0.000000
0.000457 -0.000028 0.000000
-0.000028 -0.000298 0.000000
0.000000 0.000000 0.000000
-0.008965 0.006249 0.000000
0.006249 0.007380 0.000000
0.000000 0.000000 0.000000
0.004035 -0.008135 0.000000
-0.008135 0.005793 0.000000
0.000000 0.000000 0.000000
-0.008671 0.000755 0.000000
0.000755 -0.016504 0.000000
0.000000 0.000000 0.000000
0.019953 -0.010941 0.000000
-0.010941 0.011447 0.000000
0.000000 0.000000 0.000000
-0.013257 0.002004 0.000000
0.002004 -0.007390 0.000000
0.000000 0.000000 0.000000
0.021525 -0.008717 0.000000
-0.008717 0.026478 0.000000
0.000000 0.000000 0.000000
-0.006523 0.007189 0.000000
0.007189 -0.005818 0.000000
0.000000 0.000000 0.000000
0.001184 0.000408 0.000000
0.000408 0.018990 0.000000
0.000000 0.000000 0.000000
0.008758 0.002854 0.000000
0.002854 -0.003639 0.000000
0.000000 0.000000 0.000000
-0.010090 -0.019185 0.000000
-0.019185 0.008115 0.000000
0.000000 0.000000 0.000000
0.010917 -0.004643 0.000000
-0.004643 0.009507 0.000000
0.000000 0.000000 0.000000
0.009069 -0.000146 0.000000
-0.000146 0.008123 0.000000
0.000000 0.000000 0.000000
-0.011936 0.000466 0.000000
0.000466 -0.015235 0.000000
0.000000 0.000000 0.000000
0.013133 -0.000153 0.000000
-0.000153 0.006540 0.000000
0.000000 0.000000 0.000000
-0.007563 -0.035968 0.000000
-0.035968 0.026219 0.000000
0.000000 0.000000 0.000000
0.000287 -0.001940 0.000000
-0.001940 -0.007598 0.000000
0.000000 0.000000 0.000000
-0.000174 0.002720 0.000000
0.002720 0.009220 0.000000
0.000000 0.000000 0.000000
0.010555 -0.006629 0.000000
-0.006629 0.002394 0.000000
0.000000 0.000000 0.000000
0.013223 0.002058 0.000000
0.002058 0.009625 0.000000
0.000000 0.000000 0.000000
0.003482 0.002936 0.000000
0.002936 0.000062 0.000000
0.000000 0.000000 0.000000
0.010167 -0.009773 0.000000
-0.009773 0.004299 0.000000
0.000000 0.000000 0.000000
0.005456 -0.002448 0.000000
-0.002448 0.000235 0.000000
0.000000 0.000000 0.000000
-0.000003 0.001950 0.000000
0.001950 0.000612 0.000000
0.000000 0.000000 0.000000
-0.009686 -0.008376 0.000000
-0.008376 -0.026285 0.000000
0.000000 0.000000 0.000000
-0.007697 -0.007747 0.000000
-0.007747 -0.026315 0.000000
0.000000 0.000000 0.000000
-0.012920 -0.010743 0.000000
-0.010743 -0.029203 0.000000
0.000000 0.000000 0.000000
-0.002050 0.003680 0.000000
0.003680 -0.011100 0.000000
0.000000 0.000000 0.000000
-0.008537 -0.000613 0.000000
-0.000613 0.002778 0.000000
0.000000 0.000000 0.000000
-0.012853 0.002823 0.000000
0.002823 0.002818 0.000000
0.000000 0.000000 0.000000
0.003950 -0.009847 0.000000
-0.009847 0.002920 0.000000
0.000000 0.000000 0.000000
-0.009073 -0.005589 0.000000
-0.005589 0.005302 0.000000
0.000000 0.000000 0.000000
-0.003931 -0.004727 0.000000
-0.004727 0.017587 0.000000
0.000000 0.000000 0.000000
0.000871 0.000170 0.000000
0.000170 -0.002069 0.000000
0.000000 0.000000 0.000000
0.006484 0.008821 0.000000
0.008821 -0.001960 0.000000
0.000000 0.000000 0.000000
0.008060 0.000876 0.000000
0.000876 0.020723 0.000000
0.000000 0.000000 0.000000
0.003344 0.001890 0.000000
0.001890 0.004526 0.000000
0.000000 0.000000 0.000000
-0.030080 -0.006260 0.000000
-0.006260 0.008301 0.000000
0.000000 0.000000 0.000000
-0.002608 -0.000723 0.000000
-0.000723 0.014415 0.000000
0.000000 0.000000 0.000000
-0.038459 -0.011365 0.000000
-0.011365 -0.017130 0.000000
0.000000 0.000000 0.000000
0.005024 -0.003001 0.000000
-0.003001 0.016161 0.000000
0.000000 0.000000 0.000000
-0.001939 -0.002479 0.000000
-0.002479 -0.007278 0.000000
0.000000 0.000000 0.000000
-0.002017 0.000052 0.000000
0.000052 -0.005760 0.000000
0.000000 0.000000 0.000000
0.002207 0.000269 0.000000
0.000269 -0.004509 0.000000
0.000000 0.000000 0.000000
-0.001097 -0.002872 0.000000
-0.002872 -0.002644 0.000000
0.000000 0.000000 0.000000
-0.003975 0.005200 0.000000
0.005200 -0.001657 0.000000
0.000000 0.000000 0.000000
0.001150 0.000196 0.000000
0.000196 -0.002244 0.000000
0.000000 0.000000 0.000000
-0.008699 0.008990 0.000000
0.008990 0.004354 0.000000
0.000000 0.000000 0.000000
0.006591 0.010312 0.000000
0.010312 -0.006629 0.000000
0.000000 0.000000 0.000000
-0.000652 -0.001160 0.000000
-0.001160 0.004363 0.000000
0.000000 0.000000 0.000000
0.000207 0.007299 0.000000
0.007299 0.013536 0.000000
0.000000 0.000000 0.000000
-0.000672 -0.003978 0.000000
-0.003978 0.002480 0.000000
0.000000 0.000000 0.000000
0.001185 -0.005662 0.000000
-0.005662 -0.000824 0.000000
0.000000 0.000000 0.000000
-0.002049 0.000460 0.000000
0.000460 0.002056 0.000000
0.000000 0.000000 0.000000
-0.006737 -0.002017 0.000000
-0.002017 0.000324 0.000000
0.000000 0.000000 0.000000
-0.011889 -0.025659 0.000000
-0.025659 -0.003484 0.000000
0.000000 0.000000 0.000000
-0.001327 0.007078 0.000000
0.007078 -0.003681 0.000000
0.000000 0.000000 0.000000
-0.015878 0.006921 0.000000
0.006921 0.000211 0.000000
0.000000 0.000000 0.000000
-0.024308 -0.002913 0.000000
-0.002913 0.010249 0.000000
0.000000 0.000000 0.000000
0.007419 0.000229 0.000000
0.000229 -0.003313 0.000000
0.000000 0.000000 0.000000
0.006211 -0.003944 0.000000
-0.003944 -0.010941 0.000000
0.000000 0.000000 0.000000
-0.003341 -0.005492 0.000000
-0.005492 -0.003251 0.000000
0.000000 0.000000 0.000000
-0.008325 -0.002299 0.000000
-0.002299 -0.000927 0.000000
0.000000 0.000000 0.000000
-0.004265 -0.004352 0.000000
-0.004352 0.000758 0.000000
0.000000 0.000000 0.000000
-0.025196 -0.030967 0.000000
-0.030967 0.006065 0.000000
0.000000 0.000000 0.000000
-0.019201 0.000372 0.000000
0.000372 0.006406 0.000000
0.000000 0.000000 0.000000
-0.011865 0.000339 0.000000
0.000339 -0.007708 0.000000
0.000000 0.000000 0.000000
-0.037557 -0.035419 0.000000
-0.035419 0.013617 0.000000
0.000000 0.000000 0.000000
-0.012881 0.000610 0.000000
0.000610 -0.007235 0.000000
0.000000 0.000000 0.000000
-0.013643 -0.025785 0.000000
-0.025785 -0.000531 0.000000
0.000000 0.000000 0.000000
0.005699 0.002665 0.000000
0.002665 0.012494 0.000000
0.000000 0.000000 0.000000
0.007490 0.001943 0.000000
0.001943 0.005307 0.000000
0.000000 0.000000 0.000000
0.003156 0.000847 0.000000
0.000847 0.004431 0.000000
0.000000 0.000000 0.000000
0.023785 -0.006095 0.000000
-0.006095 -0.001488 0.000000
0.000000 0.000000 0.000000
0.020706 -0.005804 0.000000
-0.005804 -0.008615 0.000000
0.000000 0.000000 0.000000
0.005317 -0.007464 0.000000
-0.007464 0.011609 0.000000
0.000000 0.000000 0.000000
-0.002079 -0.003208 0.000000
-0.003208 0.004061 0.000000
0.000000 0.000000 0.000000
-0.003429 -0.001751 0.000000
-0.001751 -0.010592 0.000000
0.000000 0.000000 0.000000
0.010124 -0.002925 0.000000
-0.002925 -0.000327 0.000000
0.000000 0.000000 0.000000
0.003001 0.002486 0.000000
0.002486 0.000799 0.000000
0.000000 0.000000 0.000000
-0.001786 -0.003369 0.000000
-0.003369 -0.003381 0.000000
0.000000 0.000000 0.000000
0.002650 0.005027 0.000000
0.005027 0.016900 0.000000
0.000000 0.000000 0.000000
-0.007557 0.000607 0.000000
0.000607 -0.002733 0.000000
0.000000 0.000000 0.000000
0.007427 0.008065 0.000000
0.008065 0.023870 0.000000
0.000000 0.000000 0.000000
0.004464 0.001044 0.000000
0.001044 0.003258 0.000000
0.000000 0.000000 0.000000
0.003179 0.002543 0.000000
0.002543 0.015757 0.000000
0.000000 0.000000 0.000000
-0.009338 -0.003111 0.000000
-0.003111 -0.003612 0.000000
0.000000 0.000000 0.000000
-0.010884 0.005663 0.000000
0.005663 -0.006048 0.000000
0.000000 0.000000 0.000000
0.005623 0.001419 0.000000
0.001419 0.015576 0.000000
0.000000 0.000000 0.000000
-0.005517 0.000326 0.000000
0.000326 -0.001669 0.000000
0.000000 0.000000 0.000000
-0.013110 -0.003869 0.000000
-0.003869 -0.013248 0.000000
0.000000 0.000000 0.000000
-0.011995 -0.007166 0.000000
-0.007166 0.000729 0.000000
0.000000 0.000000 0.000000
-0.015764 -0.001754 0.000000
-0.001754 -0.011684 0.000000
0.000000 0.000000 0.000000
-0.000150 -0.005455 0.000000
-0.005455 -0.018092 0.000000
0.000000 0.000000 0.000000
-0.000569 -0.003156 0.000000
-0.003156 0.004095 0.000000
0.000000 0.000000 0.000000
0.004351 -0.002729 0.000000
-0.002729 -0.008101 0.000000
0.000000 0.000000 0.000000
-0.002333 -0.001529 0.000000
-0.001529 0.003319 0.000000
0.000000 0.000000 0.000000
0.000193 0.016047 0.000000
0.016047 0.003824 0.000000
0.000000 0.000000 0.000000
-0.006002 -0.003207 0.000000
-0.003207 0.011560 0.000000
0.000000 0.000000 0.000000
0.003627 0.000694 0.000000
0.000694 -0.017270 0.000000
0.000000 0.000000 0.000000
0.006264 0.003964 0.000000
0.003964 -0.015065 0.000000
0.000000 0.000000 0.000000
0.024615 -0.013089 0.000000
-0.013089 0.009859 0.000000
0.000000 0.000000 0.000000
0.001649 0.002116 0.000000
0.002116 -0.016297 0.000000
0.000000 0.000000 0.000000
-0.019238 0.006456 0.000000
0.006456 -0.011858 0.000000
0.000000 0.000000 0.000000
-0.002756 -0.000408 0.000000
-0.000408 0.001271 0.000000
0.000000 0.000000 0.000000
0.016893 -0.003790 0.000000
-0.003790 0.009767 0.000000
0.000000 0.000000 0.000000
0.008049 0.004124 0.000000
0.004124 0.000668 0.000000
0.000000 0.000000 0.000000
0.014092 0.008377 0.000000
0.008377 0.015795 0.000000
0.000000 0.000000 0.000000
0.003106 0.001882 0.000000
0.001882 0.002890 0.000000
0.000000 0.000000 0.000000
0.003281 -0.005504 0.000000
-0.005504 0.014223 0.000000
0.000000 0.000000 0.000000
0.007426 0.007246 0.000000
0.007246 0.023054 0.000000
0.000000 0.000000 0.000000
-0.011162 -0.000331 0.000000
-0.000331 -0.001307 0.000000
0.000000 0.000000 0.000000
0.008581 -0.006681 0.000000
-0.006681 0.003986 0.000000
0.000000 0.000000 0.000000
0.001612 0.000053 0.000000
0.000053 0.005040 0.000000
0.000000 0.000000 0.000000
0.004449 0.002692 0.000000
0.002692 -0.006138 0.000000
0.000000 0.000000 0.000000
-0.008052 0.000971 0.000000
0.000971 -0.004921 0.000000
0.000000 0.000000 0.000000
0.012005 0.000307 0.000000
0.000307 0.012705 0.000000
0.000000 0.000000 0.000000
0.014500 -0.012284 0.000000
-0.012284 -0.001629 0.000000
0.000000 0.000000 0.000000
0.002557 0.000152 0.000000
0.000152 0.004394 0.000000
0.000000 0.000000 0.000000
0.006284 -0.002058 0.000000
-0.002058 0.008316 0.000000
0.000000 0.000000 0.000000
0.005306 0.009604 0.000000
0.009604 0.001576 0.000000
0.000000 0.000000 0.000000
0.005129 0.001793 0.000000
0.001793 -0.007022 0.000000
0.000000 0.000000 0.000000
0.002936 0.008973 0.000000
0.008973 -0.006658 0.000000
0.000000 0.000000 0.000000
-0.000790 -0.002667 0.000000
-0.002667 -0.001545 0.000000
0.000000 0.000000 0.000000
0.008357 -0.001909 0.000000
-0.001909 0.008539 0.000000
0.000000 0.000000 0.000000
-0.009706 -0.006459 0.000000
-0.006459 -0.012297 0.000000
0.000000 0.000000 0.000000
-0.009561 -0.012058 0.000000
-0.012058 -0.015569 0.000000
0.000000 0.000000 0.000000
0.003359 0.000221 0.000000
0.000221 0.004131 0.000000
0.000000 0.000000 0.000000
-0.007496 0.013076 0.000000
0.013076 0.005152 0.000000
0.000000 0.000000 0.000000
0.016280 0.003057 0.000000
0.003057 -0.002595 0.000000
0.000000 0.000000 0.000000
0.005304 0.003086 0.000000
0.003086 0.012740 0.000000
0.000000 0.000000 0.000000
-0.019972 0.010842 0.000000
0.010842 0.009334 0.000000
0.000000 0.000000 0.000000
-0.000155 0.009460 0.000000
0.009460 0.008465 0.000000
0.000000 0.000000 0.000000
-0.024948 0.007243 0.000000
0.007243 -0.014184 0.000000
0.000000 0.000000 0.000000
-0.002259 0.008306 0.000000
0.008306 0.013848 0.000000
0.000000 0.000000 0.000000
0.001030 0.004737 0.000000
0.004737 0.016693 0.000000
0.000000 0.000000 0.000000
-0.006447 0.001889 0.000000
0.001889 -0.000997 0.000000
0.000000 0.000000 0.000000
-0.006732 -0.004139 0.000000
-0.004139 0.015247 0.000000
0.000000 0.000000 0.000000
-0.004046 -0.006283 0.000000
-0.006283 -0.015109 0.000000
0.000000 0.000000 0.000000
-0.004864 0.004142 0.000000
0.004142 -0.000421 0.000000
0.000000 0.000000 0.000000
-0.005153 0.002917 0.000000
0.002917 -0.017267 0.000000
0.000000 0.000000 0.000000
0.014732 0.000042 0.000000
0.000042 0.007080 0.000000
0.000000 0.000000 0.000000
-0.002026 0.001959 0.000000
0.001959 -0.009050 0.000000
0.000000 0.000000 0.000000
0.002989 -0.004225 0.000000
-0.004225 -0.000485 0.000000
0.000000 0.000000 0.000000
-0.003146 -0.001677 0.000000
-0.001677 -0.002376 0.000000
0.000000 0.000000 0.000000
-0.000978 -0.001283 0.000000
-0.001283 0.008794 0.000000
0.000000 0.000000 0.000000
-0.002098 -0.007322 0.000000
-0.007322 -0.009925 0.000000
0.000000 0.000000 0.000000
0.006873 0.000457 0.000000
0.000457 -0.000350 0.000000
0.000000 0.000000 0.000000
0.007130 0.005355 0.000000
0.005355 -0.001904 0.000000
0.000000 0.000000 0.000000
-0.014014 -0.008264 0.000000
-0.008264 -0.013309 0.000000
0.000000 0.000000 0.000000
-0.006210 0.002751 0.000000
0.002751 -0.006256 0.000000
0.000000 0.000000 0.000000
-0.003331 -0.002134 0.000000
-0.002134 -0.010427 0.000000
0.000000 0.000000 0.000000
0.004436 -0.005911 0.000000
-0.005911 0.000700 0.000000
0.000000 0.000000 0.000000
0.032577 0.015841 0.000000
0.015841 -0.007663 0.000000
0.000000 0.000000 0.000000
0.006635 -0.009637 0.000000
-0.009637 -0.000740 0.000000
0.000000 0.000000 0.000000
0.005433 -0.004190 0.000000
-0.004190 -0.005772 0.000000
0.000000 0.000000 0.000000
0.011262 0.001973 0.000000
0.001973 0.003836 0.000000
0.000000 0.000000 0.000000
0.008571 -0.004551 0.000000
-0.004551 -0.005743 0.000000
0.000000 0.000000 0.000000
0.009284 -0.007576 0.000000
-0.007576 0.021540 0.000000
0.000000 0.000000 0.000000
0.009355 -0.010504 0.000000
-0.010504 0.021102 0.000000
0.000000 0.000000 0.000000
0.006183 -0.002725 0.000000
-0.002725 0.004711 0.000000
0.000000 0.000000 0.000000
0.017424 -0.007062 0.000000
-0.007062 0.010505 0.000000
0.000000 0.000000 0.000000
0.013403 0.004173 0.000000
0.004173 0.003762 0.000000
0.000000 0.000000 0.000000
-0.009901 -0.002714 0.000000
-0.002714 -0.006534 0.000000
0.000000 0.000000 0.000000
0.002669 0.004314 0.000000
0.004314 -0.006945 0.000000
0.000000 0.000000 0.000000
-0.010297 -0.000677 0.000000
-0.000677 -0.012696 0.000000
0.000000 0.000000 0.000000
0.010757 -0.004354 0.000000
-0.004354 -0.016732 0.000000
0.000000 0.000000 0.000000
0.017400 -0.009704 0.000000
-0.009704 0.013563 0.000000
0.000000 0.000000 0.000000
-0.007335 0.012478 0.000000
0.012478 0.003814 0.000000
0.000000 0.000000 0.000000
-0.007436 -0.006029 0.000000
-0.006029 -0.011004 0.000000
0.000000 0.000000 0.000000
-0.020557 -0.005722 0.000000
-0.005722 -0.013297 0.000000
0.000000 0.000000 0.000000
-0.003946 -0.001058 0.000000
-0.001058 -0.005049 0.000000
0.000000 0.000000 0.000000
-0.010118 -0.001036 0.000000
-0.001036 -0.006747 0.000000
0.000000 0.000000 0.000000
0.004556 0.007854 0.000000
0.007854 0.009834 0.000000
0.000000 0.000000 0.000000
0.005793 0.001220 0.000000
0.001220 0.002893 0.000000
0.000000 0.000000 0.000000
-0.011646 0.002218 0.000000
0.002218 0.008830 0.000000
0.000000 0.000000 0.000000
-0.007752 -0.002232 0.000000
-0.002232 0.004627 0.000000
0.000000 0.000000 0.000000
-0.003897 -0.016844 0.000000
-0.016844 -0.007191 0.000000
0.000000 0.000000 0.000000
0.000546 -0.005588 0.000000
-0.005588 0.010255 0.000000
0.000000 0.000000 0.000000
-0.010860 -0.012592 0.000000
-0.012592 -0.016450 0.000000
0.000000 0.000000 0.000000
0.010693 -0.011314 0.000000
-0.011314 -0.004670 0.000000
0.000000 0.000000 0.000000
-0.002053 -0.010006 0.000000
-0.010006 -0.004442 0.000000
0.000000 0.000000 0.000000
0.014112 -0.010075 0.000000
-0.010075 -0.003076 0.000000
0.000000 0.000000 0.000000
0.027905 -0.023012 0.000000
-0.023012 0.002114 0.000000
0.000000 0.000000 0.000000
0.004988 -0.003700 0.000000
-0.003700 0.003478 0.000000
0.000000 0.000000 0.000000
0.002653 0.003440 0.000000
0.003440 -0.002027 0.000000
0.000000 0.000000 0.000000
-0.007253 0.006035 0.000000
0.006035 -0.006009 0.000000
0.000000 0.000000 0.000000
0.035482 -0.007956 0.000000
-0.007956 0.017725 0.000000
0.000000 0.000000 0.000000
-0.009847 -0.000143 0.000000
-0.000143 -0.014933 0.000000
0.000000 0.000000 0.000000
0.008834 0.017195 0.000000
0.017195 0.009826 0.000000
0.000000 0.000000 0.000000
-0.011121 -0.008780 0.000000
-0.008780 -0.006220 0.000000
0.000000 0.000000 0.000000
0.020695 -0.002951 0.000000
-0.002951 0.020750 0.000000
0.000000 0.000000 0.000000
-0.008133 -0.001352 0.000000
-0.001352 -0.000817 0.000000
0.000000 0.000000 0.000000
0.006392 0.005767 0.000000
0.005767 -0.002109 0.000000
0.000000 0.000000 0.000000
-0.021622 -0.003078 0.000000
-0.003078 -0.008347 0.000000
0.000000 0.000000 0.000000
-0.016190 0.002738 0.000000
0.002738 -0.015011 0.000000
0.000000 0.000000 0.000000
0.012701 -0.002808 0.000000
-0.002808 -0.008252 0.000000
0.000000 0.000000 0.000000
0.006633 0.007711 0.000000
0.007711 -0.002424 0.000000
0.000000 0.000000 0.000000
0.003261 0.000567 0.000000
0.000567 -0.009298 0.000000
0.000000 0.000000 0.000000
0.009328 -0.003449 0.000000
-0.003449 0.003187 0.000000
0.000000 0.000000 0.000000
0.008373 -0.007365 0.000000
-0.007365 -0.000124 0.000000
0.000000 0.000000 0.000000
0.016768 0.008628 0.000000
0.008628 0.011821 0.000000
0.000000 0.000000 0.000000
-0.000714 -0.001986 0.000000
-0.001986 -0.011434 0.000000
0.000000 0.000000 0.000000
-0.011785 0.001980 0.000000
0.001980 0.007185 0.000000
0.000000 0.000000 0.000000
-0.003127 -0.002526 0.000000
-0.002526 -0.011407 0.000000
0.000000 0.000000 0.000000
-0.010882 0.014274 0.000000
0.014274 -0.027869 0.000000
0.000000 0.000000 0.000000
-0.008858 0.007464 0.000000
0.007464 -0.006431 0.000000
0.000000 0.000000 0.000000
0.001084 0.003462 0.000000
0.003462 0.014195 0.000000
0.000000 0.000000 0.000000
-0.008484 -0.002808 0.000000
-0.002808 -0.008007 0.000000
0.000000 0.000000 0.000000
0.010280 0.002254 0.000000
0.002254 0.009129 0.000000
0.000000 0.000000 0.000000
-0.000029 0.001038 0.000000
0.001038 0.006584 0.000000
0.000000 0.000000 0.000000
0.006642 0.001389 0.000000
0.001389 0.009060 0.000000
0.000000 0.000000 0.000000
0.007506 -0.000841 0.000000
-0.000841 0.007359 0.000000
0.000000 0.000000 0.000000
-0.002092 0.000940 0.000000
0.000940 0.008510 0.000000
0.000000 0.000000 0.000000
-0.012466 -0.000408 0.000000
-0.000408 0.015233 0.000000
0.000000 0.000000 0.000000
0.012012 0.005462 0.000000
0.005462 0.006859 0.000000
0.000000 0.000000 0.000000
-0.017583 0.001630 0.000000
0.001630 -0.009107 0.000000
0.000000 0.000000 0.000000
-0.009411 0.003425 0.000000
0.003425 -0.007423 0.000000
0.000000 0.000000 0.000000
-0.015389 0.012542 0.000000
0.012542 -0.003864 0.000000
0.000000 0.000000 0.000000
-0.003529 -0.003825 0.000000
-0.003825 -0.000588 0.000000
0.000000 0.000000 0.000000
-0.007269 0.009015 0.000000
0.009015 0.000833 0.000000
0.000000 0.000000 0.000000
0.012662 -0.006260 0.000000
-0.006260 0.001372 0.000000
0.000000 0.000000 0.000000
0.010706 -0.004538 0.000000
-0.004538 0.009109 0.000000
0.000000 0.000000 0.000000
0.025522 -0.008290 0.000000
-0.008290 0.015288 0.000000
0.000000 0.000000 0.000000
0.004789 -0.002947 0.000000
-0.002947 0.001181 0.000000
0.000000 0.000000 0.000000
-0.013115 0.001905 0.000000
0.001905 -0.002372 0.000000
0.000000 0.000000 0.000000
-0.010271 -0.000407 0.000000
-0.000407 0.003284 0.000000
0.000000 0.000000 0.000000
-0.006927 0.009759 0.000000
0.009759 0.001858 0.000000
0.000000 0.000000 0.000000
0.010012 -0.007063 0.000000
-0.007063 0.010833 0.000000
0.000000 0.000000 0.000000
0.003692 -0.000575 0.000000
-0.000575 0.002782 0.000000
0.000000 0.000000 0.000000
-0.004554 -0.002038 0.000000
-0.002038 0.009645 0.000000
0.000000 0.000000 0.000000
-0.001342 0.000572 0.000000
0.000572 -0.008796 0.000000
0.000000 0.000000 0.000000
0.002167 -0.002124 0.000000
-0.002124 0.013004 0.000000
0.000000 0.000000 0.000000
0.001217 0.002773 0.000000
0.002773 -0.005326 0.000000
0.000000 0.000000 0.000000
-0.003864 0.004927 0.000000
0.004927 0.012777 0.000000
0.000000 0.000000 0.000000
0.013470 -0.007077 0.000000
-0.007077 0.006762 0.000000
0.000000 0.000000 0.000000
-0.003138 0.005355 0.000000
0.005355 -0.010336 0.000000
0.000000 0.000000 0.000000
0.004715 -0.001610 0.000000
-0.001610 0.004624 0.000000
0.000000 0.000000 0.000000
0.007024 -0.009137 0.000000
-0.009137 0.005728 0.000000
0.000000 0.000000 0.000000
0.002086 0.001887 0.000000
0.001887 0.007141 0.000000
0.000000 0.000000 0.000000
-0.000359 0.005717 0.000000
0.005717 -0.008559 0.000000
0.000000 0.000000 0.000000
-0.003146 0.004913 0.000000
0.004913 -0.006675 0.000000
0.000000 0.000000 0.000000
-0.004081 -0.000680 0.000000
-0.000680 -0.008997 0.000000
0.000000 0.000000 0.000000
0.009247 0.001160 0.000000
0.001160 -0.004547 0.000000
0.000000 0.000000 0.000000
-0.012589 0.003437 0.000000
0.003437 -0.014829 0.000000
0.000000 0.000000 0.000000
-0.008935 -0.004196 0.000000
-0.004196 -0.010219 0.000000
0.000000 0.000000 0.000000
-0.005522 0.006740 0.000000
0.006740 -0.014133 0.000000
0.000000 0.000000 0.000000
-0.003947 -0.004116 0.000000
-0.004116 -0.000538 0.000000
0.000000 0.000000 0.000000
0.005585 0.000025 0.000000
0.000025 0.003190 0.000000
0.000000 0.000000 0.000000
-0.010890 0.005831 0.000000
0.005831 -0.002059 0.000000
0.000000 0.000000 0.000000
0.007004 0.001354 0.000000
0.001354 -0.001151 0.000000
0.000000 0.000000 0.000000
-0.005499 -0.001882 0.000000
-0.001882 0.000078 0.000000
0.000000 0.000000 0.000000
0.008569 0.005067 0.000000
0.005067 0.004729 0.000000
0.000000 0.000000 0.000000
-0.004088 -0.003252 0.000000
-0.003252 -0.006514 0.000000
0.000000 0.000000 0.000000
0.002319 0.000784 0.000000
0.000784 -0.006377 0.000000
0.000000 0.000000 0.000000
-0.002563 0.000729 0.000000
0.000729 -0.001820 0.000000
0.000000 0.000000 0.000000
-0.019311 -0.000345 0.000000
-0.000345 -0.005547 0.000000
0.000000 0.000000 0.000000
0.000921 0.009316 0.000000
0.009316 -0.001324 0.000000
0.000000 0.000000 0.000000
-0.012650 0.006447 0.000000
0.006447 -0.007968 0.000000
0.000000 0.000000 0.000000
0.006684 0.003294 0.000000
0.003294 0.009735 0.000000
0.000000 0.000000 0.000000
0.006925 -0.007021 0.000000
-0.007021 0.004342 0.000000
0.000000 0.000000 0.000000
-0.001192 0.017418 0.000000
0.017418 0.001714 0.000000
0.000000 0.000000 0.000000
0.014811 0.001735 0.000000
0.001735 -0.016162 0.000000
0.000000 0.000000 0.000000
-0.005908 0.007149 0.000000
0.007149 0.001911 0.000000
0.000000 0.000000 0.000000
0.006388 0.002614 0.000000
0.002614 -0.011336 0.000000
0.000000 0.000000 0.000000
-0.001485 -0.001866 0.000000
-0.001866 -0.010706 0.000000
0.000000 0.000000 0.000000
-0.003950 -0.008094 0.000000
-0.008094 0.000310 0.000000
0.000000 0.000000 0.000000
-0.002603 -0.001788 0.000000
-0.001788 0.011878 0.000000
0.000000 0.000000 0.000000
-0.002753 0.001263 0.000000
0.001263 0.006846 0.000000
0.000000 0.000000 0.000000
-0.011196 0.000894 0.000000
0.000894 -0.012494 0.000000
0.000000 0.000000 0.000000
0.020720 0.009935 0.000000
0.009935 0.010922 0.000000
0.000000 0.000000 0.000000
-0.001515 0.002478 0.000000
0.002478 0.002515 0.000000
0.000000 0.000000 0.000000
0.001011 0.002173 0.000000
0.002173 -0.002046 0.000000
0.000000 0.000000 0.000000
-0.003727 -0.004744 0.000000
-0.004744 -0.002665 0.000000
0.000000 0.000000 0.000000
-0.001916 0.004584 0.000000
0.004584 -0.003555 0.000000
0.000000 0.000000 0.000000
-0.017639 -0.013256 0.000000
-0.013256 0.003505 0.000000
0.000000 0.000000 0.000000
-0.002497 0.003205 0.000000
0.003205 -0.007332 0.000000
0.000000 0.000000 0.000000
-0.004843 -0.003522 0.000000
-0.003522 0.002451 0.000000
0.000000 0.000000 0.000000
0.000180 0.001558 0.000000
0.001558 -0.004242 0.000000
0.000000 0.000000 0.000000
-0.002798 0.005660 0.000000
0.005660 -0.002988 0.000000
0.000000 0.000000 0.000000
0.005064 0.000789 0.000000
0.000789 0.012957 0.000000
0.000000 0.000000 0.000000
0.019179 -0.000969 0.000000
-0.000969 0.019229 0.000000
0.000000 0.000000 0.000000
-0.012954 0.010009 0.000000
0.010009 -0.008619 0.000000
0.000000 0.000000 0.000000
0.016344 -0.003983 0.000000
-0.003983 0.004512 0.000000
0.000000 0.000000 0.000000
0.004555 -0.007660 0.000000
-0.007660 0.004629 0.000000
0.000000 0.000000 0.000000
0.003795 -0.001984 0.000000
-0.001984 -0.002813 0.000000
0.000000 0.000000 0.000000
0.005061 -0.008273 0.000000
-0.008273 0.002020 0.000000
0.000000 0.000000 0.000000
0.001102 -0.001737 0.000000
-0.001737 -0.020231 0.000000
0.000000 0.000000 0.000000
0.006627 0.002265 0.000000
0.002265 0.012402 0.000000
0.000000 0.000000 0.000000
-0.005943 0.001252 0.000000
0.001252 0.002005 0.000000
0.000000 0.000000 0.000000
0.006273 0.000189 0.000000
0.000189 0.005817 0.000000
0.000000 0.000000 0.000000
-0.000683 -0.006375 0.000000
-0.006375 0.012303 0.000000
0.000000 0.000000 0.000000
-0.005215 -0.000449 0.000000
-0.000449 -0.004627 0.000000
0.000000 0.000000 0.000000
0.004581 -0.003817 0.000000
-0.003817 -0.000196 0.000000
0.000000 0.000000 0.000000
0.020455 0.003258 0.000000
0.003258 0.020734 0.000000
0.000000 0.000000 0.000000
0.004353 -0.000935 0.000000
-0.000935 0.017896 0.000000
0.000000 0.000000 0.000000
-0.003552 0.001796 0.000000
0.001796 -0.001913 0.000000
0.000000 0.000000 0.000000
-0.015433 0.009310 0.000000
0.009310 -0.003745 0.000000
0.000000 0.000000 0.000000
0.007197 0.007505 0.000000
0.007505 0.006956 0.000000
0.000000 0.000000 0.000000
0.001243 0.000495 0.000000
0.000495 -0.007631 0.000000
0.000000 0.000000 0.000000
-0.007824 0.007689 0.000000
0.007689 0.005309 0.000000
0.000000 0.000000 0.000000
0.002503 -0.002137 0.000000
-0.002137 -0.007645 0.000000
0.000000 0.000000 0.000000
-0.006556 0.005706 0.000000
0.005706 -0.010525 0.000000
0.000000 0.000000 0.000000
0.003079 -0.000014 0.000000
-0.000014 0.002713 0.000000
0.000000 0.000000 0.000000
-0.009671 -0.003623 0.000000
-0.003623 -0.006555 0.000000
0.000000 0.000000 0.000000
-0.001050 0.009021 0.000000
0.009021 -0.001568 0.000000
0.000000 0.000000 0.000000
-0.009470 -0.007250 0.000000
-0.007250 -0.001295 0.000000
0.000000 0.000000 0.000000
0.008735 -0.002234 0.000000
-0.002234 -0.014175 0.000000
0.000000 0.000000 0.000000
0.008050 -0.004336 0.000000
-0.004336 -0.005571 0.000000
0.000000 0.000000 0.000000
0.028096 -0.030138 0.000000
-0.030138 0.028995 0.000000
0.000000 0.000000 0.000000
0.009714 0.002869 0.000000
0.002869 -0.001692 0.000000
0.000000 0.000000 0.000000
-0.033151 -0.002456 0.000000
-0.002456 0.004738 0.000000
0.000000 0.000000 0.000000
0.010182 0.005397 0.000000
0.005397 -0.000103 0.000000
0.000000 0.000000 0.000000
-0.000789 0.007692 0.000000
0.007692 -0.002247 0.000000
0.000000 0.000000 0.000000
0.004723 0.000683 0.000000
0.000683 0.004091 0.000000
0.000000 0.000000 0.000000
0.012015 -0.006339 0.000000
-0.006339 0.001075 0.000000
0.000000 0.000000 0.000000
-0.005431 0.001844 0.000000
0.001844 -0.001946 0.000000
0.000000 0.000000 0.000000
-0.007769 0.003625 0.000000
0.003625 -0.008127 0.000000
0.000000 0.000000 0.000000
-0.003532 0.005165 0.000000
0.005165 0.005381 0.000000
0.000000 0.000000 0.000000
0.005278 0.001398 0.000000
0.001398 0.011021 0.000000
0.000000 0.000000 0.000000
0.001859 -0.010381 0.000000
-0.010381 0.010162 0.000000
0.000000 0.000000 0.000000
-0.011169 -0.001291 0.000000
-0.001291 -0.011850 0.000000
0.000000 0.000000 0.000000
-0.000849 -0.004043 0.000000
-0.004043 0.007972 0.000000
0.000000 0.000000 0.000000
-0.005286 0.000660 0.000000
0.000660 -0.000677 0.000000
0.000000 0.000000 0.000000
-0.001286 -0.002436 0.000000
-0.002436 -0.004824 0.000000
0.000000 0.000000 0.000000
0.017435 -0.000136 0.000000
-0.000136 -0.013685 0.000000
0.000000 0.000000 0.000000
-0.000498 -0.004876 0.000000
-0.004876 0.009227 0.000000
0.000000 0.000000 0.000000
-0.002775 0.002718 0.000000
0.002718 -0.001732 0.000000
0.000000 0.000000 0.000000
0.004496 -0.002461 0.000000
-0.002461 -0.004260 0.000000
0.000000 0.000000 0.000000
-0.006927 0.000860 0.000000
0.000860 -0.009742 0.000000
0.000000 0.000000 0.000000
-0.007360 -0.002362 0.000000
-0.002362 0.003374 0.000000
0.000000 0.000000 0.000000
0.006417 -0.001129 0.000000
-0.001129 -0.010934 0.000000
0.000000 0.000000 0.000000
0.002968 0.002509 0.000000
0.002509 0.002519 0.000000
0.000000 0.000000 0.000000
0.005294 -0.014431 0.000000
-0.014431 0.011764 0.000000
0.000000 0.000000 0.000000
0.001873 -0.004780 0.000000
-0.004780 -0.008794 0.000000
0.000000 0.000000 0.000000
-0.001929 0.002679 0.000000
0.002679 -0.004927 0.000000
0.000000 0.000000 0.000000
0.014591 0.001722 0.000000
0.001722 0.009541 0.000000
0.000000 0.000000 0.000000
0.011937 -0.001078 0.000000
-0.001078 0.006956 0.000000
0.000000 0.000000 0.000000
0.015275 -0.010798 0.000000
-0.010798 -0.009233 0.000000
0.000000 0.000000 0.000000
0.024180 0.006202 0.000000
0.006202 -0.000387 0.000000
0.000000 0.000000 0.000000
0.005084 -0.010484 0.000000
-0.010484 -0.001079 0.000000
0.000000 0.000000 0.000000
0.011849 0.003136 0.000000
0.003136 -0.017300 0.000000
0.000000 0.000000 0.000000
0.006980 0.002966 0.000000
0.002966 -0.005058 0.000000
0.000000 0.000000 0.000000
-0.003586 0.004930 0.000000
0.004930 -0.000324 0.000000
0.000000 0.000000 0.000000
-0.020446 0.011664 0.000000
0.011664 -0.016804 0.000000
0.000000 0.000000 0.000000
0.009900 0.000863 0.000000
0.000863 0.006840 0.000000
0.000000 0.000000 0.000000
0.015906 -0.003896 0.000000
-0.003896 -0.000012 0.000000
0.000000 0.000000 0.000000
-0.005010 -0.012930 0.000000
-0.012930 -0.004001 0.000000
0.000000 0.000000 0.000000
-0.007230 -0.003967 0.000000
-0.003967 -0.005081 0.000000
0.000000 0.000000 0.000000
-0.012423 -0.000075 0.000000
-0.000075 0.011570 0.000000
0.000000 0.000000 0.000000
-0.003119 -0.003917 0.000000
-0.003917 0.000102 0.000000
0.000000 0.000000 0.000000
0.002871 -0.000072 0.000000
-0.000072 0.009146 0.000000
0.000000 0.000000 0.000000
-0.001908 0.005278 0.000000
0.005278 -0.019040 0.000000
0.000000 0.000000 0.000000
-0.001101 -0.005177 0.000000
-0.005177 0.010027 0.000000
0.000000 0.000000 0.000000
-0.002309 0.006024 0.000000
0.006024 -0.016720 0.000000
0.000000 0.000000 0.000000
-0.012518 0.004595 0.000000
0.004595 0.013311 0.000000
0.000000 0.000000 0.000000
0.001797 0.001017 0.000000
0.001017 -0.006370 0.000000
0.000000 0.000000 0.000000
-0.015652 -0.001246 0.000000
-0.001246 0.010915 0.000000
0.000000 0.000000 0.000000
-0.000550 0.002798 0.000000
0.002798 0.005691 0.000000
0.000000 0.000000 0.000000
-0.011917 -0.006211 0.000000
-0.006211 0.005378 0.000000
0.000000 0.000000 0.000000
0.013212 0.006879 0.000000
0.006879 0.007232 0.000000
0.000000 0.000000 0.000000
-0.014574 -0.003724 0.000000
-0.003724 -0.006668 0.000000
0.000000 0.000000 0.000000
-0.017817 -0.003668 0.000000
-0.003668 -0.027954 0.000000
0.000000 0.000000 0.000000
-0.010777 -0.000886 0.000000
-0.000886 -0.033749 0.000000
0.000000 0.000000 0.000000
-0.019321 -0.005766 0.000000
-0.005766 -0.026705 0.000000
0.000000 0.000000 0.000000
0.004736 -0.001659 0.000000
-0.001659 -0.004441 0.000000
0.000000 0.000000 0.000000
-0.013971 0.003722 0.000000
0.003722 -0.013349 0.000000
0.000000 0.000000 0.000000
0.014952 -0.000612 0.000000
-0.000612 -0.004160 0.000000
0.000000 0.000000 0.000000
-0.005087 0.001760 0.000000
0.001760 -0.010273 0.000000
0.000000 0.000000 0.000000
-0.017700 0.008260 0.000000
0.008260 0.001555 0.000000
0.000000 0.000000 0.000000
0.003905 -0.013199 0.000000
-0.013199 -0.012788 0.000000
0.000000 0.000000 0.000000
0.008212 -0.003682 0.000000
-0.003682 -0.006438 0.000000
0.000000 0.000000 0.000000
-0.020116 -0.006908 0.000000
-0.006908 0.000712 0.000000
0.000000 0.000000 0.000000
0.009072 -0.004099 0.000000
-0.004099 -0.001148 0.000000
0.000000 0.000000 0.000000
0.008562 -0.000903 0.000000
-0.000903 0.005478 0.000000
0.000000 0.000000 0.000000
0.018314 -0.001548 0.000000
-0.001548 -0.007035 0.000000
0.000000 0.000000 0.000000
0.009125 -0.011724 0.000000
-0.011724 -0.011802 0.000000
0.000000 0.000000 0.000000
0.001788 -0.000030 0.000000
-0.000030 0.000796 0.000000
0.000000 0.000000 0.000000
-0.001861 -0.002771 0.000000
-0.002771 0.001519 0.000000
0.000000 0.000000 0.000000
-0.009482 -0.006355 0.000000
-0.006355 -0.026774 0.000000
0.000000 0.000000 0.000000
-0.004889 0.007809 0.000000
0.007809 0.007046 0.000000
0.000000 0.000000 0.000000
-0.006761 -0.008131 0.000000
-0.008131 -0.016751 0.000000
0.000000 0.000000 0.000000
-0.006078 -0.000175 0.000000
-0.000175 0.000563 0.000000
0.000000 0.000000 0.000000
-0.030581 0.000291 0.000000
0.000291 -0.012656 0.000000
0.000000 0.000000 0.000000
-0.000261 -0.001804 0.000000
-0.001804 -0.004610 0.000000
0.000000 0.000000 0.000000
-0.012929 0.002176 0.000000
0.002176 -0.011830 0.000000
0.000000 0.000000 0.000000
-0.016539 -0.003897 0.000000
-0.003897 -0.004016 0.000000
0.000000 0.000000 0.000000
-0.006231 -0.004440 0.000000
-0.004440 -0.001826 0.000000
0.000000 0.000000 0.000000
0.001750 0.000896 0.000000
0.000896 0.007099 0.000000
0.000000 0.000000 0.000000
0.004217 -0.007410 0.000000
-0.007410 0.012345 0.000000
0.000000 0.000000 0.000000
-0.011572 0.002275 0.000000
0.002275 -0.003466 0.000000
0.000000 0.000000 0.000000
-0.010772 0.009199 0.000000
0.009199 0.009795 0.000000
0.000000 0.000000 0.000000
0.001524 0.003273 0.000000
0.003273 0.004535 0.000000
0.000000 0.000000 0.000000
0.001161 0.001703 0.000000
0.001703 0.004899 0.000000
0.000000 0.000000 0.000000
0.001234 -0.004730 0.000000
-0.004730 -0.011324 0.000000
0.000000 0.000000 0.000000
-0.004000 -0.002864 0.000000
-0.002864 -0.014098 0.000000
0.000000 0.000000 0.000000
0.000996 -0.006848 0.000000
-0.006848 0.005908 0.000000
0.000000 0.000000 0.000000
-0.000558 -0.012377 0.000000
-0.012377 0.001802 0.000000
0.000000 0.000000 0.000000
-0.012089 -0.006751 0.000000
-0.006751 0.005556 0.000000
0.000000 0.000000 0.000000
0.007329 -0.007237 0.000000
-0.007237 0.014344 0.000000
0.000000 0.000000 0.000000
-0.005274 -0.003603 0.000000
-0.003603 -0.004160 0.000000
0.000000 0.000000 0.000000
0.002402 -0.014072 0.000000
-0.014072 0.002471 0.000000
0.000000 0.000000 0.000000
0.011978 -0.019678 0.000000
-0.019678 0.004275 0.000000
0.000000 0.000000 0.000000
-0.006830 -0.001303 0.000000
-0.001303 -0.003414 0.000000
0.000000 0.000000 0.000000
0.003057 -0.008312 0.000000
-0.008312 0.010464 0.000000
0.000000 0.000000 0.000000
-0.001905 -0.000946 0.000000
-0.000946 0.006672 0.000000
0.000000 0.000000 0.000000
0.010414 0.001736 0.000000
0.001736 0.006086 0.000000
0.000000 0.000000 0.000000
0.004038 -0.016403 0.000000
-0.016403 -0.000389 0.000000
0.000000 0.000000 0.000000
-0.017294 0.002065 0.000000
0.002065 0.002954 0.000000
0.000000 0.000000 0.000000
-0.011274 0.009185 0.000000
0.009185 -0.006401 0.000000
0.000000 0.000000 0.000000
0.016548 0.010645 0.000000
0.010645 0.021597 0.000000
0.000000 0.000000 0.000000
-0.008582 -0.000637 0.000000
-0.000637 0.004941 0.000000
0.000000 0.000000 0.000000
0.016428 0.007808 0.000000
0.007808 0.019344 0.000000
0.000000 0.000000 0.000000
-0.005285 0.008281 0.000000
0.008281 -0.012886 0.000000
0.000000 0.000000 0.000000
-0.010667 -0.001759 0.000000
-0.001759 -0.011374 0.000000
0.000000 0.000000 0.000000
0.010951 0.006683 0.000000
0.006683 -0.007646 0.000000
0.000000 0.000000 0.000000
-0.009615 -0.003402 0.000000
-0.003402 -0.012355 0.000000
0.000000 0.000000 0.000000
0.006044 -0.003329 0.000000
-0.003329 0.013102 0.000000
0.000000 0.000000 0.000000
0.002007 -0.000004 0.000000
-0.000004 0.001511 0.000000
0.000000 0.000000 0.000000
0.006239 -0.004595 0.000000
-0.004595 0.018563 0.000000
0.000000 0.000000 0.000000
0.012059 -0.003414 0.000000
-0.003414 -0.016475 0.000000
0.000000 0.000000 0.000000
0.013146 -0.007244 0.000000
-0.007244 -0.005305 0.000000
0.000000 0.000000 0.000000
0.006492 -0.007345 0.000000
-0.007345 -0.008101 0.000000
0.000000 0.000000 0.000000
0.008947 -0.004148 0.000000
-0.004148 0.006588 0.000000
0.000000 0.000000 0.000000
-0.011100 -0.002409 0.000000
-0.002409 -0.001889 0.000000
0.000000 0.000000 0.000000
-0.003083 -0.001855 0.000000
-0.001855 0.004120 0.000000
0.000000 0.000000 0.000000
-0.004556 -0.013432 0.000000
-0.013432 0.010985 0.000000
0.000000 0.000000 0.000000
-0.001649 0.000740 0.000000
0.000740 -0.015910 0.000000
0.000000 0.000000 0.000000
0.002121 0.003045 0.000000
0.003045 -0.007400 0.000000
0.000000 0.000000 0.000000
0.006694 -0.003834 0.000000
-0.003834 0.004026 0.000000
0.000000 0.000000 0.000000
-0.004213 -0.003267 0.000000
-0.003267 -0.010688 0.000000
0.000000 0.000000 0.000000
-0.001451 0.000406 0.000000
0.000406 0.007515 0.000000
0.000000 0.000000 0.000000
0.002981 -0.004094 0.000000
-0.004094 -0.008362 0.000000
0.000000 0.000000 0.000000
-0.022347 0.002286 0.000000
0.002286 -0.015560 0.000000
0.000000 0.000000 0.000000
-0.000443 -0.004693 0.000000
-0.004693 0.001841 0.000000
0.000000 0.000000 0.000000
0.000362 0.020441 0.000000
0.020441 0.016134 0.000000
0.000000 0.000000 0.000000
-0.007571 -0.006595 0.000000
-0.006595 0.011111 0.000000
0.000000 0.000000 0.000000
-0.013304 -0.007383 0.000000
-0.007383 0.016579 0.000000
0.000000 0.000000 0.000000
-0.004395 0.002272 0.000000
0.002272 0.007768 0.000000
0.000000 0.000000 0.000000
-0.010062 0.005478 0.000000
0.005478 -0.002964 0.000000
0.000000 0.000000 0.000000
-0.019707 0.005145 0.000000
0.005145 0.014080 0.000000
0.000000 0.000000 0.000000
0.003645 -0.017877 0.000000
-0.017877 0.007354 0.000000
0.000000 0.000000 0.000000
-0.002759 -0.004903 0.000000
-0.004903 0.003359 0.000000
0.000000 0.000000 0.000000
0.003916 0.000293 0.000000
0.000293 0.007872 0.000000
0.000000 0.000000 0.000000
-0.002325 -0.000773 0.000000
-0.000773 0.009436 0.000000
0.000000 0.000000 0.000000
0.012292 -0.000537 0.000000
-0.000537 0.000135 0.000000
0.000000 0.000000 0.000000
-0.002681 -0.001426 0.000000
-0.001426 0.005665 0.000000
0.000000 0.000000 0.000000
-0.002891 -0.001062 0.000000
-0.001062 -0.001691 0.000000
0.000000 0.000000 0.000000
0.012127 0.005267 0.000000
0.005267 -0.003888 0.000000
0.000000 0.000000 0.000000
-0.007888 0.006330 0.000000
0.006330 -0.016986 0.000000
0.000000 0.000000 0.000000
-0.025662 0.007308 0.000000
0.007308 -0.014837 0.000000
0.000000 0.000000 0.000000
-0.023973 0.005155 0.000000
0.005155 0.009764 0.000000
0.000000 0.000000 0.000000
0.000363 -0.006504 0.000000
-0.006504 0.002149 0.000000
0.000000 0.000000 0.000000
0.006680 0.000171 0.000000
0.000171 -0.002125 0.000000
0.000000 0.000000 0.000000
-0.008767 0.000778 0.000000
0.000778 0.004581 0.000000
0.000000 0.000000 0.000000
0.006421 0.000978 0.000000
0.000978 0.005130 0.000000
0.000000 0.000000 0.000000
0.000066 0.025059 0.000000
0.025059 -0.007305 0.000000
0.000000 0.000000 0.000000
0.008253 0.001078 0.000000
0.001078 -0.018998 0.000000
0.000000 0.000000 0.000000
0.001929 0.003940 0.000000
0.003940 0.014326 0.000000
0.000000 0.000000 0.000000
0.009677 0.000621 0.000000
0.000621 -0.014217 0.000000
0.000000 0.000000 0.000000
0.015196 0.001053 0.000000
0.001053 0.016626 0.000000
0.000000 0.000000 0.000000
0.005331 0.009973 0.000000
0.009973 -0.019592 0.000000
0.000000 0.000000 0.000000
0.006376 -0.000173 0.000000
-0.000173 0.009155 0.000000
0.000000 0.000000 0.000000
0.005219 -0.010494 0.000000
-0.010494 0.016004 0.000000
0.000000 0.000000 0.000000
-0.007261 0.004026 0.000000
0.004026 0.005141 0.000000
0.000000 0.000000 0.000000
-0.003846 0.003333 0.000000
0.003333 -0.014427 0.000000
0.000000 0.000000 0.000000
-0.014100 0.008611 0.000000
0.008611 -0.006680 0.000000
0.000000 0.000000 0.000000
-0.001560 -0.008885 0.000000
-0.008885 0.006021 0.000000
0.000000 0.000000 0.000000
-0.009536 0.001202 0.000000
0.001202 -0.025603 0.000000
0.000000 0.000000 0.000000
-0.006985 -0.003228 0.000000
-0.003228 -0.007546 0.000000
0.000000 0.000000 0.000000
-0.000995 -0.004120 0.000000
-0.004120 0.007794 0.000000
0.000000 0.000000 0.000000
0.006249 -0.006639 0.000000
-0.006639 0.021088 0.000000
0.000000 0.000000 0.000000
-0.002166 -0.002629 0.000000
-0.002629 0.009906 0.000000
0.000000 0.000000 0.000000
-0.000029 0.011795 0.000000
0.011795 0.003306 0.000000
0.000000 0.000000 0.000000
0.005779 -0.003653 0.000000
-0.003653 0.012300 0.000000
0.000000 0.000000 0.000000
-0.017507 -0.005213 0.000000
-0.005213 0.009659 0.000000
0.000000 0.000000 0.000000
-0.012926 -0.001210 0.000000
-0.001210 0.010355 0.000000
0.000000 0.000000 0.000000
-0.013006 0.001122 0.000000
0.001122 0.015707 0.000000
0.000000 0.000000 0.000000
-0.006085 -0.001644 0.000000
-0.001644 0.007675 0.000000
0.000000 0.000000 0.000000
-0.011676 0.007613 0.000000
0.007613 -0.012485 0.000000
0.000000 0.000000 0.000000
-0.011238 -0.001803 0.000000
-0.001803 0.005735 0.000000
0.000000 0.000000 0.000000
-0.011843 -0.003809 0.000000
-0.003809 0.002778 0.000000
0.000000 0.000000 0.000000
-0.012842 0.001546 0.000000
0.001546 0.011941 0.000000
0.000000 0.000000 0.000000
-0.012033 0.000071 0.000000
0.000071 0.012243 0.000000
0.000000 0.000000 0.000000
-0.008013 0.006466 0.000000
0.006466 0.002545 0.000000
0.000000 0.000000 0.000000
0.016495 0.004477 0.000000
0.004477 0.014023 0.000000
0.000000 0.000000 0.000000
-0.000403 -0.004716 0.000000
-0.004716 0.012583 0.000000
0.000000 0.000000 0.000000
-0.012815 -0.000034 0.000000
-0.000034 0.002121 0.000000
0.000000 0.000000 0.000000
-0.004123 0.000105 0.000000
0.000105 -0.011522 0.000000
0.000000 0.000000 0.000000
0.008754 0.000438 0.000000
0.000438 -0.007661 0.000000
0.000000 0.000000 0.000000
0.003033 0.009299 0.000000
0.009299 -0.004106 0.000000
0.000000 0.000000 0.000000
0.006764 0.003992 0.000000
0.003992 -0.005113 0.000000
0.000000 0.000000 0.000000
0.016757 -0.001500 0.000000
-0.001500 0.019948 0.000000
0.000000 0.000000 0.000000
0.003077 0.001900 0.000000
0.001900 -0.009202 0.000000
0.000000 0.000000 0.000000
0.014487 0.001508 0.000000
0.001508 -0.001332 0.000000
0.000000 0.000000 0.000000
0.013921 0.002270 0.000000
0.002270 0.017743 0.000000
0.000000 0.000000 0.000000
0.013759 0.003301 0.000000
0.003301 0.012242 0.000000
0.000000 0.000000 0.000000
0.026000 0.002269 0.000000
0.002269 0.014870 0.000000
0.000000 0.000000 0.000000
0.011907 -0.011321 0.000000
-0.011321 -0.014470 0.000000
0.000000 0.000000 0.000000
-0.012354 0.000399 0.000000
0.000399 0.008006 0.000000
0.000000 0.000000 0.000000
0.004710 -0.004775 0.000000
-0.004775 0.017472 0.000000
0.000000 0.000000 0.000000
-0.001024 -0.002251 0.000000
-0.002251 -0.015604 0.000000
0.000000 0.000000 0.000000
0.017976 -0.008706 0.000000
-0.008706 0.018298 0.000000
0.000000 0.000000 0.000000
-0.006111 -0.007396 0.000000
-0.007396 0.004324 0.000000
0.000000 0.000000 0.000000
0.001008 0.003599 0.000000
0.003599 -0.022451 0.000000
0.000000 0.000000 0.000000
0.009049 -0.000335 0.000000
-0.000335 -0.017098 0.000000
0.000000 0.000000 0.000000
-0.001460 -0.005139 0.000000
-0.005139 0.000747 0.000000
0.000000 0.000000 0.000000
0.002413 -0.002741 0.000000
-0.002741 0.003281 0.000000
0.000000 0.000000 0.000000
0.004817 0.003492 0.000000
0.003492 0.015204 0.000000
0.000000 0.000000 0.000000
-0.003362 0.002352 0.000000
0.002352 -0.004383 0.000000
0.000000 0.000000 0.000000
-0.002325 -0.004918 0.000000
-0.004918 -0.008670 0.000000
0.000000 0.000000 0.000000
-0.001099 -0.004903 0.000000
-0.004903 0.009857 0.000000
0.000000 0.000000 0.000000
-0.010113 0.002884 0.000000
0.002884 -0.007033 0.000000
0.000000 0.000000 0.000000
-0.001958 -0.001082 0.000000
-0.001082 0.006009 0.000000
0.000000 0.000000 0.000000
-0.010459 -0.013293 0.000000
-0.013293 -0.002807 0.000000
0.000000 0.000000 0.000000
0.005030 -0.003700 0.000000
-0.003700 -0.000563 0.000000
0.000000 0.000000 0.000000
0.004556 -0.003940 0.000000
-0.003940 -0.000798 0.000000
0.000000 0.000000 0.000000
0.007553 -0.003773 0.000000
-0.003773 0.010592 0.000000
0.000000 0.000000 0.000000
0.003588 0.000970 0.000000
0.000970 0.008396 0.000000
0.000000 0.000000 0.000000
0.016425 -0.000652 0.000000
-0.000652 0.014646 0.000000
0.000000 0.000000 0.000000
0.015977 0.002095 0.000000
0.002095 0.001514 0.000000
0.000000 0.000000 0.000000
0.004400 0.000563 0.000000
0.000563 0.004702 0.000000
0.000000 0.000000 0.000000
0.002575 0.004183 0.000000
0.004183 -0.003120 0.000000
0.000000 0.000000 0.000000
-0.038965 -0.024682 0.000000
-0.024682 -0.011313 0.000000
0.000000 0.000000 0.000000
-0.005633 0.002205 0.000000
0.002205 0.007021 0.000000
0.000000 0.000000 0.000000
0.008480 -0.011482 0.000000
-0.011482 0.013203 0.000000
0.000000 0.000000 0.000000
0.001919 -0.002377 0.000000
-0.002377 0.014516 0.000000
0.000000 0.000000 0.000000
-0.023083 -0.008178 0.000000
-0.008178 -0.008157 0.000000
0.000000 0.000000 0.000000
0.011058 -0.000573 0.000000
-0.000573 0.010653 0.000000
0.000000 0.000000 0.000000
-0.005871 0.003178 0.000000
0.003178 -0.014909 0.000000
0.000000 0.000000 0.000000
-0.004447 0.009275 0.000000
0.009275 0.000966 0.000000
0.000000 0.000000 0.000000
-0.019379 0.000409 0.000000
0.000409 -0.004260 0.000000
0.000000 0.000000 0.000000
0.001834 0.000634 0.000000
0.000634 -0.008080 0.000000
0.000000 0.000000 0.000000
0.000561 -0.012206 0.000000
-0.012206 0.001047 0.000000
0.000000 0.000000 0.000000
0.000936 -0.000471 0.000000
-0.000471 0.001008 0.000000
0.000000 0.000000 0.000000
-0.007732 -0.003562 0.000000
-0.003562 0.002318 0.000000
0.000000 0.000000 0.000000
-0.010190 0.000152 0.000000
0.000152 0.010059 0.000000
0.000000 0.000000 0.000000
0.006187 -0.000305 0.000000
-0.000305 0.006234 0.000000
0.000000 0.000000 0.000000
0.018046 -0.006163 0.000000
-0.006163 -0.010170 0.000000
0.000000 0.000000 0.000000
-0.001290 0.003677 0.000000
0.003677 -0.012194 0.000000
0.000000 0.000000 0.000000
0.016527 -0.001449 0.000000
-0.001449 0.000423 0.000000
0.000000 0.000000 0.000000
-0.003381 -0.006862 0.000000
-0.006862 -0.003867 0.000000
0.000000 0.000000 0.000000
0.014207 -0.002990 0.000000
-0.002990 -0.006823 0.000000
0.000000 0.000000 0.000000
-0.006447 0.000611 0.000000
0.000611 0.003007 0.000000
0.000000 0.000000 0.000000
0.022967 0.006725 0.000000
0.006725 0.031205 0.000000
0.000000 0.000000 0.000000
-0.000138 0.039559 0.000000
0.039559 -0.017135 0.000000
0.000000 0.000000 0.000000
0.011458 0.007191 0.000000
0.007191 -0.007898 0.000000
0.000000 0.000000 0.000000
-0.006979 0.003813 0.000000
0.003813 -0.006570 0.000000
0.000000 0.000000 0.000000
-0.003441 0.003178 0.000000
0.003178 -0.006970 0.000000
0.000000 0.000000 0.000000
-0.007071 -0.002350 0.000000
-0.002350 0.003271 0.000000
0.000000 0.000000 0.000000
-0.001454 -0.003992 0.000000
-0.003992 -0.016462 0.000000
0.000000 0.000000 0.000000
-0.017254 -0.001786 0.000000
-0.001786 0.004021 0.000000
0.000000 0.000000 0.000000
0.010848 0.000814 0.000000
0.000814 0.036711 0.000000
0.000000 0.000000 0.000000
-0.009326 0.003857 0.000000
0.003857 -0.007158 0.000000
0.000000 0.000000 0.000000
0.001990 -0.001627 0.000000
-0.001627 0.001304 0.000000
0.000000 0.000000 0.000000
-0.010804 -0.006088 0.000000
-0.006088 -0.034103 0.000000
0.000000 0.000000 0.000000
-0.009070 0.008198 0.000000
0.008198 -0.000874 0.000000
0.000000 0.000000 0.000000
-0.000040 -0.001058 0.000000
-0.001058 -0.005507 0.000000
0.000000 0.000000 0.000000
-0.019072 -0.006586 0.000000
-0.006586 0.010300 0.000000
0.000000 0.000000 0.000000
0.013291 0.003763 0.000000
0.003763 0.008153 0.000000
0.000000 0.000000 0.000000
0.005466 0.005059 0.000000
0.005059 0.005495 0.000000
0.000000 0.000000 0.000000
-0.001904 0.010716 0.000000
0.010716 0.013385 0.000000
0.000000 0.000000 0.000000
-0.011691 -0.010541 0.000000
-0.010541 0.014049 0.000000
0.000000 0.000000 0.000000
0.003796 -0.005945 0.000000
-0.005945 -0.007215 0.000000
0.000000 0.000000 0.000000
-0.016057 -0.004875 0.000000
-0.004875 0.011889 0.000000
0.000000 0.000000 0.000000
-0.008343 -0.008640 0.000000
-0.008640 -0.017408 0.000000
0.000000 0.000000 0.000000
-0.014147 0.012397 0.000000
0.012397 -0.013844 0.000000
0.000000 0.000000 0.000000
-0.007591 0.006174 0.000000
0.006174 -0.012284 0.000000
0.000000 0.000000 0.000000
-0.006975 0.001768 0.000000
0.001768 0.001583 0.000000
0.000000 0.000000 0.000000
-0.006453 0.001460 0.000000
0.001460 -0.016110 0.000000
0.000000 0.000000 0.000000
-0.003002 -0.000158 0.000000
-0.000158 -0.000545 0.000000
0.000000 0.000000 0.000000
-0.009919 -0.001495 0.000000
-0.001495 -0.025315 0.000000
0.000000 0.000000 0.000000
-0.013508 -0.000316 0.000000
-0.000316 -0.005742 0.000000
0.000000 0.000000 0.000000
-0.012588 -0.005032 0.000000
-0.005032 -0.028781 0.000000
0.000000 0.000000 0.000000
0.012982 -0.008763 0.000000
-0.008763 0.016506 0.000000
0.000000 0.000000 0.000000
-0.017989 0.011134 0.000000
0.011134 -0.017252 0.000000
0.000000 0.000000 0.000000
-0.015192 0.010244 0.000000
0.010244 -0.002048 0.000000
0.000000 0.000000 0.000000
0.001501 0.004677 0.000000
0.004677 -0.016794 0.000000
0.000000 0.000000 0.000000
-0.020268 -0.003720 0.000000
-0.003720 -0.001826 0.000000
0.000000 0.000000 0.000000
0.003877 -0.005161 0.000000
-0.005161 0.004518 0.000000
0.000000 0.000000 0.000000
0.006848 -0.000085 0.000000
-0.000085 0.004557 0.000000
0.000000 0.000000 0.000000
-0.005428 0.006477 0.000000
0.006477 -0.003524 0.000000
0.000000 0.000000 0.000000
-0.005520 0.005053 0.000000
0.005053 -0.009975 0.000000
0.000000 0.000000 0.000000
0.009322 -0.003309 0.000000
-0.003309 0.008776 0.000000
0.000000 0.000000 0.000000
0.003488 -0.003087 0.000000
-0.003087 0.007013 0.000000
0.000000 0.000000 0.000000
-0.001404 -0.027996 0.000000
-0.027996 0.024686 0.000000
0.000000 0.000000 0.000000
-0.006457 0.003227 0.000000
0.003227 -0.014128 0.000000
0.000000 0.000000 0.000000
-0.006572 0.003449 0.000000
0.003449 -0.018970 0.000000
0.000000 0.000000 0.000000
-0.008790 -0.007686 0.000000
-0.007686 -0.021250 0.000000
0.000000 0.000000 0.000000
0.006219 -0.000258 0.000000
-0.000258 0.012205 0.000000
0.000000 0.000000 0.000000
-0.008620 0.006603 0.000000
0.006603 0.005673 0.000000
0.000000 0.000000 0.000000
-0.012126 0.006844 0.000000
0.006844 0.007599 0.000000
0.000000 0.000000 0.000000
0.002334 0.004504 0.000000
0.004504 0.003643 0.000000
0.000000 0.000000 0.000000
0.000118 0.001852 0.000000
0.001852 0.011314 0.000000
0.000000 0.000000 0.000000
-0.011804 0.002940 0.000000
0.002940 0.017398 0.000000
0.000000 0.000000 0.000000
0.018682 0.001307 0.000000
0.001307 0.046126 0.000000
0.000000 0.000000 0.000000
-0.006911 -0.000100 0.000000
-0.000100 -0.007578 0.000000
0.000000 0.000000 0.000000
-0.003155 -0.004451 0.000000
-0.004451 -0.007459 0.000000
0.000000 0.000000 0.000000
-0.001006 -0.003712 0.000000
-0.003712 0.000387 0.000000
0.000000 0.000000 0.000000
-0.005488 0.005841 0.000000
0.005841 0.001331 0.000000
0.000000 0.000000 0.000000
-0.003479 0.000738 0.000000
0.000738 -0.009019 0.000000
0.000000 0.000000 0.000000
0.017499 0.000408 0.000000
0.000408 -0.009394 0.000000
0.000000 0.000000 0.000000
-0.020840 0.002534 0.000000
0.002534 -0.013360 0.000000
0.000000 0.000000 0.000000
0.002978 0.005977 0.000000
0.005977 -0.005459 0.000000
0.000000 0.000000 0.000000
0.000370 -0.002188 0.000000
-0.002188 -0.003192 0.000000
0.000000 0.000000 0.000000
-0.000923 0.004473 0.000000
0.004473 -0.019353 0.000000
0.000000 0.000000 0.000000
0.002547 0.006787 0.000000
0.006787 0.003371 0.000000
0.000000 0.000000 0.000000
-0.008977 0.005627 0.000000
0.005627 -0.031450 0.000000
0.000000 0.000000 0.000000
-0.003874 0.004421 0.000000
0.004421 -0.008439 0.000000
0.000000 0.000000 0.000000
0.000894 -0.000005 0.000000
-0.000005 0.002394 0.000000
0.000000 0.000000 0.000000
-0.004393 0.000809 0.000000
0.000809 0.003908 0.000000
0.000000 0.000000 0.000000
-0.003900 -0.002351 0.000000
-0.002351 -0.016066 0.000000
0.000000 0.000000 0.000000
0.009158 -0.002221 0.000000
-0.002221 0.005856 0.000000
0.000000 0.000000 0.000000
-0.006734 0.005011 0.000000
0.005011 -0.030547 0.000000
0.000000 0.000000 0.000000
-0.000853 0.000050 0.000000
0.000050 0.013832 0.000000
0.000000 0.000000 0.000000
0.007565 0.000593 0.000000
0.000593 -0.002137 0.000000
0.000000 0.000000 0.000000
0.010480 -0.000014 0.000000
-0.000014 0.027519 0.000000
0.000000 0.000000 0.000000
0.007234 -0.005696 0.000000
-0.005696 0.029142 0.000000
0.000000 0.000000 0.000000
0.004990 -0.003513 0.000000
-0.003513 0.012116 0.000000
0.000000 0.000000 0.000000
-0.026011 0.001815 0.000000
0.001815 -0.006535 0.000000
0.000000 0.000000 0.000000
0.006199 -0.003828 0.000000
-0.003828 0.022859 0.000000
0.000000 0.000000 0.000000
-0.000780 0.003268 0.000000
0.003268 -0.003258 0.000000
0.000000 0.000000 0.000000
-0.005711 0.007963 0.000000
0.007963 0.008826 0.000000
0.000000 0.000000 0.000000
0.002162 -0.000118 0.000000
-0.000118 0.013252 0.000000
0.000000 0.000000 0.000000
0.023215 0.002883 0.000000
0.002883 0.036265 0.000000
0.000000 0.000000 0.000000
-0.010012 -0.008878 0.000000
-0.008878 -0.004691 0.000000
0.000000 0.000000 0.000000
0.016873 -0.003456 0.000000
-0.003456 0.003738 0.000000
0.000000 0.000000 0.000000
0.014734 0.004600 0.000000
0.004600 0.003723 0.000000
0.000000 0.000000 0.000000
-0.002704 -0.000219 0.000000
-0.000219 0.017570 0.000000
0.000000 0.000000 0.000000
-0.004708 -0.001402 0.000000
-0.001402 0.007692 0.000000
0.000000 0.000000 0.000000
0.011271 -0.001897 0.000000
-0.001897 0.000956 0.000000
0.000000 0.000000 0.000000
-0.009672 -0.001194 0.000000
-0.001194 0.007954 0.000000
0.000000 0.000000 0.000000
-0.007782 0.000580 0.000000
0.000580 -0.013543 0.000000
0.000000 0.000000 0.000000
0.005039 -0.012125 0.000000
-0.012125 -0.007900 0.000000
0.000000 0.000000 0.000000
-0.003573 -0.005910 0.000000
-0.005910 -0.001559 0.000000
0.000000 0.000000 0.000000
0.007448 -0.008520 0.000000
-0.008520 0.002846 0.000000
0.000000 0.000000 0.000000
0.007454 0.000237 0.000000
0.000237 0.015916 0.000000
0.000000 0.000000 0.000000
0.005283 0.009928 0.000000
0.009928 -0.022696 0.000000
0.000000 0.000000 0.000000
-0.011723 0.008771 0.000000
0.008771 0.001999 0.000000
0.000000 0.000000 0.000000
0.016342 -0.008544 0.000000
-0.008544 0.005056 0.000000
0.000000 0.000000 0.000000
0.022782 -0.003988 0.000000
-0.003988 -0.002188 0.000000
0.000000 0.000000 0.000000
-0.020639 -0.038939 0.000000
-0.038939 0.009835 0.000000
0.000000 0.000000 0.000000
-0.021375 -0.034755 0.000000
-0.034755 0.013669 0.000000
0.000000 0.000000 0.000000
-0.007881 -0.003931 0.000000
-0.003931 0.000610 0.000000
0.000000 0.000000 0.000000
-0.012750 0.002052 0.000000
0.002052 0.000170 0.000000
0.000000 0.000000 0.000000
-0.013882 0.006736 0.000000
0.006736 -0.003177 0.000000
0.000000 0.000000 0.000000
0.008914 -0.008618 0.000000
-0.008618 -0.004529 0.000000
0.000000 0.000000 0.000000
0.006744 -0.003274 0.000000
-0.003274 0.009702 0.000000
0.000000 0.000000 0.000000
0.005239 -0.001034 0.000000
-0.001034 -0.002301 0.000000
0.000000 0.000000 0.000000
-0.001673 -0.008307 0.000000
-0.008307 -0.009880 0.000000
0.000000 0.000000 0.000000
0.006251 0.006346 0.000000
0.006346 -0.003494 0.000000
0.000000 0.000000 0.000000
-0.024118 -0.020750 0.000000
-0.020750 0.007671 0.000000
0.000000 0.000000 0.000000
-0.000093 -0.009022 0.000000
-0.009022 0.001132 0.000000
0.000000 0.000000 0.000000
-0.000171 0.012346 0.000000
0.012346 0.002272 0.000000
0.000000 0.000000 0.000000
-0.001845 -0.005053 0.000000
-0.005053 0.001882 0.000000
0.000000 0.000000 0.000000
-0.007239 -0.010533 0.000000
-0.010533 -0.008777 0.000000
0.000000 0.000000 0.000000
-0.003762 -0.003152 0.000000
-0.003152 -0.005384 0.000000
0.000000 0.000000 0.000000
0.006258 0.010998 0.000000
0.010998 -0.013237 0.000000
0.000000 0.000000 0.000000
-0.011662 -0.002582 0.000000
-0.002582 -0.009982 0.000000
0.000000 0.000000 0.000000
-0.007147 0.000031 0.000000
0.000031 0.003319 0.000000
0.000000 0.000000 0.000000
-0.002986 -0.010810 0.000000
-0.010810 -0.007585 0.000000
0.000000 0.000000 0.000000
-0.002473 -0.011869 0.000000
-0.011869 -0.007111 0.000000
0.000000 0.000000 0.000000
-0.012208 -0.007943 0.000000
-0.007943 -0.007516 0.000000
0.000000 0.000000 0.000000
-0.018419 -0.003803 0.000000
-0.003803 0.002575 0.000000
0.000000 0.000000 0.000000
-0.018527 0.006661 0.000000
0.006661 -0.001402 0.000000
0.000000 0.000000 0.000000
-0.000480 -0.001293 0.000000
-0.001293 0.016624 0.000000
0.000000 0.000000 0.000000
0.005880 -0.000583 0.000000
-0.000583 0.005612 0.000000
0.000000 0.000000 0.000000
-0.005430 -0.010306 0.000000
-0.010306 0.008533 0.000000
0.000000 0.000000 0.000000
0.008650 -0.010183 0.000000
-0.010183 0.009153 0.000000
0.000000 0.000000 0.000000
0.005360 -0.003591 0.000000
-0.003591 -0.014808 0.000000
0.000000 0.000000 0.000000
0.013699 -0.002949 0.000000
-0.002949 -0.006012 0.000000
0.000000 0.000000 0.000000
0.003500 -0.006201 0.000000
-0.006201 0.026195 0.000000
0.000000 0.000000 0.000000
0.002798 -0.002252 0.000000
-0.002252 0.022005 0.000000
0.000000 0.000000 0.000000
0.000885 -0.001394 0.000000
-0.001394 0.003920 0.000000
0.000000 0.000000 0.000000
0.011729 0.001509 0.000000
0.001509 0.001792 0.000000
0.000000 0.000000 0.000000
-0.005789 -0.005968 0.000000
-0.005968 0.000432 0.000000
0.000000 0.000000 0.000000
0.001385 -0.000056 0.000000
-0.000056 -0.001103 0.000000
0.000000 0.000000 0.000000
-0.001956 -0.000033 0.000000
-0.000033 -0.012237 0.000000
0.000000 0.000000 0.000000
0.000605 0.001151 0.000000
0.001151 0.006958 0.000000
0.000000 0.000000 0.000000
-0.000576 0.001234 0.000000
0.001234 0.004908 0.000000
0.000000 0.000000 0.000000
-0.001960 -0.004783 0.000000
-0.004783 0.008650 0.000000
0.000000 0.000000 0.000000
0.000935 -0.000762 0.000000
-0.000762 -0.007156 0.000000
0.000000 0.000000 0.000000
-0.000269 -0.004817 0.000000
-0.004817 -0.002158 0.000000
0.000000 0.000000 0.000000
-0.005664 0.001296 0.000000
0.001296 -0.005870 0.000000
0.000000 0.000000 0.000000
0.007870 -0.001825 0.000000
-0.001825 -0.005993 0.000000
0.000000 0.000000 0.000000
0.003319 0.006194 0.000000
0.006194 0.017442 0.000000
0.000000 0.000000 0.000000
-0.002656 -0.000302 0.000000
-0.000302 0.007076 0.000000
0.000000 0.000000 0.000000
-0.008073 -0.000476 0.000000
-0.000476 -0.009657 0.000000
0.000000 0.000000 0.000000
0.003710 -0.001415 0.000000
-0.001415 0.001585 0.000000
0.000000 0.000000 0.000000
-0.001358 0.008020 0.000000
0.008020 0.007403 0.000000
0.000000 0.000000 0.000000
-0.010022 0.011327 0.000000
0.011327 0.010298 0.000000
0.000000 0.000000 0.000000
-0.004259 0.001717 0.000000
0.001717 0.011131 0.000000
0.000000 0.000000 0.000000
0.007771 0.000527 0.000000
0.000527 0.001871 0.000000
0.000000 0.000000 0.000000
-0.005312 0.000971 0.000000
0.000971 -0.002594 0.000000
0.000000 0.000000 0.000000
-0.001063 0.002651 0.000000
0.002651 0.006933 0.000000
0.000000 0.000000 0.000000
-0.010281 -0.001052 0.000000
-0.001052 -0.002149 0.000000
0.000000 0.000000 0.000000
0.004171 -0.001718 0.000000
-0.001718 -0.005945 0.000000
0.000000 0.000000 0.000000
-0.013146 0.003089 0.000000
0.003089 0.006995 0.000000
0.000000 0.000000 0.000000
0.005281 0.003439 0.000000
0.003439 -0.005040 0.000000
0.000000 0.000000 0.000000
0.007708 -0.004866 0.000000
-0.004866 -0.003913 0.000000
0.000000 0.000000 0.000000
0.002918 0.005758 0.000000
0.005758 0.010762 0.000000
0.000000 0.000000 0.000000
-0.007997 0.007557 0.000000
0.007557 -0.011238 0.000000
0.000000 0.000000 0.000000
-0.000487 0.001102 0.000000
0.001102 0.004601 0.000000
0.000000 0.000000 0.000000
0.010340 -0.000379 0.000000
-0.000379 0.004685 0.000000
0.000000 0.000000 0.000000
0.000541 -0.056596 0.000000
-0.056596 0.046309 0.000000
0.000000 0.000000 0.000000
0.004100 0.009929 0.000000
0.009929 0.093608 0.000000
0.000000 0.000000 0.000000
-0.001961 0.007206 0.000000
0.007206 -0.000509 0.000000
0.000000 0.000000 0.000000
-0.002717 0.002051 0.000000
0.002051 0.000592 0.000000
0.000000 0.000000 0.000000
0.003580 0.009898 0.000000
0.009898 -0.000255 0.000000
0.000000 0.000000 0.000000
-0.000280 0.007457 0.000000
0.007457 0.010576 0.000000
0.000000 0.000000 0.000000
-0.008356 0.003276 0.000000
0.003276 -0.024673 0.000000
0.000000 0.000000 0.000000
-0.005856 0.001614 0.000000
0.001614 0.000965 0.000000
0.000000 0.000000 0.000000
-0.004690 0.001737 0.000000
0.001737 -0.001945 0.000000
0.000000 0.000000 0.000000
-0.001047 0.005033 0.000000
0.005033 0.003455 0.000000
0.000000 0.000000 0.000000
-0.012719 0.016951 0.000000
0.016951 0.017217 0.000000
0.000000 0.000000 0.000000
-0.000827 -0.006534 0.000000
-0.006534 0.004273 0.000000
0.000000 0.000000 0.000000
-0.000334 0.002653 0.000000
0.002653 -0.000303 0.000000
0.000000 0.000000 0.000000
0.007410 -0.001471 0.000000
-0.001471 0.002427 0.000000
0.000000 0.000000 0.000000
-0.005530 -0.001289 0.000000
-0.001289 -0.003145 0.000000
0.000000 0.000000 0.000000
-0.009734 0.007208 0.000000
0.007208 0.003143 0.000000
0.000000 0.000000 0.000000
0.008788 -0.001745 0.000000
-0.001745 0.001055 0.000000
0.000000 0.000000 0.000000
-0.003326 0.008219 0.000000
0.008219 -0.006343 0.000000
0.000000 0.000000 0.000000
0.008842 0.002090 0.000000
0.002090 0.033853 0.000000
0.000000 0.000000 0.000000
0.003467 0.006937 0.000000
0.006937 0.016152 0.000000
0.000000 0.000000 0.000000
-0.002548 0.008564 0.000000
0.008564 0.007418 0.000000
0.000000 0.000000 0.000000
0.011226 0.001922 0.000000
0.001922 0.032782 0.000000
0.000000 0.000000 0.000000
0.015717 -0.013186 0.000000
-0.013186 -0.003927 0.000000
0.000000 0.000000 0.000000
-0.013630 -0.000540 0.000000
-0.000540 0.003642 0.000000
0.000000 0.000000 0.000000
-0.008544 0.001224 0.000000
0.001224 0.006329 0.000000
0.000000 0.000000 0.000000
0.004544 0.003119 0.000000
0.003119 -0.005535 0.000000
0.000000 0.000000 0.000000
-0.007279 -0.001128 0.000000
-0.001128 -0.020270 0.000000
0.000000 0.000000 0.000000
-0.001396 -0.013638 0.000000
-0.013638 0.008207 0.000000
0.000000 0.000000 0.000000
0.007333 0.001950 0.000000
0.001950 0.008341 0.000000
0.000000 0.000000 0.000000
-0.007440 -0.000276 0.000000
-0.000276 -0.013024 0.000000
0.000000 0.000000 0.000000
0.005215 0.004886 0.000000
0.004886 -0.007124 0.000000
0.000000 0.000000 0.000000
-0.002565 0.002904 0.000000
0.002904 -0.005113 0.000000
0.000000 0.000000 0.000000
-0.007974 0.000739 0.000000
0.000739 0.011624 0.000000
0.000000 0.000000 0.000000
-0.003950 0.011475 0.000000
0.011475 -0.000001 0.000000
0.000000 0.000000 0.000000
-0.016049 0.001911 0.000000
0.001911 0.009376 0.000000
0.000000 0.000000 0.000000
0.008486 -0.008614 0.000000
-0.008614 0.015028 0.000000
0.000000 0.000000 0.000000
-0.000467 0.011753 0.000000
0.011753 0.000199 0.000000
0.000000 0.000000 0.000000
0.015371 -0.006905 0.000000
-0.006905 0.015722 0.000000
0.000000 0.000000 0.000000
0.005619 -0.003182 0.000000
-0.003182 0.010852 0.000000
0.000000 0.000000 0.000000
0.004771 0.010716 0.000000
0.010716 0.019814 0.000000
0.000000 0.000000 0.000000
-0.003941 0.006440 0.000000
0.006440 0.003216 0.000000
0.000000 0.000000 0.000000
0.015193 -0.023140 0.000000
-0.023140 0.009429 0.000000
0.000000 0.000000 0.000000
0.006471 -0.002515 0.000000
-0.002515 -0.001474 0.000000
0.000000 0.000000 0.000000
-0.003881 -0.011853 0.000000
-0.011853 -0.011930 0.000000
0.000000 0.000000 0.000000
-0.018149 -0.005080 0.000000
-0.005080 0.000242 0.000000
0.000000 0.000000 0.000000
0.003898 -0.001107 0.000000
-0.001107 -0.001256 0.000000
0.000000 0.000000 0.000000
-0.005807 -0.001253 0.000000
-0.001253 0.006023 0.000000
0.000000 0.000000 0.000000
-0.002467 -0.001130 0.000000
-0.001130 -0.002787 0.000000
0.000000 0.000000 0.000000
0.016182 0.001990 0.000000
0.001990 -0.007467 0.000000
0.000000 0.000000 0.000000
-0.003309 -0.004571 0.000000
-0.004571 -0.005082 0.000000
0.000000 0.000000 0.000000
-0.005146 0.007089 0.000000
0.007089 0.002540 0.000000
0.000000 0.000000 0.000000
0.007728 0.000958 0.000000
0.000958 0.016086 0.000000
0.000000 0.000000 0.000000
0.013849 -0.001794 0.000000
-0.001794 0.036663 0.000000
0.000000 0.000000 0.000000
0.007599 -0.000998 0.000000
-0.000998 0.009976 0.000000
0.000000 0.000000 0.000000
0.008585 0.007460 0.000000
0.007460 -0.003328 0.000000
0.000000 0.000000 0.000000
-0.014404 0.009225 0.000000
0.009225 -0.010821 0.000000
0.000000 0.000000 0.000000
-0.007369 0.003627 0.000000
0.003627 0.010330 0.000000
0.000000 0.000000 0.000000
0.003618 0.003320 0.000000
0.003320 -0.009710 0.000000
0.000000 0.000000 0.000000
-0.006973 -0.007848 0.000000
-0.007848 -0.022612 0.000000
0.000000 0.000000 0.000000
-0.008416 0.003414 0.000000
0.003414 -0.002795 0.000000
0.000000 0.000000 0.000000
-0.015271 -0.001730 0.000000
-0.001730 -0.019746 0.000000
0.000000 0.000000 0.000000
0.000458 0.013417 0.000000
0.013417 -0.003266 0.000000
0.000000 0.000000 0.000000
0.000888 0.001501 0.000000
0.001501 0.013616 0.000000
0.000000 0.000000 0.000000
-0.002209 -0.000490 0.000000
-0.000490 -0.024976 0.000000
0.000000 0.000000 0.000000
0.006715 -0.008454 0.000000
-0.008454 0.012938 0.000000
0.000000 0.000000 0.000000
0.013248 -0.001338 0.000000
-0.001338 0.024564 0.000000
0.000000 0.000000 0.000000
-0.015658 0.007261 0.000000
0.007261 0.016843 0.000000
0.000000 0.000000 0.000000
0.011544 -0.003017 0.000000
-0.003017 0.021543 0.000000
0.000000 0.000000 0.000000
0.011379 0.001301 0.000000
0.001301 0.025628 0.000000
0.000000 0.000000 0.000000
0.013263 -0.005999 0.000000
-0.005999 0.022292 0.000000
0.000000 0.000000 0.000000
0.000368 -0.008717 0.000000
-0.008717 -0.010198 0.000000
0.000000 0.000000 0.000000
-0.012924 -0.000896 0.000000
-0.000896 0.009152 0.000000
0.000000 0.000000 0.000000
-0.002163 -0.000433 0.000000
-0.000433 -0.001299 0.000000
0.000000 0.000000 0.000000
0.022464 -0.004032 0.000000
-0.004032 0.006614 0.000000
0.000000 0.000000 0.000000
0.004675 -0.001724 0.000000
-0.001724 0.002401 0.000000
0.000000 0.000000 0.000000
-0.003365 -0.007205 0.000000
-0.007205 -0.000077 0.000000
0.000000 0.000000 0.000000
0.010726 0.003227 0.000000
0.003227 0.030037 0.000000
0.000000 0.000000 0.000000
0.010008 -0.004113 0.000000
-0.004113 0.025494 0.000000
0.000000 0.000000 0.000000
-0.001118 0.001395 0.000000
0.001395 0.000412 0.000000
0.000000 0.000000 0.000000
0.015097 0.000218 0.000000
0.000218 0.035636 0.000000
0.000000 0.000000 0.000000
0.007428 0.003358 0.000000
0.003358 0.011640 0.000000
0.000000 0.000000 0.000000
0.008164 -0.003925 0.000000
-0.003925 -0.002618 0.000000
0.000000 0.000000 0.000000
-0.016580 0.000130 0.000000
0.000130 -0.000397 0.000000
0.000000 0.000000 0.000000
0.003469 0.002309 0.000000
0.002309 -0.002361 0.000000
0.000000 0.000000 0.000000
-0.000352 -0.001290 0.000000
-0.001290 -0.006690 0.000000
0.000000 0.000000 0.000000
-0.004517 0.002619 0.000000
0.002619 0.009890 0.000000
0.000000 0.000000 0.000000
0.009650 -0.002022 0.000000
-0.002022 -0.007881 0.000000
0.000000 0.000000 0.000000
-0.013658 0.006711 0.000000
0.006711 0.004294 0.000000
0.000000 0.000000 0.000000
-0.008268 0.002570 0.000000
0.002570 0.007920 0.000000
0.000000 0.000000 0.000000
0.010767 0.007914 0.000000
0.007914 0.006738 0.000000
0.000000 0.000000 0.000000
-0.008720 0.002763 0.000000
0.002763 0.011163 0.000000
0.000000 0.000000 0.000000
0.002835 -0.000937 0.000000
-0.000937 0.010421 0.000000
0.000000 0.000000 0.000000
0.003227 0.001018 0.000000
0.001018 -0.001736 0.000000
0.000000 0.000000 0.000000
0.023235 -0.001295 0.000000
-0.001295 0.005930 0.000000
0.000000 0.000000 0.000000
-0.001806 -0.001561 0.000000
-0.001561 0.003624 0.000000
0.000000 0.000000 0.000000
0.028065 0.002427 0.000000
0.002427 0.011002 0.000000
0.000000 0.000000 0.000000
-0.003731 0.003892 0.000000
0.003892 0.004311 0.000000
0.000000 0.000000 0.000000
0.003176 0.018622 0.000000
0.018622 0.000668 0.000000
0.000000 0.000000 0.000000
0.005412 -0.007020 0.000000
-0.007020 0.012055 0.000000
0.000000 0.000000 0.000000
-0.010508 -0.000672 0.000000
-0.000672 0.004527 0.000000
0.000000 0.000000 0.000000
0.003014 -0.000081 0.000000
-0.000081 0.002808 0.000000
0.000000 0.000000 0.000000
0.009343 -0.011891 0.000000
-0.011891 -0.001629 0.000000
0.000000 0.000000 0.000000
0.011353 -0.008820 0.000000
-0.008820 -0.002236 0.000000
0.000000 0.000000 0.000000
0.000725 -0.014882 0.000000
-0.014882 0.045454 0.000000
0.000000 0.000000 0.000000
0.028526 0.020959 0.000000
0.020959 -0.019706 0.000000
0.000000 0.000000 0.000000
0.001480 -0.002153 0.000000
-0.002153 0.007172 0.000000
0.000000 0.000000 0.000000
0.012758 0.016273 0.000000
0.016273 0.004415 0.000000
0.000000 0.000000 0.000000
0.008970 -0.001198 0.000000
-0.001198 0.009964 0.000000
0.000000 0.000000 0.000000
0.016637 0.005816 0.000000
0.005816 -0.004122 0.000000
0.000000 0.000000 0.000000
0.002034 -0.001422 0.000000
-0.001422 0.008096 0.000000
0.000000 0.000000 0.000000
-0.008807 -0.003675 0.000000
-0.003675 0.003561 0.000000
0.000000 0.000000 0.000000
-0.015243 -0.008107 0.000000
-0.008107 -0.014108 0.000000
0.000000 0.000000 0.000000
0.020261 0.004366 0.000000
0.004366 0.016010 0.000000
0.000000 0.000000 0.000000
-0.008524 -0.004690 0.000000
-0.004690 -0.008471 0.000000
0.000000 0.000000 0.000000
0.000871 0.000219 0.000000
0.000219 0.008547 0.000000
0.000000 0.000000 0.000000
0.018574 0.012256 0.000000
0.012256 0.051267 0.000000
0.000000 0.000000 0.000000
0.007652 0.020883 0.000000
0.020883 0.030954 0.000000
0.000000 0.000000 0.000000
0.075885 -0.001202 0.000000
-0.001202 -0.036825 0.000000
0.000000 0.000000 0.000000
0.007289 -0.000691 0.000000
-0.000691 0.007172 0.000000
0.000000 0.000000 0.000000
-0.000789 -0.003379 0.000000
-0.003379 -0.006294 0.000000
0.000000 0.000000 0.000000
-0.016228 -0.000098 0.000000
-0.000098 0.010708 0.000000
0.000000 0.000000 0.000000
-0.001223 -0.009931 0.000000
-0.009931 0.019941 0.000000
0.000000 0.000000 0.000000
-0.014125 0.002050 0.000000
0.002050 0.008054 0.000000
0.000000 0.000000 0.000000
0.037066 0.009170 0.000000
0.009170 -0.009992 0.000000
0.000000 0.000000 0.000000
0.030734 0.006511 0.000000
0.006511 -0.029055 0.000000
0.000000 0.000000 0.000000
-0.001568 0.002907 0.000000
0.002907 0.005871 0.000000
0.000000 0.000000 0.000000
0.007094 0.002645 0.000000
0.002645 0.013969 0.000000
0.000000 0.000000 0.000000
0.001808 0.007375 0.000000
0.007375 -0.003310 0.000000
0.000000 0.000000 0.000000
0.007085 0.005211 0.000000
0.005211 0.012714 0.000000
0.000000 0.000000 0.000000
0.004897 -0.027352 0.000000
-0.027352 -0.008126 0.000000
0.000000 0.000000 0.000000
0.006325 0.000483 0.000000
0.000483 -0.001910 0.000000
0.000000 0.000000 0.000000
0.017584 -0.006296 0.000000
-0.006296 0.002573 0.000000
0.000000 0.000000 0.000000
0.006580 -0.004837 0.000000
-0.004837 0.010292 0.000000
0.000000 0.000000 0.000000
-0.006345 -0.002078 0.000000
-0.002078 -0.009905 0.000000
0.000000 0.000000 0.000000
0.015253 -0.014766 0.000000
-0.014766 0.001946 0.000000
0.000000 0.000000 0.000000
0.009008 0.005445 0.000000
0.005445 0.013025 0.000000
0.000000 0.000000 0.000000
0.011675 -0.001015 0.000000
-0.001015 -0.004654 0.000000
0.000000 0.000000 0.000000
0.021233 0.004767 0.000000
0.004767 -0.006200 0.000000
0.000000 0.000000 0.000000
0.007293 0.000504 0.000000
0.000504 0.007524 0.000000
0.000000 0.000000 0.000000
0.010946 0.001195 0.000000
0.001195 0.017076 0.000000
0.000000 0.000000 0.000000
-0.004292 -0.000411 0.000000
-0.000411 0.018330 0.000000
0.000000 0.000000 0.000000
0.003235 0.003581 0.000000
0.003581 0.021404 0.000000
0.000000 0.000000 0.000000
0.003238 -0.000688 0.000000
-0.000688 0.015228 0.000000
0.000000 0.000000 0.000000
0.010611 0.001122 0.000000
0.001122 0.008758 0.000000
0.000000 0.000000 0.000000
0.007101 0.000691 0.000000
0.000691 0.000754 0.000000
0.000000 0.000000 0.000000
0.020748 0.015697 0.000000
0.015697 -0.015362 0.000000
0.000000 0.000000 0.000000
-0.020802 -0.008206 0.000000
-0.008206 0.005925 0.000000
0.000000 0.000000 0.000000
-0.003172 -0.002943 0.000000
-0.002943 0.004664 0.000000
0.000000 0.000000 0.000000
0.001827 -0.000181 0.000000
-0.000181 0.005616 0.000000
0.000000 0.000000 0.000000
-0.004953 -0.000800 0.000000
-0.000800 0.000044 0.000000
0.000000 0.000000 0.000000
-0.003080 -0.008817 0.000000
-0.008817 0.004384 0.000000
0.000000 0.000000 0.000000
0.000627 -0.004962 0.000000
-0.004962 0.017414 0.000000
0.000000 0.000000 0.000000
0.002002 -0.004219 0.000000
-0.004219 0.006454 0.000000
0.000000 0.000000 0.000000
-0.010125 0.004440 0.000000
0.004440 -0.009570 0.000000
0.000000 0.000000 0.000000
0.002500 -0.003685 0.000000
-0.003685 0.005376 0.000000
0.000000 0.000000 0.000000
-0.008907 0.005325 0.000000
0.005325 -0.018535 0.000000
0.000000 0.000000 0.000000
-0.012510 0.009143 0.000000
0.009143 -0.021860 0.000000
0.000000 0.000000 0.000000
0.004435 0.007445 0.000000
0.007445 0.009766 0.000000
0.000000 0.000000 0.000000
-0.003024 0.001989 0.000000
0.001989 0.014131 0.000000
0.000000 0.000000 0.000000
0.002714 -0.006891 0.000000
-0.006891 -0.006878 0.000000
0.000000 0.000000 0.000000
-0.005017 0.004634 0.000000
0.004634 0.006426 0.000000
0.000000 0.000000 0.000000
0.004729 0.017190 0.000000
0.017190 -0.018539 0.000000
0.000000 0.000000 0.000000
-0.009265 -0.004409 0.000000
-0.004409 -0.011100 0.000000
0.000000 0.000000 0.000000
0.014465 -0.006932 0.000000
-0.006932 0.012081 0.000000
0.000000 0.000000 0.000000
-0.003253 0.018057 0.000000
0.018057 -0.006421 0.000000
0.000000 0.000000 0.000000
-0.016721 0.013447 0.000000
0.013447 -0.002048 0.000000
0.000000 0.000000 0.000000
0.005845 -0.010023 0.000000
-0.010023 -0.008690 0.000000
0.000000 0.000000 0.000000
-0.014173 0.009483 0.000000
0.009483 -0.020491 0.000000
0.000000 0.000000 0.000000
-0.000510 -0.005312 0.000000
-0.005312 -0.011830 0.000000
0.000000 0.000000 0.000000
-0.006149 -0.021489 0.000000
-0.021489 0.005976 0.000000
0.000000 0.000000 0.000000
-0.015034 -0.001596 0.000000
-0.001596 0.003217 0.000000
0.000000 0.000000 0.000000
-0.007737 0.005380 0.000000
0.005380 -0.006232 0.000000
0.000000 0.000000 0.000000
0.007564 0.007548 0.000000
0.007548 -0.004635 0.000000
0.000000 0.000000 0.000000
0.002707 -0.001963 0.000000
-0.001963 -0.004602 0.000000
0.000000 0.000000 0.000000
-0.014220 -0.004794 0.000000
-0.004794 -0.004396 0.000000
0.000000 0.000000 0.000000
-0.001895 0.000965 0.000000
0.000965 0.007620 0.000000
0.000000 0.000000 0.000000
-0.020097 0.000458 0.000000
0.000458 0.000821 0.000000
0.000000 0.000000 0.000000
-0.020211 0.005318 0.000000
0.005318 0.002722 0.000000
0.000000 0.000000 0.000000
-0.024613 -0.013222 0.000000
-0.013222 -0.007663 0.000000
0.000000 0.000000 0.000000
0.004973 0.009849 0.000000
0.009849 0.000001 0.000000
0.000000 0.000000 0.000000
-0.004842 0.003675 0.000000
0.003675 -0.016754 0.000000
0.000000 0.000000 0.000000
0.010418 0.000583 0.000000
0.000583 -0.023218 0.000000
0.000000 0.000000 0.000000
0.008232 -0.007939 0.000000
-0.007939 -0.009903 0.000000
0.000000 0.000000 0.000000
0.047959 0.005181 0.000000
0.005181 -0.023443 0.000000
0.000000 0.000000 0.000000
-0.028633 -0.010450 0.000000
-0.010450 -0.005588 0.000000
0.000000 0.000000 0.000000
-0.003308 0.004602 0.000000
0.004602 -0.009842 0.000000
0.000000 0.000000 0.000000
-0.011841 -0.005801 0.000000
-0.005801 -0.028233 0.000000
0.000000 0.000000 0.000000
0.000956 -0.002692 0.000000
-0.002692 -0.001773 0.000000
0.000000 0.000000 0.000000
-0.009561 0.004287 0.000000
0.004287 -0.010666 0.000000
0.000000 0.000000 0.000000
-0.005232 0.004154 0.000000
0.004154 -0.005566 0.000000
0.000000 0.000000 0.000000
-0.003713 0.008736 0.000000
0.008736 0.002102 0.000000
0.000000 0.000000 0.000000
0.011325 -0.011501 0.000000
-0.011501 -0.000784 0.000000
0.000000 0.000000 0.000000
-0.006523 -0.002718 0.000000
-0.002718 -0.003071 0.000000
0.000000 0.000000 0.000000
-0.006073 -0.008072 0.000000
-0.008072 -0.009299 0.000000
0.000000 0.000000 0.000000
0.000517 -0.005794 0.000000
-0.005794 0.003002 0.000000
0.000000 0.000000 0.000000
-0.006993 -0.004408 0.000000
-0.004408 0.004383 0.000000
0.000000 0.000000 0.000000
0.018033 0.004408 0.000000
0.004408 -0.010378 0.000000
0.000000 0.000000 0.000000
-0.004413 0.002732 0.000000
0.002732 0.003786 0.000000
0.000000 0.000000 0.000000
0.027840 -0.000243 0.000000
-0.000243 -0.004065 0.000000
0.000000 0.000000 0.000000
-0.013118 0.001990 0.000000
0.001990 0.004667 0.000000
0.000000 0.000000 0.000000
-0.014420 0.000989 0.000000
0.000989 0.001402 0.000000
0.000000 0.000000 0.000000
-0.006694 -0.001757 0.000000
-0.001757 0.012104 0.000000
0.000000 0.000000 0.000000
0.013875 -0.002844 0.000000
-0.002844 -0.002852 0.000000
0.000000 0.000000 0.000000
0.003535 0.005593 0.000000
0.005593 -0.002878 0.000000
0.000000 0.000000 0.000000
-0.007463 -0.004378 0.000000
-0.004378 -0.001069 0.000000
0.000000 0.000000 0.000000
0.001077 0.002124 0.000000
0.002124 0.007727 0.000000
0.000000 0.000000 0.000000
-0.004901 -0.010153 0.000000
-0.010153 0.007190 0.000000
0.000000 0.000000 0.000000
-0.011286 0.007370 0.000000
0.007370 0.000078 0.000000
0.000000 0.000000 0.000000
-0.005752 -0.000164 0.000000
-0.000164 -0.013562 0.000000
0.000000 0.000000 0.000000
0.003805 0.000686 0.000000
0.000686 0.007812 0.000000
0.000000 0.000000 0.000000
-0.024362 -0.005274 0.000000
-0.005274 0.005259 0.000000
0.000000 0.000000 0.000000
0.002575 -0.001134 0.000000
-0.001134 -0.021608 0.000000
0.000000 0.000000 0.000000
0.023825 0.007199 0.000000
0.007199 0.011020 0.000000
0.000000 0.000000 0.000000
-0.007230 -0.005089 0.000000
-0.005089 0.004743 0.000000
0.000000 0.000000 0.000000
-0.014680 0.005827 0.000000
0.005827 0.007349 0.000000
0.000000 0.000000 0.000000
0.005973 0.003428 0.000000
0.003428 -0.005378 0.000000
0.000000 0.000000 0.000000
0.013659 -0.000563 0.000000
-0.000563 0.003227 0.000000
0.000000 0.000000 0.000000
0.008894 0.003998 0.000000
0.003998 -0.017433 0.000000
0.000000 0.000000 0.000000
0.006337 -0.017374 0.000000
-0.017374 -0.002381 0.000000
0.000000 0.000000 0.000000
0.019911 -0.005990 0.000000
-0.005990 0.017768 0.000000
0.000000 0.000000 0.000000
0.007731 -0.007542 0.000000
-0.007542 0.004365 0.000000
0.000000 0.000000 0.000000
0.016799 0.002704 0.000000
0.002704 0.018855 0.000000
0.000000 0.000000 0.000000
-0.000839 -0.000553 0.000000
-0.000553 0.006623 0.000000
0.000000 0.000000 0.000000
0.010601 0.004455 0.000000
0.004455 -0.003833 0.000000
0.000000 0.000000 0.000000
0.000434 0.006636 0.000000
0.006636 0.014534 0.000000
0.000000 0.000000 0.000000
0.019048 -0.004255 0.000000
-0.004255 -0.016844 0.000000
0.000000 0.000000 0.000000
0.006411 -0.009924 0.000000
-0.009924 -0.008043 0.000000
0.000000 0.000000 0.000000
-0.007730 0.005915 0.000000
0.005915 0.020685 0.000000
0.000000 0.000000 0.000000
0.005257 -0.003316 0.000000
-0.003316 -0.005414 0.000000
0.000000 0.000000 0.000000
-0.017201 -0.000880 0.000000
-0.000880 -0.014704 0.000000
0.000000 0.000000 0.000000
-0.010215 0.004519 0.000000
0.004519 0.014365 0.000000
0.000000 0.000000 0.000000
0.002601 -0.002857 0.000000
-0.002857 0.010799 0.000000
0.000000 0.000000 0.000000
0.012904 0.023021 0.000000
0.023021 -0.008057 0.000000
0.000000 0.000000 0.000000
0.001504 0.000126 0.000000
0.000126 -0.000036 0.000000
0.000000 0.000000 0.000000
0.007248 0.002417 0.000000
0.002417 0.003513 0.000000
0.000000 0.000000 0.000000
-0.000784 -0.000322 0.000000
-0.000322 0.009217 0.000000
0.000000 0.000000 0.000000
0.015793 -0.001262 0.000000
-0.001262 0.012714 0.000000
0.000000 0.000000 0.000000
0.003513 -0.004186 0.000000
-0.004186 0.008005 0.000000
0.000000 0.000000 0.000000
-0.016971 0.003200 0.000000
0.003200 0.009749 0.000000
0.000000 0.000000 0.000000
-0.007106 0.005938 0.000000
0.005938 0.010235 0.000000
0.000000 0.000000 0.000000
-0.001834 0.006869 0.000000
0.006869 -0.001198 0.000000
0.000000 0.000000 0.000000
-0.013858 0.009261 0.000000
0.009261 -0.011108 0.000000
0.000000 0.000000 0.000000
-0.009864 0.006969 0.000000
0.006969 0.009429 0.000000
0.000000 0.000000 0.000000
-0.005431 -0.005002 0.000000
-0.005002 0.005037 0.000000
0.000000 0.000000 0.000000
-0.017806 -0.009810 0.000000
-0.009810 -0.000550 0.000000
0.000000 0.000000 0.000000
0.002220 0.001037 0.000000
0.001037 -0.001912 0.000000
0.000000 0.000000 0.000000
0.007017 -0.004121 0.000000
-0.004121 -0.013909 0.000000
0.000000 0.000000 0.000000
-0.001421 -0.009118 0.000000
-0.009118 -0.021950 0.000000
0.000000 0.000000 0.000000
0.000685 0.000205 0.000000
0.000205 0.006325 0.000000
0.000000 0.000000 0.000000
0.014636 -0.008983 0.000000
-0.008983 -0.016674 0.000000
0.000000 0.000000 0.000000
0.009826 -0.002011 0.000000
-0.002011 -0.023228 0.000000
0.000000 0.000000 0.000000
-0.009319 -0.003856 0.000000
-0.003856 -0.003505 0.000000
0.000000 0.000000 0.000000
0.020420 0.004584 0.000000
0.004584 -0.003760 0.000000
0.000000 0.000000 0.000000
0.015232 -0.012700 0.000000
-0.012700 -0.014277 0.000000
0.000000 0.000000 0.000000
0.004222 -0.003393 0.000000
-0.003393 0.013477 0.000000
0.000000 0.000000 0.000000
0.005743 0.000650 0.000000
0.000650 -0.009234 0.000000
0.000000 0.000000 0.000000
0.008107 0.001169 0.000000
0.001169 0.004251 0.000000
0.000000 0.000000 0.000000
0.019863 0.003402 0.000000
0.003402 -0.001887 0.000000
0.000000 0.000000 0.000000
0.010746 0.000460 0.000000
0.000460 0.012691 0.000000
0.000000 0.000000 0.000000
0.001204 -0.013343 0.000000
-0.013343 0.017906 0.000000
0.000000 0.000000 0.000000
-0.008531 -0.008785 0.000000
-0.008785 0.014017 0.000000
0.000000 0.000000 0.000000
-0.000864 0.002130 0.000000
0.002130 -0.019465 0.000000
0.000000 0.000000 0.000000
0.002918 0.001605 0.000000
0.001605 0.001506 0.000000
0.000000 0.000000 0.000000
0.006659 0.000013 0.000000
0.000013 0.000468 0.000000
0.000000 0.000000 0.000000
0.014428 -0.005272 0.000000
-0.005272 -0.022228 0.000000
0.000000 0.000000 0.000000
0.008351 0.002457 0.000000
0.002457 0.005486 0.000000
0.000000 0.000000 0.000000
0.008698 0.002334 0.000000
0.002334 0.011178 0.000000
0.000000 0.000000 0.000000
0.004334 0.001248 0.000000
0.001248 0.008246 0.000000
0.000000 0.000000 0.000000
-0.004335 -0.003955 0.000000
-0.003955 -0.002021 0.000000
0.000000 0.000000 0.000000
-0.002097 0.007098 0.000000
0.007098 0.003378 0.000000
0.000000 0.000000 0.000000
-0.009283 0.000709 0.000000
0.000709 -0.008087 0.000000
0.000000 0.000000 0.000000
0.008088 -0.016835 0.000000
-0.016835 -0.004199 0.000000
0.000000 0.000000 0.000000
0.007464 0.002934 0.000000
0.002934 0.004770 0.000000
0.000000 0.000000 0.000000
-0.007368 -0.009627 0.000000
-0.009627 -0.013487 0.000000
0.000000 0.000000 0.000000
0.004943 0.002641 0.000000
0.002641 0.003950 0.000000
0.000000 0.000000 0.000000
-0.003751 -0.011843 0.000000
-0.011843 -0.011082 0.000000
0.000000 0.000000 0.000000
0.000187 0.009323 0.000000
0.009323 -0.005561 0.000000
0.000000 0.000000 0.000000
0.000254 0.002445 0.000000
0.002445 -0.004409 0.000000
0.000000 0.000000 0.000000
0.004959 -0.005586 0.000000
-0.005586 0.003369 0.000000
0.000000 0.000000 0.000000
0.004940 -0.007163 0.000000
-0.007163 0.004609 0.000000
0.000000 0.000000 0.000000
0.012398 -0.006645 0.000000
-0.006645 0.003536 0.000000
0.000000 0.000000 0.000000
0.007352 0.006161 0.000000
0.006161 0.002741 0.000000
0.000000 0.000000 0.000000
-0.001875 -0.000638 0.000000
-0.000638 -0.003397 0.000000
0.000000 0.000000 0.000000
-0.002508 0.008548 0.000000
0.008548 -0.003364 0.000000
0.000000 0.000000 0.000000
0.000961 0.009418 0.000000
0.009418 0.001282 0.000000
0.000000 0.000000 0.000000
0.005827 0.009062 0.000000
0.009062 -0.000959 0.000000
0.000000 0.000000 0.000000
0.001131 -0.003495 0.000000
-0.003495 0.005872 0.000000
0.000000 0.000000 0.000000
0.014898 -0.005613 0.000000
-0.005613 -0.004042 0.000000
0.000000 0.000000 0.000000
0.015358 -0.002997 0.000000
-0.002997 -0.005029 0.000000
0.000000 0.000000 0.000000
-0.007506 0.005494 0.000000
0.005494 -0.022297 0.000000
0.000000 0.000000 0.000000
-0.006151 -0.003691 0.000000
-0.003691 0.002997 0.000000
0.000000 0.000000 0.000000
0.015205 -0.000570 0.000000
-0.000570 -0.006140 0.000000
0.000000 0.000000 0.000000
-0.008560 -0.001771 0.000000
-0.001771 0.001480 0.000000
0.000000 0.000000 0.000000
-0.001093 -0.002094 0.000000
-0.002094 0.012432 0.000000
0.000000 0.000000 0.000000
-0.017410 0.000990 0.000000
0.000990 -0.006305 0.000000
0.000000 0.000000 0.000000
-0.082777 0.034940 0.000000
0.034940 0.015489 0.000000
0.000000 0.000000 0.000000
0.038938 0.025872 0.000000
0.025872 -0.050836 0.000000
0.000000 0.000000 0.000000
0.009695 0.008918 0.000000
0.008918 0.004277 0.000000
0.000000 0.000000 0.000000
-0.023498 0.007273 0.000000
0.007273 0.016113 0.000000
0.000000 0.000000 0.000000
-0.000029 0.009135 0.000000
0.009135 0.013126 0.000000
0.000000 0.000000 0.000000
0.006640 0.009778 0.000000
0.009778 -0.006047 0.000000
0.000000 0.000000 0.000000
0.011911 -0.001407 0.000000
-0.001407 0.002784 0.000000
0.000000 0.000000 0.000000
0.016586 0.000500 0.000000
0.000500 -0.005140 0.000000
0.000000 0.000000 0.000000
0.007783 -0.004124 0.000000
-0.004124 -0.000499 0.000000
0.000000 0.000000 0.000000
0.004332 -0.003978 0.000000
-0.003978 0.010571 0.000000
0.000000 0.000000 0.000000
0.014717 -0.002949 0.000000
-0.002949 -0.001403 0.000000
0.000000 0.000000 0.000000
0.010432 -0.004048 0.000000
-0.004048 -0.000263 0.000000
0.000000 0.000000 0.000000
-0.014777 0.000050 0.000000
0.000050 -0.026122 0.000000
0.000000 0.000000 0.000000
-0.003884 -0.003040 0.000000
-0.003040 -0.011096 0.000000
0.000000 0.000000 0.000000
-0.008799 0.003888 0.000000
0.003888 -0.022425 0.000000
0.000000 0.000000 0.000000
0.010014 -0.002629 0.000000
-0.002629 0.003769 0.000000
0.000000 0.000000 0.000000
0.011704 -0.002739 0.000000
-0.002739 0.009411 0.000000
0.000000 0.000000 0.000000
0.006090 0.000780 0.000000
0.000780 0.007141 0.000000
0.000000 0.000000 0.000000
0.008435 -0.003600 0.000000
-0.003600 0.004684 0.000000
0.000000 0.000000 0.000000
0.019045 -0.018448 0.000000
-0.018448 -0.008264 0.000000
0.000000 0.000000 0.000000
-0.008255 0.008629 0.000000
0.008629 -0.005614 0.000000
0.000000 0.000000 0.000000
0.000634 -0.006247 0.000000
-0.006247 -0.005430 0.000000
0.000000 0.000000 0.000000
-0.013116 -0.000450 0.000000
-0.000450 -0.009090 0.000000
0.000000 0.000000 0.000000
-0.006903 -0.002924 0.000000
-0.002924 -0.022069 0.000000
0.000000 0.000000 0.000000
0.007517 -0.011581 0.000000
-0.011581 -0.010863 0.000000
0.000000 0.000000 0.000000
-0.009083 -0.009534 0.000000
-0.009534 -0.011874 0.000000
0.000000 0.000000 0.000000
-0.006818 -0.008810 0.000000
-0.008810 -0.017168 0.000000
0.000000 0.000000 0.000000
-0.011201 -0.008301 0.000000
-0.008301 -0.002521 0.000000
0.000000 0.000000 0.000000
-0.000745 -0.000919 0.000000
-0.000919 0.000809 0.000000
0.000000 0.000000 0.000000
0.005412 0.005950 0.000000
0.005950 -0.002717 0.000000
0.000000 0.000000 0.000000
0.000405 -0.002896 0.000000
-0.002896 0.002409 0.000000
0.000000 0.000000 0.000000
0.000648 -0.010603 0.000000
-0.010603 0.005396 0.000000
0.000000 0.000000 0.000000
-0.001143 0.013222 0.000000
0.013222 0.008629 0.000000
0.000000 0.000000 0.000000
-0.007705 0.012380 0.000000
0.012380 0.004759 0.000000
0.000000 0.000000 0.000000
-0.006964 0.009935 0.000000
0.009935 0.006588 0.000000
0.000000 0.000000 0.000000
0.002839 -0.008245 0.000000
-0.008245 0.005310 0.000000
0.000000 0.000000 0.000000
0.012798 0.005713 0.000000
0.005713 0.004314 0.000000
0.000000 0.000000 0.000000
0.002200 0.002361 0.000000
0.002361 0.024412 0.000000
0.000000 0.000000 0.000000
0.005022 -0.002935 0.000000
-0.002935 -0.004220 0.000000
0.000000 0.000000 0.000000
0.000972 0.006003 0.000000
0.006003 -0.002700 0.000000
0.000000 0.000000 0.000000
-0.003202 0.006056 0.000000
0.006056 -0.027281 0.000000
0.000000 0.000000 0.000000
0.002596 -0.005635 0.000000
-0.005635 -0.011516 0.000000
0.000000 0.000000 0.000000
0.008715 0.005382 0.000000
0.005382 -0.000728 0.000000
0.000000 0.000000 0.000000
-0.002431 -0.008301 0.000000
-0.008301 0.013215 0.000000
0.000000 0.000000 0.000000
-0.011024 0.007019 0.000000
0.007019 -0.029753 0.000000
0.000000 0.000000 0.000000
0.032629 -0.013047 0.000000
-0.013047 0.002826 0.000000
0.000000 0.000000 0.000000
-0.000112 -0.000650 0.000000
-0.000650 0.008343 0.000000
0.000000 0.000000 0.000000
0.003861 0.009943 0.000000
0.009943 0.003213 0.000000
0.000000 0.000000 0.000000
0.016717 -0.011335 0.000000
-0.011335 0.010821 0.000000
0.000000 0.000000 0.000000
-0.004219 0.003266 0.000000
0.003266 0.007116 0.000000
0.000000 0.000000 0.000000
0.018583 0.004847 0.000000
0.004847 -0.016416 0.000000
0.000000 0.000000 0.000000
0.024069 -0.018116 0.000000
-0.018116 0.018281 0.000000
0.000000 0.000000 0.000000
-0.013067 -0.004811 0.000000
-0.004811 0.002716 0.000000
0.000000 0.000000 0.000000
-0.008793 -0.002141 0.000000
-0.002141 0.005010 0.000000
0.000000 0.000000 0.000000
-0.009024 -0.007182 0.000000
-0.007182 0.000007 0.000000
0.000000 0.000000 0.000000
0.021023 -0.003733 0.000000
-0.003733 -0.008225 0.000000
0.000000 0.000000 0.000000
0.013210 -0.008634 0.000000
-0.008634 -0.005650 0.000000
0.000000 0.000000 0.000000
0.016274 -0.004043 0.000000
-0.004043 -0.004791 0.000000
0.000000 0.000000 0.000000
-0.004068 -0.004355 0.000000
-0.004355 -0.021080 0.000000
0.000000 0.000000 0.000000
0.009677 -0.000873 0.000000
-0.000873 -0.002756 0.000000
0.000000 0.000000 0.000000
0.019301 -0.016096 0.000000
-0.016096 0.025363 0.000000
0.000000 0.000000 0.000000
-0.006801 0.001192 0.000000
0.001192 0.005415 0.000000
0.000000 0.000000 0.000000
-0.002676 0.001862 0.000000
0.001862 -0.012454 0.000000
0.000000 0.000000 0.000000
0.006951 0.007866 0.000000
0.007866 0.016134 0.000000
0.000000 0.000000 0.000000
-0.004760 0.012850 0.000000
0.012850 0.012761 0.000000
0.000000 0.000000 0.000000
0.007447 -0.013517 0.000000
-0.013517 0.006703 0.000000
0.000000 0.000000 0.000000
0.020463 0.014349 0.000000
0.014349 -0.020302 0.000000
0.000000 0.000000 0.000000
-0.006536 -0.007009 0.000000
-0.007009 -0.006200 0.000000
0.000000 0.000000 0.000000
0.000834 0.001964 0.000000
0.001964 0.008268 0.000000
0.000000 0.000000 0.000000
0.004241 -0.002712 0.000000
-0.002712 0.006955 0.000000
0.000000 0.000000 0.000000
0.004461 -0.002498 0.000000
-0.002498 0.007264 0.000000
0.000000 0.000000 0.000000
0.006466 -0.003101 0.000000
-0.003101 0.008096 0.000000
0.000000 0.000000 0.000000
-0.009641 0.007631 0.000000
0.007631 -0.010050 0.000000
0.000000 0.000000 0.000000
0.008168 -0.010113 0.000000
-0.010113 0.007269 0.000000
0.000000 0.000000 0.000000
-0.001844 0.004227 0.000000
0.004227 -0.007095 0.000000
0.000000 0.000000 0.000000
0.012753 -0.001629 0.000000
-0.001629 -0.029974 0.000000
0.000000 0.000000 0.000000
0.010433 0.015693 0.000000
0.015693 -0.015672 0.000000
0.000000 0.000000 0.000000
-0.005437 0.003921 0.000000
0.003921 -0.018901 0.000000
0.000000 0.000000 0.000000
-0.010079 0.010993 0.000000
0.010993 -0.023844 0.000000
0.000000 0.000000 0.000000
0.014161 -0.010014 0.000000
-0.010014 0.003436 0.000000
0.000000 0.000000 0.000000
-0.006143 0.004046 0.000000
0.004046 -0.020340 0.000000
0.000000 0.000000 0.000000
-0.003648 -0.001072 0.000000
-0.001072 -0.011438 0.000000
0.000000 0.000000 0.000000
-0.006894 -0.000930 0.000000
-0.000930 -0.010379 0.000000
0.000000 0.000000 0.000000
-0.003653 -0.009495 0.000000
-0.009495 -0.001849 0.000000
0.000000 0.000000 0.000000
-0.000070 -0.004431 0.000000
-0.004431 0.024509 0.000000
0.000000 0.000000 0.000000
-0.005738 -0.002869 0.000000
-0.002869 -0.013172 0.000000
0.000000 0.000000 0.000000
-0.001013 0.001477 0.000000
0.001477 0.007789 0.000000
0.000000 0.000000 0.000000
0.002400 0.002168 0.000000
0.002168 0.006729 0.000000
0.000000 0.000000 0.000000
0.019652 0.007071 0.000000
0.007071 0.006864 0.000000
0.000000 0.000000 0.000000
0.002435 -0.000404 0.000000
-0.000404 -0.014676 0.000000
0.000000 0.000000 0.000000
0.005389 0.017842 0.000000
0.017842 0.009479 0.000000
0.000000 0.000000 0.000000
0.007706 0.001628 0.000000
0.001628 -0.000401 0.000000
0.000000 0.000000 0.000000
0.023110 -0.009512 0.000000
-0.009512 -0.010790 0.000000
0.000000 0.000000 0.000000
0.003545 0.000098 0.000000
0.000098 0.009361 0.000000
0.000000 0.000000 0.000000
0.004716 0.007290 0.000000
0.007290 -0.020763 0.000000
0.000000 0.000000 0.000000
0.012090 -0.004655 0.000000
-0.004655 0.008050 0.000000
0.000000 0.000000 0.000000
-0.008200 0.001550 0.000000
0.001550 0.019712 0.000000
0.000000 0.000000 0.000000
0.006946 0.013213 0.000000
0.013213 0.019253 0.000000
0.000000 0.000000 0.000000
0.004097 0.002841 0.000000
0.002841 0.002981 0.000000
0.000000 0.000000 0.000000
-0.006057 0.001803 0.000000
0.001803 -0.005508 0.000000
0.000000 0.000000 0.000000
-0.000561 0.001968 0.000000
0.001968 0.004887 0.000000
0.000000 0.000000 0.000000
0.000762 0.001517 0.000000
0.001517 0.004496 0.000000
0.000000 0.000000 0.000000
-0.001135 -0.000404 0.000000
-0.000404 0.003690 0.000000
0.000000 0.000000 0.000000
0.001725 0.003466 0.000000
0.003466 0.013564 0.000000
0.000000 0.000000 0.000000
0.003709 0.007416 0.000000
0.007416 -0.000299 0.000000
0.000000 0.000000 0.000000
-0.000767 0.003330 0.000000
0.003330 0.001951 0.000000
0.000000 0.000000 0.000000
-0.011123 -0.003061 0.000000
-0.003061 -0.007022 0.000000
0.000000 0.000000 0.000000
-0.000852 0.014320 0.000000
0.014320 0.011954 0.000000
0.000000 0.000000 0.000000
-0.015991 0.001354 0.000000
0.001354 0.004904 0.000000
0.000000 0.000000 0.000000
-0.005015 0.011477 0.000000
0.011477 0.010193 0.000000
0.000000 0.000000 0.000000
-0.000610 0.003233 0.000000
0.003233 0.003891 0.000000
0.000000 0.000000 0.000000
0.013314 -0.001730 0.000000
-0.001730 0.004760 0.000000
0.000000 0.000000 0.000000
-0.003476 -0.000179 0.000000
-0.000179 -0.004647 0.000000
0.000000 0.000000 0.000000
0.008956 -0.003068 0.000000
-0.003068 0.004163 0.000000
0.000000 0.000000 0.000000
-0.004860 0.003470 0.000000
0.003470 0.014133 0.000000
0.000000 0.000000 0.000000
0.004553 0.000156 0.000000
0.000156 0.010310 0.000000
0.000000 0.000000 0.000000
0.001331 0.001956 0.000000
0.001956 -0.001147 0.000000
0.000000 0.000000 0.000000
-0.006456 0.011924 0.000000
0.011924 0.002397 0.000000
0.000000 0.000000 0.000000
-0.008693 0.009659 0.000000
0.009659 -0.008200 0.000000
0.000000 0.000000 0.000000
0.007503 -0.003687 0.000000
-0.003687 0.004297 0.000000
0.000000 0.000000 0.000000
-0.003035 0.006977 0.000000
0.006977 0.005723 0.000000
0.000000 0.000000 0.000000
-0.011546 -0.016911 0.000000
-0.016911 -0.003427 0.000000
0.000000 0.000000 0.000000
-0.004629 0.002784 0.000000
0.002784 0.004261 0.000000
0.000000 0.000000 0.000000
-0.007293 0.008252 0.000000
0.008252 -0.007496 0.000000
0.000000 0.000000 0.000000
0.000886 0.022688 0.000000
0.022688 -0.007179 0.000000
0.000000 0.000000 0.000000
0.000928 0.001660 0.000000
0.001660 -0.001617 0.000000
0.000000 0.000000 0.000000
0.009024 0.005656 0.000000
0.005656 0.004791 0.000000
0.000000 0.000000 0.000000
-0.008406 0.000209 0.000000
0.000209 -0.015768 0.000000
0.000000 0.000000 0.000000
-0.011055 0.004164 0.000000
0.004164 -0.020889 0.000000
0.000000 0.000000 0.000000
-0.001584 0.002764 0.000000
0.002764 0.005006 0.000000
0.000000 0.000000 0.000000
-0.008509 0.001405 0.000000
0.001405 -0.021985 0.000000
0.000000 0.000000 0.000000
-0.004845 0.001790 0.000000
0.001790 -0.013284 0.000000
0.000000 0.000000 0.000000
-0.009606 -0.006393 0.000000
-0.006393 -0.020828 0.000000
0.000000 0.000000 0.000000
-0.009715 -0.003315 0.000000
-0.003315 -0.010753 0.000000
0.000000 0.000000 0.000000
-0.040304 -0.025114 0.000000
-0.025114 0.000857 0.000000
0.000000 0.000000 0.000000
-0.005189 0.003084 0.000000
0.003084 -0.014586 0.000000
0.000000 0.000000 0.000000
-0.003896 0.015387 0.000000
0.015387 0.003924 0.000000
0.000000 0.000000 0.000000
0.000090 0.000359 0.000000
0.000359 0.004878 0.000000
0.000000 0.000000 0.000000
0.007776 0.008744 0.000000
0.008744 0.008743 0.000000
0.000000 0.000000 0.000000
-0.001749 -0.000750 0.000000
-0.000750 0.004159 0.000000
0.000000 0.000000 0.000000
0.001821 0.000313 0.000000
0.000313 0.004977 0.000000
0.000000 0.000000 0.000000
-0.008323 0.010640 0.000000
0.010640 0.002550 0.000000
0.000000 0.000000 0.000000
-0.004810 0.005637 0.000000
0.005637 0.003355 0.000000
0.000000 0.000000 0.000000
0.001671 0.012987 0.000000
0.012987 -0.002420 0.000000
0.000000 0.000000 0.000000
-0.020500 0.001368 0.000000
0.001368 0.001935 0.000000
0.000000 0.000000 0.000000
0.019739 0.010479 0.000000
0.010479 -0.001519 0.000000
0.000000 0.000000 0.000000
-0.024270 0.006633 0.000000
0.006633 0.018122 0.000000
0.000000 0.000000 0.000000
0.003969 -0.000862 0.000000
-0.000862 0.007876 0.000000
0.000000 0.000000 0.000000
0.013222 0.015828 0.000000
0.015828 -0.015817 0.000000
0.000000 0.000000 0.000000
-0.030681 0.011454 0.000000
0.011454 0.000850 0.000000
0.000000 0.000000 0.000000
0.002515 0.000871 0.000000
0.000871 0.008203 0.000000
0.000000 0.000000 0.000000
0.006808 -0.001323 0.000000
-0.001323 0.010309 0.000000
0.000000 0.000000 0.000000
0.019316 0.000780 0.000000
0.000780 -0.026040 0.000000
0.000000 0.000000 0.000000
-0.003390 -0.008483 0.000000
-0.008483 0.003190 0.000000
0.000000 0.000000 0.000000
-0.000340 0.011588 0.000000
0.011588 -0.009386 0.000000
0.000000 0.000000 0.000000
-0.011958 -0.003386 0.000000
-0.003386 -0.015190 0.000000
0.000000 0.000000 0.000000
-0.003890 0.013717 0.000000
0.013717 -0.017737 0.000000
0.000000 0.000000 0.000000
0.002795 -0.001699 0.000000
-0.001699 0.008350 0.000000
0.000000 0.000000 0.000000
0.004072 -0.003576 0.000000
-0.003576 0.010894 0.000000
0.000000 0.000000 0.000000
-0.014708 -0.006126 0.000000
-0.006126 -0.016073 0.000000
0.000000 0.000000 0.000000
0.006492 -0.000739 0.000000
-0.000739 0.009046 0.000000
0.000000 0.000000 0.000000
-0.002003 0.002813 0.000000
0.002813 0.007397 0.000000
0.000000 0.000000 0.000000
0.002255 -0.004777 0.000000
-0.004777 0.010984 0.000000
0.000000 0.000000 0.000000
0.000001 0.003516 0.000000
0.003516 0.007634 0.000000
0.000000 0.000000 0.000000
-0.007568 -0.014207 0.000000
-0.014207 -0.009100 0.000000
0.000000 0.000000 0.000000
-0.002438 -0.002396 0.000000
-0.002396 -0.008044 0.000000
0.000000 0.000000 0.000000
-0.009336 -0.003836 0.000000
-0.003836 -0.006575 0.000000
0.000000 0.000000 0.000000
-0.004687 0.013456 0.000000
0.013456 -0.032842 0.000000
0.000000 0.000000 0.000000
-0.000888 0.002450 0.000000
0.002450 -0.001976 0.000000
0.000000 0.000000 0.000000
0.000563 0.001976 0.000000
0.001976 0.013358 0.000000
0.000000 0.000000 0.000000
-0.005373 0.000723 0.000000
0.000723 0.010530 0.000000
0.000000 0.000000 0.000000
0.011020 -0.005249 0.000000
-0.005249 0.007323 0.000000
0.000000 0.000000 0.000000
-0.024763 0.011563 0.000000
0.011563 -0.020551 0.000000
0.000000 0.000000 0.000000
-0.021233 0.021290 0.000000
0.021290 0.015425 0.000000
0.000000 0.000000 0.000000
0.014444 0.005481 0.000000
0.005481 -0.023569 0.000000
0.000000 0.000000 0.000000
-0.015036 -0.000175 0.000000
-0.000175 0.011124 0.000000
0.000000 0.000000 0.000000
-0.015233 -0.008814 0.000000
-0.008814 -0.005136 0.000000
0.000000 0.000000 0.000000
-0.005774 -0.002402 0.000000
-0.002402 -0.003964 0.000000
0.000000 0.000000 0.000000
0.020271 -0.001061 0.000000
-0.001061 -0.000355 0.000000
0.000000 0.000000 0.000000
-0.003389 0.006495 0.000000
0.006495 0.002757 0.000000
0.000000 0.000000 0.000000
0.007954 -0.002402 0.000000
-0.002402 -0.002084 0.000000
0.000000 0.000000 0.000000
0.027137 -0.001209 0.000000
-0.001209 -0.000264 0.000000
0.000000 0.000000 0.000000
0.009269 0.008635 0.000000
0.008635 0.005340 0.000000
0.000000 0.000000 0.000000
0.000771 0.002866 0.000000
0.002866 0.006004 0.000000
0.000000 0.000000 0.000000
-0.006022 -0.003162 0.000000
-0.003162 -0.025725 0.000000
0.000000 0.000000 0.000000
0.021396 0.000984 0.000000
0.000984 -0.010433 0.000000
0.000000 0.000000 0.000000
-0.002869 -0.004086 0.000000
-0.004086 -0.013575 0.000000
0.000000 0.000000 0.000000
0.003545 -0.008129 0.000000
-0.008129 -0.005895 0.000000
0.000000 0.000000 0.000000
0.005437 -0.003905 0.000000
-0.003905 -0.012999 0.000000
0.000000 0.000000 0.000000
0.006380 -0.005225 0.000000
-0.005225 -0.009497 0.000000
0.000000 0.000000 0.000000
0.007311 -0.008010 0.000000
-0.008010 0.000389 0.000000
0.000000 0.000000 0.000000
0.007939 0.002919 0.000000
0.002919 -0.000462 0.000000
0.000000 0.000000 0.000000
-0.006863 0.001712 0.000000
0.001712 0.007885 0.000000
0.000000 0.000000 0.000000
-0.000082 -0.011381 0.000000
-0.011381 -0.008681 0.000000
0.000000 0.000000 0.000000
0.005543 -0.010386 0.000000
-0.010386 -0.012845 0.000000
0.000000 0.000000 0.000000
-0.000856 -0.000899 0.000000
-0.000899 -0.017055 0.000000
0.000000 0.000000 0.000000
0.001291 0.001759 0.000000
0.001759 0.000593 0.000000
0.000000 0.000000 0.000000
0.003878 -0.004577 0.000000
-0.004577 -0.003171 0.000000
0.000000 0.000000 0.000000
0.017278 -0.000887 0.000000
-0.000887 -0.004144 0.000000
0.000000 0.000000 0.000000
0.012900 0.001148 0.000000
0.001148 -0.014317 0.000000
0.000000 0.000000 0.000000
0.015835 -0.001538 0.000000
-0.001538 -0.008575 0.000000
0.000000 0.000000 0.000000
-0.001572 0.003793 0.000000
0.003793 0.012792 0.000000
0.000000 0.000000 0.000000
0.020800 -0.003728 0.000000
-0.003728 0.000901 0.000000
0.000000 0.000000 0.000000
0.002520 0.007296 0.000000
0.007296 -0.019912 0.000000
0.000000 0.000000 0.000000
-0.004236 0.006139 0.000000
0.006139 0.008172 0.000000
0.000000 0.000000 0.000000
0.003743 0.006923 0.000000
0.006923 -0.000039 0.000000
0.000000 0.000000 0.000000
0.007782 -0.000024 0.000000
-0.000024 0.004274 0.000000
0.000000 0.000000 0.000000
0.002575 -0.002751 0.000000
-0.002751 -0.007305 0.000000
0.000000 0.000000 0.000000
0.000371 -0.007328 0.000000
-0.007328 -0.023327 0.000000
0.000000 0.000000 0.000000
-0.019649 0.006169 0.000000
0.006169 -0.009556 0.000000
0.000000 0.000000 0.000000
0.000710 0.003616 0.000000
0.003616 0.005185 0.000000
0.000000 0.000000 0.000000
-0.013830 0.009939 0.000000
0.009939 0.004469 0.000000
0.000000 0.000000 0.000000
0.002894 0.005073 0.000000
0.005073 0.008602 0.000000
0.000000 0.000000 0.000000
0.008015 0.001854 0.000000
0.001854 0.016991 0.000000
0.000000 0.000000 0.000000
0.005600 0.002619 0.000000
0.002619 0.018253 0.000000
0.000000 0.000000 0.000000
0.009847 -0.001940 0.000000
-0.001940 -0.021407 0.000000
0.000000 0.000000 0.000000
0.014829 -0.005097 0.000000
-0.005097 0.014000 0.000000
0.000000 0.000000 0.000000
-0.010622 0.013592 0.000000
0.013592 0.007405 0.000000
0.000000 0.000000 0.000000
0.007295 -0.004304 0.000000
-0.004304 0.020724 0.000000
0.000000 0.000000 0.000000
-0.000330 0.004908 0.000000
0.004908 -0.000913 0.000000
0.000000 0.000000 0.000000
-0.000637 -0.001491 0.000000
-0.001491 -0.004680 0.000000
0.000000 0.000000 0.000000
-0.013226 -0.007121 0.000000
-0.007121 -0.018353 0.000000
0.000000 0.000000 0.000000
-0.009437 -0.006452 0.000000
-0.006452 0.003758 0.000000
0.000000 0.000000 0.000000
-0.010183 0.001682 0.000000
0.001682 -0.010186 0.000000
0.000000 0.000000 0.000000
0.001993 0.001315 0.000000
0.001315 -0.008666 0.000000
0.000000 0.000000 0.000000
-0.007142 -0.005636 0.000000
-0.005636 -0.005067 0.000000
0.000000 0.000000 0.000000
-0.004711 -0.001808 0.000000
-0.001808 -0.000770 0.000000
0.000000 0.000000 0.000000
-0.006053 -0.005587 0.000000
-0.005587 -0.004864 0.000000
0.000000 0.000000 0.000000
-0.006630 0.005349 0.000000
0.005349 -0.003558 0.000000
0.000000 0.000000 0.000000
-0.008299 0.007848 0.000000
0.007848 -0.017338 0.000000
0.000000 0.000000 0.000000
-0.004658 0.004099 0.000000
0.004099 -0.006768 0.000000
0.000000 0.000000 0.000000
0.006488 0.006882 0.000000
0.006882 -0.009216 0.000000
0.000000 0.000000 0.000000
-0.002134 -0.021282 0.000000
-0.021282 -0.024830 0.000000
0.000000 0.000000 0.000000
-0.001938 0.000229 0.000000
0.000229 0.005574 0.000000
0.000000 0.000000 0.000000
-0.018288 0.003093 0.000000
0.003093 -0.013078 0.000000
0.000000 0.000000 0.000000
-0.006173 -0.005411 0.000000
-0.005411 0.017175 0.000000
0.000000 0.000000 0.000000
-0.003068 -0.015158 0.000000
-0.015158 0.019413 0.000000
0.000000 0.000000 0.000000
-0.004704 -0.004839 0.000000
-0.004839 -0.009453 0.000000
0.000000 0.000000 0.000000
-0.007983 -0.012123 0.000000
-0.012123 -0.010526 0.000000
0.000000 0.000000 0.000000
-0.007502 -0.002705 0.000000
-0.002705 0.015258 0.000000
0.000000 0.000000 0.000000
-0.013519 0.016862 0.000000
0.016862 -0.002894 0.000000
0.000000 0.000000 0.000000
-0.004790 -0.015631 0.000000
-0.015631 -0.002528 0.000000
0.000000 0.000000 0.000000
-0.025957 -0.012428 0.000000
-0.012428 -0.007157 0.000000
0.000000 0.000000 0.000000
-0.005459 -0.007135 0.000000
-0.007135 0.009876 0.000000
0.000000 0.000000 0.000000
-0.007839 -0.001242 0.000000
-0.001242 0.010565 0.000000
0.000000 0.000000 0.000000
0.009908 -0.011353 0.000000
-0.011353 -0.003528 0.000000
0.000000 0.000000 0.000000
0.011470 -0.008111 0.000000
-0.008111 -0.001197 0.000000
0.000000 0.000000 0.000000
0.005542 0.002742 0.000000
0.002742 -0.004079 0.000000
0.000000 0.000000 0.000000
0.010269 0.000393 0.000000
0.000393 0.027562 0.000000
0.000000 0.000000 0.000000
-0.007172 0.001333 0.000000
0.001333 -0.020716 0.000000
0.000000 0.000000 0.000000
-0.002204 0.002024 0.000000
0.002024 -0.006860 0.000000
0.000000 0.000000 0.000000
0.001611 -0.000385 0.000000
-0.000385 -0.000556 0.000000
0.000000 0.000000 0.000000
-0.000903 0.004044 0.000000
0.004044 0.006770 0.000000
0.000000 0.000000 0.000000
-0.009838 -0.003379 0.000000
-0.003379 0.007013 0.000000
0.000000 0.000000 0.000000
-0.012564 -0.000494 0.000000
-0.000494 0.002477 0.000000
0.000000 0.000000 0.000000
-0.013928 0.016135 0.000000
0.016135 0.010958 0.000000
0.000000 0.000000 0.000000
0.002060 -0.013714 0.000000
-0.013714 0.030676 0.000000
0.000000 0.000000 0.000000
0.000669 0.000510 0.000000
0.000510 0.009717 0.000000
0.000000 0.000000 0.000000
0.002437 0.001242 0.000000
0.001242 0.008873 0.000000
0.000000 0.000000 0.000000
0.017366 -0.008673 0.000000
-0.008673 0.019074 0.000000
0.000000 0.000000 0.000000
0.011227 0.000987 0.000000
0.000987 -0.001142 0.000000
0.000000 0.000000 0.000000
0.030418 -0.005844 0.000000
-0.005844 0.002117 0.000000
0.000000 0.000000 0.000000
-0.013319 -0.006411 0.000000
-0.006411 -0.002990 0.000000
0.000000 0.000000 0.000000
0.004893 0.003363 0.000000
0.003363 0.030154 0.000000
0.000000 0.000000 0.000000
-0.004392 0.000248 0.000000
0.000248 -0.003248 0.000000
0.000000 0.000000 0.000000
0.019736 0.001173 0.000000
0.001173 -0.012252 0.000000
0.000000 0.000000 0.000000
-0.014213 0.000723 0.000000
0.000723 -0.010814 0.000000
0.000000 0.000000 0.000000
0.015617 0.010068 0.000000
0.010068 -0.022763 0.000000
0.000000 0.000000 0.000000
-0.017627 0.012459 0.000000
0.012459 -0.027220 0.000000
0.000000 0.000000 0.000000
-0.014308 -0.010222 0.000000
-0.010222 -0.029032 0.000000
0.000000 0.000000 0.000000
-0.006704 0.015776 0.000000
0.015776 0.009187 0.000000
0.000000 0.000000 0.000000
0.015965 -0.006202 0.000000
-0.006202 0.000976 0.000000
0.000000 0.000000 0.000000
-0.002130 0.006454 0.000000
0.006454 -0.008453 0.000000
0.000000 0.000000 0.000000
0.011385 -0.019431 0.000000
-0.019431 0.019608 0.000000
0.000000 0.000000 0.000000
-0.015271 -0.009392 0.000000
-0.009392 0.014504 0.000000
0.000000 0.000000 0.000000
-0.016353 -0.012106 0.000000
-0.012106 0.007306 0.000000
0.000000 0.000000 0.000000
0.013571 -0.001556 0.000000
-0.001556 0.000921 0.000000
0.000000 0.000000 0.000000
0.005803 -0.004985 0.000000
-0.004985 -0.008928 0.000000
0.000000 0.000000 0.000000
0.009453 -0.006544 0.000000
-0.006544 -0.012128 0.000000
0.000000 0.000000 0.000000
-0.004062 0.000673 0.000000
0.000673 0.001047 0.000000
0.000000 0.000000 0.000000
-0.002814 -0.005528 0.000000
-0.005528 -0.008375 0.000000
0.000000 0.000000 0.000000
0.004662 -0.002398 0.000000
-0.002398 0.004261 0.000000
0.000000 0.000000 0.000000
-0.004482 -0.012787 0.000000
-0.012787 -0.011814 0.000000
0.000000 0.000000 0.000000
0.019795 0.007201 0.000000
0.007201 -0.015566 0.000000
0.000000 0.000000 0.000000
0.006045 -0.017399 0.000000
-0.017399 0.017837 0.000000
0.000000 0.000000 0.000000
-0.025636 0.003043 0.000000
0.003043 -0.018349 0.000000
0.000000 0.000000 0.000000
0.001947 0.001662 0.000000
0.001662 0.001578 0.000000
0.000000 0.000000 0.000000
-0.015209 -0.006140 0.000000
-0.006140 0.002662 0.000000
0.000000 0.000000 0.000000
0.003366 -0.010316 0.000000
-0.010316 -0.011457 0.000000
0.000000 0.000000 0.000000
0.010563 0.000125 0.000000
0.000125 0.026680 0.000000
0.000000 0.000000 0.000000
0.005859 -0.002776 0.000000
-0.002776 0.016020 0.000000
0.000000 0.000000 0.000000
0.009576 0.001232 0.000000
0.001232 0.024964 0.000000
0.000000 0.000000 0.000000
-0.003111 -0.000540 0.000000
-0.000540 0.006173 0.000000
0.000000 0.000000 0.000000
0.011956 0.002213 0.000000
0.002213 -0.006672 0.000000
0.000000 0.000000 0.000000
0.008057 -0.000105 0.000000
-0.000105 0.027871 0.000000
0.000000 0.000000 0.000000
-0.009349 -0.000465 0.000000
-0.000465 -0.007257 0.000000
0.000000 0.000000 0.000000
-0.003585 0.000595 0.000000
0.000595 0.003712 0.000000
0.000000 0.000000 0.000000
0.003209 0.003954 0.000000
0.003954 -0.010978 0.000000
0.000000 0.000000 0.000000
-0.003577 -0.000866 0.000000
-0.000866 0.005530 0.000000
0.000000 0.000000 0.000000
-0.005026 0.002127 0.000000
0.002127 -0.003624 0.000000
0.000000 0.000000 0.000000
-0.003416 -0.046956 0.000000
-0.046956 -0.007851 0.000000
0.000000 0.000000 0.000000
-0.001444 0.003282 0.000000
0.003282 -0.000259 0.000000
0.000000 0.000000 0.000000
-0.015048 0.003205 0.000000
0.003205 0.011956 0.000000
0.000000 0.000000 0.000000
-0.000121 0.000609 0.000000
0.000609 0.008640 0.000000
0.000000 0.000000 0.000000
-0.003242 0.006318 0.000000
0.006318 0.009632 0.000000
0.000000 0.000000 0.000000
0.005623 -0.001028 0.000000
-0.001028 -0.008175 0.000000
0.000000 0.000000 0.000000
-0.003970 0.005752 0.000000
0.005752 0.007150 0.000000
0.000000 0.000000 0.000000
-0.007532 -0.005467 0.000000
-0.005467 -0.004634 0.000000
0.000000 0.000000 0.000000
0.008861 0.002827 0.000000
0.002827 -0.003687 0.000000
0.000000 0.000000 0.000000
-0.009820 0.008789 0.000000
0.008789 -0.000040 0.000000
0.000000 0.000000 0.000000
-0.004450 -0.005549 0.000000
-0.005549 -0.003345 0.000000
0.000000 0.000000 0.000000
0.001047 -0.002031 0.000000
-0.002031 -0.005306 0.000000
0.000000 0.000000 0.000000
-0.013102 -0.006556 0.000000
-0.006556 -0.006152 0.000000
0.000000 0.000000 0.000000
-0.012081 -0.007884 0.000000
-0.007884 0.013578 0.000000
0.000000 0.000000 0.000000
-0.005702 0.007456 0.000000
0.007456 -0.016121 0.000000
0.000000 0.000000 0.000000
-0.010210 0.006613 0.000000
0.006613 0.001375 0.000000
0.000000 0.000000 0.000000
0.017902 0.001533 0.000000
0.001533 -0.009267 0.000000
0.000000 0.000000 0.000000
0.007786 0.000691 0.000000
0.000691 0.003875 0.000000
0.000000 0.000000 0.000000
0.007893 0.000865 0.000000
0.000865 -0.017781 0.000000
0.000000 0.000000 0.000000
0.004120 -0.007973 0.000000
-0.007973 0.001285 0.000000
0.000000 0.000000 0.000000
0.029246 0.032052 0.000000
0.032052 -0.008281 0.000000
0.000000 0.000000 0.000000
0.006814 0.010687 0.000000
0.010687 0.001991 0.000000
0.000000 0.000000 0.000000
-0.004367 0.003955 0.000000
0.003955 0.004267 0.000000
0.000000 0.000000 0.000000
0.015669 0.029366 0.000000
0.029366 0.012208 0.000000
0.000000 0.000000 0.000000
0.003147 0.015669 0.000000
0.015669 0.002900 0.000000
0.000000 0.000000 0.000000
-0.002326 -0.004202 0.000000
-0.004202 -0.021417 0.000000
0.000000 0.000000 0.000000
0.011316 0.007931 0.000000
0.007931 0.013263 0.000000
0.000000 0.000000 0.000000
-0.017569 -0.013421 0.000000
-0.013421 0.012592 0.000000
0.000000 0.000000 0.000000
-0.012861 0.031775 0.000000
0.031775 -0.008450 0.000000
0.000000 0.000000 0.000000
-0.011172 -0.031797 0.000000
-0.031797 -0.000849 0.000000
0.000000 0.000000 0.000000
-0.004007 -0.001955 0.000000
-0.001955 -0.008390 0.000000
0.000000 0.000000 0.000000
-0.002667 0.004624 0.000000
0.004624 0.011640 0.000000
0.000000 0.000000 0.000000
-0.005816 -0.002428 0.000000
-0.002428 0.005595 0.000000
0.000000 0.000000 0.000000
0.009487 0.001600 0.000000
0.001600 0.007940 0.000000
0.000000 0.000000 0.000000
0.011726 0.000454 0.000000
0.000454 0.009170 0.000000
0.000000 0.000000 0.000000
0.012337 0.005500 0.000000
0.005500 0.025124 0.000000
0.000000 0.000000 0.000000
0.005219 0.000530 0.000000
0.000530 0.010987 0.000000
0.000000 0.000000 0.000000
0.012887 0.003544 0.000000
0.003544 0.039620 0.000000
0.000000 0.000000 0.000000
-0.003062 -0.000382 0.000000
-0.000382 -0.002028 0.000000
0.000000 0.000000 0.000000
0.022071 0.005018 0.000000
0.005018 0.009392 0.000000
0.000000 0.000000 0.000000
-0.006287 -0.021498 0.000000
-0.021498 -0.009655 0.000000
0.000000 0.000000 0.000000
0.018763 0.005938 0.000000
0.005938 -0.001290 0.000000
0.000000 0.000000 0.000000
-0.003949 -0.003595 0.000000
-0.003595 -0.010519 0.000000
0.000000 0.000000 0.000000
-0.007042 -0.028879 0.000000
-0.028879 0.017099 0.000000
0.000000 0.000000 0.000000
0.004010 0.009054 0.000000
0.009054 -0.003293 0.000000
0.000000 0.000000 0.000000
0.011877 -0.009681 0.000000
-0.009681 -0.006793 0.000000
0.000000 0.000000 0.000000
-0.019049 -0.003853 0.000000
-0.003853 0.007522 0.000000
0.000000 0.000000 0.000000
-0.017896 0.005144 0.000000
0.005144 0.015912 0.000000
0.000000 0.000000 0.000000
-0.002018 -0.004337 0.000000
-0.004337 -0.005286 0.000000
0.000000 0.000000 0.000000
0.006534 -0.004141 0.000000
-0.004141 0.020409 0.000000
0.000000 0.000000 0.000000
-0.013893 -0.004837 0.000000
-0.004837 -0.016403 0.000000
0.000000 0.000000 0.000000
-0.005151 0.003548 0.000000
0.003548 0.012842 0.000000
0.000000 0.000000 0.000000
0.005557 0.001547 0.000000
0.001547 -0.013464 0.000000
0.000000 0.000000 0.000000
0.017603 0.006368 0.000000
0.006368 -0.001112 0.000000
0.000000 0.000000 0.000000
0.010277 -0.004682 0.000000
-0.004682 -0.003276 0.000000
0.000000 0.000000 0.000000
0.013396 0.005569 0.000000
0.005569 -0.013377 0.000000
0.000000 0.000000 0.000000
0.005897 0.000475 0.000000
0.000475 0.012821 0.000000
0.000000 0.000000 0.000000
0.003172 -0.001095 0.000000
-0.001095 0.004200 0.000000
0.000000 0.000000 0.000000
-0.021461 -0.004322 0.000000
-0.004322 -0.007379 0.000000
0.000000 0.000000 0.000000
0.021402 0.007588 0.000000
0.007588 0.017797 0.000000
0.000000 0.000000 0.000000
-0.011798 -0.008711 0.000000
-0.008711 -0.004128 0.000000
0.000000 0.000000 0.000000
-0.013709 -0.005330 0.000000
-0.005330 0.023605 0.000000
0.000000 0.000000 0.000000
-0.006160 -0.009812 0.000000
-0.009812 -0.016171 0.000000
0.000000 0.000000 0.000000
0.006641 0.000008 0.000000
0.000008 0.011986 0.000000
0.000000 0.000000 0.000000
0.001372 0.007666 0.000000
0.007666 -0.015029 0.000000
0.000000 0.000000 0.000000
0.011943 -0.006848 0.000000
-0.006848 0.006243 0.000000
0.000000 0.000000 0.000000
0.005529 -0.009669 0.000000
-0.009669 -0.017606 0.000000
0.000000 0.000000 0.000000
0.008990 0.003017 0.000000
0.003017 0.011079 0.000000
0.000000 0.000000 0.000000
-0.001952 0.000937 0.000000
0.000937 0.006037 0.000000
0.000000 0.000000 0.000000
0.007349 -0.002375 0.000000
-0.002375 -0.004012 0.000000
0.000000 0.000000 0.000000
-0.008115 -0.005586 0.000000
-0.005586 -0.003758 0.000000
0.000000 0.000000 0.000000
0.025585 0.012510 0.000000
0.012510 0.023715 0.000000
0.000000 0.000000 0.000000
-0.000390 0.000461 0.000000
0.000461 -0.005154 0.000000
0.000000 0.000000 0.000000
-0.004872 -0.007351 0.000000
-0.007351 -0.006331 0.000000
0.000000 0.000000 0.000000
0.007100 0.002292 0.000000
0.002292 -0.007612 0.000000
0.000000 0.000000 0.000000
0.011870 0.002684 0.000000
0.002684 0.000346 0.000000
0.000000 0.000000 0.000000
0.005401 -0.000981 0.000000
-0.000981 -0.004850 0.000000
0.000000 0.000000 0.000000
-0.006143 0.000049 0.000000
0.000049 0.014670 0.000000
0.000000 0.000000 0.000000
-0.013700 0.005209 0.000000
0.005209 -0.002367 0.000000
0.000000 0.000000 0.000000
0.011416 0.002155 0.000000
0.002155 0.012537 0.000000
0.000000 0.000000 0.000000
0.011986 -0.011686 0.000000
-0.011686 -0.004550 0.000000
0.000000 0.000000 0.000000
0.013529 -0.002936 0.000000
-0.002936 -0.004183 0.000000
0.000000 0.000000 0.000000
0.009630 0.000484 0.000000
0.000484 0.017044 0.000000
0.000000 0.000000 0.000000
-0.006920 -0.003029 0.000000
-0.003029 -0.003849 0.000000
0.000000 0.000000 0.000000
0.010667 -0.002302 0.000000
-0.002302 0.004436 0.000000
0.000000 0.000000 0.000000
0.002125 0.001598 0.000000
0.001598 -0.005362 0.000000
0.000000 0.000000 0.000000
0.007637 0.001355 0.000000
0.001355 -0.001719 0.000000
0.000000 0.000000 0.000000
0.000009 -0.001097 0.000000
-0.001097 -0.013231 0.000000
0.000000 0.000000 0.000000
0.001185 0.000663 0.000000
0.000663 0.002997 0.000000
0.000000 0.000000 0.000000
-0.008430 -0.004111 0.000000
-0.004111 -0.004902 0.000000
0.000000 0.000000 0.000000
-0.004074 0.006893 0.000000
0.006893 0.023304 0.000000
0.000000 0.000000 0.000000
0.003864 0.016909 0.000000
0.016909 0.012312 0.000000
0.000000 0.000000 0.000000
0.002941 -0.005967 0.000000
-0.005967 -0.010194 0.000000
0.000000 0.000000 0.000000
-0.000617 -0.000392 0.000000
-0.000392 0.000609 0.000000
0.000000 0.000000 0.000000
0.014332 -0.006003 0.000000
-0.006003 -0.007704 0.000000
0.000000 0.000000 0.000000
-0.003213 -0.005148 0.000000
-0.005148 -0.020343 0.000000
0.000000 0.000000 0.000000
0.003854 0.004868 0.000000
0.004868 -0.010504 0.000000
0.000000 0.000000 0.000000
0.002943 -0.001180 0.000000
-0.001180 -0.009002 0.000000
0.000000 0.000000 0.000000
0.004284 -0.002536 0.000000
-0.002536 -0.004619 0.000000
0.000000 0.000000 0.000000
-0.014310 0.004053 0.000000
0.004053 -0.004299 0.000000
0.000000 0.000000 0.000000
0.015880 -0.010261 0.000000
-0.010261 -0.026302 0.000000
0.000000 0.000000 0.000000
0.015700 0.007583 0.000000
0.007583 0.012721 0.000000
0.000000 0.000000 0.000000
-0.005049 0.002055 0.000000
0.002055 0.004548 0.000000
0.000000 0.000000 0.000000
-0.001250 0.009756 0.000000
0.009756 0.009961 0.000000
0.000000 0.000000 0.000000
0.005781 -0.009099 0.000000
-0.009099 -0.001180 0.000000
0.000000 0.000000 0.000000
-0.002479 -0.000060 0.000000
-0.000060 -0.004383 0.000000
0.000000 0.000000 0.000000
0.023917 -0.024893 0.000000
-0.024893 0.009492 0.000000
0.000000 0.000000 0.000000
-0.005659 0.003664 0.000000
0.003664 -0.004827 0.000000
0.000000 0.000000 0.000000
0.005485 -0.001795 0.000000
-0.001795 -0.001288 0.000000
0.000000 0.000000 0.000000
-0.012821 0.008120 0.000000
0.008120 -0.013389 0.000000
0.000000 0.000000 0.000000
-0.019000 0.001165 0.000000
0.001165 -0.008599 0.000000
0.000000 0.000000 0.000000
-0.011001 -0.006798 0.000000
-0.006798 0.006806 0.000000
0.000000 0.000000 0.000000
-0.004226 0.003355 0.000000
0.003355 -0.021482 0.000000
0.000000 0.000000 0.000000
0.003282 0.000720 0.000000
0.000720 -0.000115 0.000000
0.000000 0.000000 0.000000
0.002640 -0.006154 0.000000
-0.006154 -0.005788 0.000000
0.000000 0.000000 0.000000
-0.007169 0.000276 0.000000
0.000276 -0.026304 0.000000
0.000000 0.000000 0.000000
-0.035627 -0.021306 0.000000
-0.021306 -0.004597 0.000000
0.000000 0.000000 0.000000
-0.019981 -0.007155 0.000000
-0.007155 -0.015775 0.000000
0.000000 0.000000 0.000000
-0.007566 -0.016785 0.000000
-0.016785 -0.021543 0.000000
0.000000 0.000000 0.000000
0.004237 0.001193 0.000000
0.001193 0.003263 0.000000
0.000000 0.000000 0.000000
-0.026637 -0.004025 0.000000
-0.004025 -0.020198 0.000000
0.000000 0.000000 0.000000
-0.010592 -0.005241 0.000000
-0.005241 -0.028229 0.000000
0.000000 0.000000 0.000000
0.009448 0.003101 0.000000
0.003101 0.009145 0.000000
0.000000 0.000000 0.000000
0.001313 0.008937 0.000000
0.008937 0.000489 0.000000
0.000000 0.000000 0.000000
-0.001450 -0.004786 0.000000
-0.004786 -0.019683 0.000000
0.000000 0.000000 0.000000
0.007440 -0.002552 0.000000
-0.002552 0.015122 0.000000
0.000000 0.000000 0.000000
-0.002991 -0.003201 0.000000
-0.003201 -0.014591 0.000000
0.000000 0.000000 0.000000
0.001576 0.009575 0.000000
0.009575 0.006763 0.000000
0.000000 0.000000 0.000000
0.006618 0.001966 0.000000
0.001966 0.005902 0.000000
0.000000 0.000000 0.000000
-0.005134 -0.001393 0.000000
-0.001393 0.000784 0.000000
0.000000 0.000000 0.000000
-0.002072 -0.003693 0.000000
-0.003693 -0.008727 0.000000
0.000000 0.000000 0.000000
0.008102 -0.005489 0.000000
-0.005489 0.009306 0.000000
0.000000 0.000000 0.000000
0.016696 0.004573 0.000000
0.004573 0.007335 0.000000
0.000000 0.000000 0.000000
-0.007150 -0.005836 0.000000
-0.005836 0.000917 0.000000
0.000000 0.000000 0.000000
-0.000028 0.003736 0.000000
0.003736 0.012884 0.000000
0.000000 0.000000 0.000000
-0.010071 -0.005485 0.000000
-0.005485 0.005118 0.000000
0.000000 0.000000 0.000000
0.009317 -0.004084 0.000000
-0.004084 -0.000816 0.000000
0.000000 0.000000 0.000000
0.001817 0.001453 0.000000
0.001453 0.015610 0.000000
0.000000 0.000000 0.000000
0.004367 0.001169 0.000000
0.001169 0.004507 0.000000
0.000000 0.000000 0.000000
0.012772 0.005446 0.000000
0.005446 -0.002514 0.000000
0.000000 0.000000 0.000000
-0.006593 -0.001819 0.000000
-0.001819 -0.002066 0.000000
0.000000 0.000000 0.000000
-0.030444 -0.000482 0.000000
-0.000482 -0.027940 0.000000
0.000000 0.000000 0.000000
-0.024852 -0.011206 0.000000
-0.011206 -0.010439 0.000000
0.000000 0.000000 0.000000
0.022565 0.001764 0.000000
0.001764 -0.010890 0.000000
0.000000 0.000000 0.000000
-0.024662 0.004606 0.000000
0.004606 0.001804 0.000000
0.000000 0.000000 0.000000
0.010335 0.001275 0.000000
0.001275 0.014214 0.000000
0.000000 0.000000 0.000000
-0.012440 -0.004139 0.000000
-0.004139 0.019196 0.000000
0.000000 0.000000 0.000000
0.008278 0.001951 0.000000
0.001951 -0.013911 0.000000
0.000000 0.000000 0.000000
0.005293 -0.028810 0.000000
-0.028810 0.024977 0.000000
0.000000 0.000000 0.000000
-0.035660 -0.004891 0.000000
-0.004891 0.013967 0.000000
0.000000 0.000000 0.000000
-0.002965 0.009078 0.000000
0.009078 -0.001006 0.000000
0.000000 0.000000 0.000000
-0.007921 -0.000222 0.000000
-0.000222 0.020988 0.000000
0.000000 0.000000 0.000000
0.000635 0.006506 0.000000
0.006506 -0.023155 0.000000
0.000000 0.000000 0.000000
-0.002402 -0.000959 0.000000
-0.000959 -0.011026 0.000000
0.000000 0.000000 0.000000
-0.007683 -0.002302 0.000000
-0.002302 -0.021209 0.000000
0.000000 0.000000 0.000000
0.021139 0.014668 0.000000
0.014668 0.002252 0.000000
0.000000 0.000000 0.000000
0.000663 0.023210 0.000000
0.023210 -0.014796 0.000000
0.000000 0.000000 0.000000
0.005525 0.006722 0.000000
0.006722 -0.008797 0.000000
0.000000 0.000000 0.000000
0.016277 0.007969 0.000000
0.007969 0.006438 0.000000
0.000000 0.000000 0.000000
-0.008657 -0.002282 0.000000
-0.002282 -0.007092 0.000000
0.000000 0.000000 0.000000
0.029448 -0.021819 0.000000
-0.021819 -0.007377 0.000000
0.000000 0.000000 0.000000
-0.002706 0.005432 0.000000
0.005432 0.005199 0.000000
0.000000 0.000000 0.000000
-0.018198 -0.012822 0.000000
-0.012822 -0.003148 0.000000
0.000000 0.000000 0.000000
-0.001010 -0.007496 0.000000
-0.007496 0.018973 0.000000
0.000000 0.000000 0.000000
0.004674 0.001319 0.000000
0.001319 0.014614 0.000000
0.000000 0.000000 0.000000
-0.011175 -0.009306 0.000000
-0.009306 -0.013159 0.000000
0.000000 0.000000 0.000000
0.007878 -0.004257 0.000000
-0.004257 -0.003285 0.000000
0.000000 0.000000 0.000000
0.009291 0.002333 0.000000
0.002333 0.041497 0.000000
0.000000 0.000000 0.000000
0.015459 -0.001129 0.000000
-0.001129 -0.014500 0.000000
0.000000 0.000000 0.000000
-0.024993 0.004618 0.000000
0.004618 0.000186 0.000000
0.000000 0.000000 0.000000
0.005316 -0.004250 0.000000
-0.004250 0.005836 0.000000
0.000000 0.000000 0.000000
0.006462 -0.001098 0.000000
-0.001098 -0.014311 0.000000
0.000000 0.000000 0.000000
-0.006517 0.008932 0.000000
0.008932 -0.001475 0.000000
0.000000 0.000000 0.000000
0.006742 0.001544 0.000000
0.001544 0.007681 0.000000
0.000000 0.000000 0.000000
0.006788 0.000893 0.000000
0.000893 0.007595 0.000000
0.000000 0.000000 0.000000
0.011253 0.005356 0.000000
0.005356 -0.009065 0.000000
0.000000 0.000000 0.000000
-0.018217 0.003178 0.000000
0.003178 -0.002478 0.000000
0.000000 0.000000 0.000000
0.005272 -0.001062 0.000000
-0.001062 0.000927 0.000000
0.000000 0.000000 0.000000
-0.005476 0.003797 0.000000
0.003797 -0.010948 0.000000
0.000000 0.000000 0.000000
-0.020813 0.002407 0.000000
0.002407 -0.012758 0.000000
0.000000 0.000000 0.000000
-0.001775 0.003799 0.000000
0.003799 -0.000945 0.000000
0.000000 0.000000 0.000000
0.002083 0.000710 0.000000
0.000710 0.003553 0.000000
0.000000 0.000000 0.000000
0.013621 -0.011813 0.000000
-0.011813 -0.000995 0.000000
0.000000 0.000000 0.000000
-0.030432 0.009006 0.000000
0.009006 0.015082 0.000000
0.000000 0.000000 0.000000
0.008864 -0.004498 0.000000
-0.004498 0.007868 0.000000
0.000000 0.000000 0.000000
-0.008365 0.007783 0.000000
0.007783 -0.014650 0.000000
0.000000 0.000000 0.000000
-0.008938 0.008404 0.000000
0.008404 -0.018831 0.000000
0.000000 0.000000 0.000000
-0.000846 0.002012 0.000000
0.002012 0.006024 0.000000
0.000000 0.000000 0.000000
-0.006268 0.001707 0.000000
0.001707 -0.004376 0.000000
0.000000 0.000000 0.000000
-0.001442 0.006392 0.000000
0.006392 -0.017390 0.000000
0.000000 0.000000 0.000000
0.005794 -0.001190 0.000000
-0.001190 0.008714 0.000000
0.000000 0.000000 0.000000
-0.016334 0.003538 0.000000
0.003538 -0.020949 0.000000
0.000000 0.000000 0.000000
0.007590 0.005080 0.000000
0.005080 0.008245 0.000000
0.000000 0.000000 0.000000
0.003814 -0.002855 0.000000
-0.002855 0.013455 0.000000
0.000000 0.000000 0.000000
-0.006567 0.007131 0.000000
0.007131 -0.001585 0.000000
0.000000 0.000000 0.000000
0.001746 -0.001681 0.000000
-0.001681 0.005764 0.000000
0.000000 0.000000 0.000000
-0.018864 0.000091 0.000000
0.000091 -0.012667 0.000000
0.000000 0.000000 0.000000
-0.006107 0.012318 0.000000
0.012318 -0.017578 0.000000
0.000000 0.000000 0.000000
0.010273 0.002853 0.000000
0.002853 -0.006165 0.000000
0.000000 0.000000 0.000000
-0.002224 0.003676 0.000000
0.003676 0.015934 0.000000
0.000000 0.000000 0.000000
0.012039 -0.002720 0.000000
-0.002720 0.003037 0.000000
0.000000 0.000000 0.000000
0.020814 -0.017844 0.000000
-0.017844 0.009391 0.000000
0.000000 0.000000 0.000000
-0.003227 0.012337 0.000000
0.012337 0.009084 0.000000
0.000000 0.000000 0.000000
0.017500 -0.013120 0.000000
-0.013120 -0.014233 0.000000
0.000000 0.000000 0.000000
-0.000260 0.002281 0.000000
0.002281 0.011425 0.000000
0.000000 0.000000 0.000000
0.003282 -0.003739 0.000000
-0.003739 0.000824 0.000000
0.000000 0.000000 0.000000
-0.024360 0.002899 0.000000
0.002899 -0.017233 0.000000
0.000000 0.000000 0.000000
-0.006006 -0.006479 0.000000
-0.006479 0.013477 0.000000
0.000000 0.000000 0.000000
-0.018030 -0.002488 0.000000
-0.002488 -0.011854 0.000000
0.000000 0.000000 0.000000
-0.004396 0.009513 0.000000
0.009513 -0.006868 0.000000
0.000000 0.000000 0.000000
0.002593 0.007256 0.000000
0.007256 -0.007082 0.000000
0.000000 0.000000 0.000000
-0.000828 -0.000540 0.000000
-0.000540 -0.016448 0.000000
0.000000 0.000000 0.000000
-0.009070 -0.005145 0.000000
-0.005145 0.004318 0.000000
0.000000 0.000000 0.000000
0.004183 0.005284 0.000000
0.005284 -0.007096 0.000000
0.000000 0.000000 0.000000
0.009383 -0.007367 0.000000
-0.007367 0.026400 0.000000
0.000000 0.000000 0.000000
0.005356 -0.002279 0.000000
-0.002279 0.014053 0.000000
0.000000 0.000000 0.000000
0.009362 -0.027236 0.000000
-0.027236 -0.002159 0.000000
0.000000 0.000000 0.000000
-0.005382 -0.006803 0.000000
-0.006803 -0.016900 0.000000
0.000000 0.000000 0.000000
0.006047 -0.004146 0.000000
-0.004146 0.000515 0.000000
0.000000 0.000000 0.000000
0.018475 0.021816 0.000000
0.021816 0.012827 0.000000
0.000000 0.000000 0.000000
-0.006041 -0.000315 0.000000
-0.000315 -0.001208 0.000000
0.000000 0.000000 0.000000
-0.010008 0.003045 0.000000
0.003045 0.012071 0.000000
0.000000 0.000000 0.000000
-0.008482 -0.002376 0.000000
-0.002376 -0.005566 0.000000
0.000000 0.000000 0.000000
-0.006006 0.005663 0.000000
0.005663 0.003756 0.000000
0.000000 0.000000 0.000000
-0.007575 0.006824 0.000000
0.006824 0.001003 0.000000
0.000000 0.000000 0.000000
-0.003316 0.003920 0.000000
0.003920 -0.012821 0.000000
0.000000 0.000000 0.000000
-0.010917 0.003021 0.000000
0.003021 0.003843 0.000000
0.000000 0.000000 0.000000
0.001551 -0.000180 0.000000
-0.000180 0.002779 0.000000
0.000000 0.000000 0.000000
-0.013678 0.004547 0.000000
0.004547 -0.019366 0.000000
0.000000 0.000000 0.000000
-0.000744 -0.012588 0.000000
-0.012588 0.007347 0.000000
0.000000 0.000000 0.000000
-0.001597 -0.002923 0.000000
-0.002923 -0.012625 0.000000
0.000000 0.000000 0.000000
-0.016054 -0.005071 0.000000
-0.005071 -0.005596 0.000000
0.000000 0.000000 0.000000
-0.001063 -0.009217 0.000000
-0.009217 -0.003032 0.000000
0.000000 0.000000 0.000000
0.004311 -0.002248 0.000000
-0.002248 0.015430 0.000000
0.000000 0.000000 0.000000
0.004899 -0.010756 0.000000
-0.010756 -0.000909 0.000000
0.000000 0.000000 0.000000
0.001998 -0.005755 0.000000
-0.005755 0.011485 0.000000
0.000000 0.000000 0.000000
-0.017190 0.009782 0.000000
0.009782 -0.021812 0.000000
0.000000 0.000000 0.000000
-0.006727 -0.002322 0.000000
-0.002322 0.001922 0.000000
0.000000 0.000000 0.000000
-0.003430 -0.003462 0.000000
-0.003462 -0.011806 0.000000
0.000000 0.000000 0.000000
-0.002856 -0.000521 0.000000
-0.000521 0.014618 0.000000
0.000000 0.000000 0.000000
-0.006318 -0.002929 0.000000
-0.002929 -0.009985 0.000000
0.000000 0.000000 0.000000
0.002115 0.006866 0.000000
0.006866 0.000131 0.000000
0.000000 0.000000 0.000000
0.003667 0.011216 0.000000
0.011216 -0.000381 0.000000
0.000000 0.000000 0.000000
0.000001 0.003923 0.000000
0.003923 -0.003595 0.000000
0.000000 0.000000 0.000000
0.000620 -0.003893 0.000000
-0.003893 0.018709 0.000000
0.000000 0.000000 0.000000
-0.007477 0.005168 0.000000
0.005168 -0.003555 0.000000
0.000000 0.000000 0.000000
-0.006796 0.002551 0.000000
0.002551 0.015222 0.000000
0.000000 0.000000 0.000000
-0.013078 0.007565 0.000000
0.007565 -0.012081 0.000000
0.000000 0.000000 0.000000
0.014817 -0.002206 0.000000
-0.002206 0.012094 0.000000
0.000000 0.000000 0.000000
0.002429 0.006383 0.000000
0.006383 0.005877 0.000000
0.000000 0.000000 0.000000
-0.007439 0.012874 0.000000
0.012874 0.024753 0.000000
0.000000 0.000000 0.000000
0.006094 -0.011689 0.000000
-0.011689 -0.021496 0.000000
0.000000 0.000000 0.000000
0.013980 0.000929 0.000000
0.000929 -0.009979 0.000000
0.000000 0.000000 0.000000
0.009572 -0.003524 0.000000
-0.003524 -0.001928 0.000000
0.000000 0.000000 0.000000
0.000897 0.000151 0.000000
0.000151 -0.012948 0.000000
0.000000 0.000000 0.000000
0.014984 -0.000277 0.000000
-0.000277 -0.005742 0.000000
0.000000 0.000000 0.000000
0.013230 0.000474 0.000000
0.000474 0.008984 0.000000
0.000000 0.000000 0.000000
-0.006704 0.005265 0.000000
0.005265 0.010962 0.000000
0.000000 0.000000 0.000000
0.004883 0.001436 0.000000
0.001436 -0.000434 0.000000
0.000000 0.000000 0.000000
0.002688 0.001135 0.000000
0.001135 0.013454 0.000000
0.000000 0.000000 0.000000
-0.005512 -0.000756 0.000000
-0.000756 -0.013955 0.000000
0.000000 0.000000 0.000000
0.000926 0.002073 0.000000
0.002073 0.004672 0.000000
0.000000 0.000000 0.000000
0.009911 -0.001658 0.000000
-0.001658 0.003761 0.000000
0.000000 0.000000 0.000000
-0.026461 -0.003162 0.000000
-0.003162 -0.002798 0.000000
0.000000 0.000000 0.000000
0.007298 -0.005522 0.000000
-0.005522 0.013871 0.000000
0.000000 0.000000 0.000000
0.005889 -0.005149 0.000000
-0.005149 -0.004480 0.000000
0.000000 0.000000 0.000000
0.008867 -0.005070 0.000000
-0.005070 0.007897 0.000000
0.000000 0.000000 0.000000
0.003712 0.006130 0.000000
0.006130 -0.007987 0.000000
0.000000 0.000000 0.000000
0.001113 -0.008990 0.000000
-0.008990 0.000964 0.000000
0.000000 0.000000 0.000000
-0.003593 -0.000447 0.000000
-0.000447 -0.006032 0.000000
0.000000 0.000000 0.000000
0.001803 0.000810 0.000000
0.000810 0.015469 0.000000
0.000000 0.000000 0.000000
0.005540 0.001290 0.000000
0.001290 -0.001089 0.000000
0.000000 0.000000 0.000000
-0.001936 0.002808 0.000000
0.002808 0.008970 0.000000
0.000000 0.000000 0.000000
-0.011009 -0.000219 0.000000
-0.000219 0.001833 0.000000
0.000000 0.000000 0.000000
-0.001797 0.009356 0.000000
0.009356 0.003867 0.000000
0.000000 0.000000 0.000000
-0.010514 0.015273 0.000000
0.015273 0.003325 0.000000
0.000000 0.000000 0.000000
-0.000088 0.000416 0.000000
0.000416 0.000408 0.000000
0.000000 0.000000 0.000000
0.005491 -0.019154 0.000000
-0.019154 -0.000468 0.000000
0.000000 0.000000 0.000000
-0.006142 -0.002460 0.000000
-0.002460 0.000351 0.000000
0.000000 0.000000 0.000000
-0.009548 -0.005115 0.000000
-0.005115 0.004574 0.000000
0.000000 0.000000 0.000000
-0.002815 -0.007845 0.000000
-0.007845 0.007241 0.000000
0.000000 0.000000 0.000000
-0.011478 0.008725 0.000000
0.008725 0.012713 0.000000
0.000000 0.000000 0.000000
-0.004532 -0.004640 0.000000
-0.004640 0.008989 0.000000
0.000000 0.000000 0.000000
0.005603 0.005581 0.000000
0.005581 -0.006911 0.000000
0.000000 0.000000 0.000000
-0.010075 -0.009942 0.000000
-0.009942 0.009175 0.000000
0.000000 0.000000 0.000000
0.010312 0.013443 0.000000
0.013443 0.005220 0.000000
0.000000 0.000000 0.000000
-0.000074 0.004108 0.000000
0.004108 0.006104 0.000000
0.000000 0.000000 0.000000
-0.004054 -0.006245 0.000000
-0.006245 0.009312 0.000000
0.000000 0.000000 0.000000
0.005418 -0.003775 0.000000
-0.003775 0.000040 0.000000
0.000000 0.000000 0.000000
-0.002464 0.003371 0.000000
0.003371 -0.004176 0.000000
0.000000 0.000000 0.000000
-0.012170 -0.002853 0.000000
-0.002853 -0.029304 0.000000
0.000000 0.000000 0.000000
-0.003768 -0.002379 0.000000
-0.002379 -0.003391 0.000000
0.000000 0.000000 0.000000
-0.006494 0.002040 0.000000
0.002040 -0.007962 0.000000
0.000000 0.000000 0.000000
0.012306 0.002722 0.000000
0.002722 0.007378 0.000000
0.000000 0.000000 0.000000
-0.009207 -0.003389 0.000000
-0.003389 -0.030444 0.000000
0.000000 0.000000 0.000000
-0.008089 0.005491 0.000000
0.005491 -0.004839 0.000000
0.000000 0.000000 0.000000
0.003700 0.005530 0.000000
0.005530 -0.001760 0.000000
0.000000 0.000000 0.000000
0.012772 0.006608 0.000000
0.006608 0.002687 0.000000
0.000000 0.000000 0.000000
0.012167 0.005982 0.000000
0.005982 -0.004756 0.000000
0.000000 0.000000 0.000000
-0.001068 0.004383 0.000000
0.004383 -0.003688 0.000000
0.000000 0.000000 0.000000
0.002752 0.004939 0.000000
0.004939 -0.002135 0.000000
0.000000 0.000000 0.000000
-0.001875 0.002692 0.000000
0.002692 0.006939 0.000000
0.000000 0.000000 0.000000
-0.000456 -0.002500 0.000000
-0.002500 0.007224 0.000000
0.000000 0.000000 0.000000
-0.016094 0.003276 0.000000
0.003276 -0.000787 0.000000
0.000000 0.000000 0.000000
0.019067 -0.007792 0.000000
-0.007792 0.008157 0.000000
0.000000 0.000000 0.000000
0.002014 -0.004429 0.000000
-0.004429 0.017353 0.000000
0.000000 0.000000 0.000000
0.014154 -0.003875 0.000000
-0.003875 0.011149 0.000000
0.000000 0.000000 0.000000
-0.008211 -0.005309 0.000000
-0.005309 0.001883 0.000000
0.000000 0.000000 0.000000
-0.002302 -0.006096 0.000000
-0.006096 -0.003874 0.000000
0.000000 0.000000 0.000000
-0.003067 -0.000244 0.000000
-0.000244 0.000658 0.000000
0.000000 0.000000 0.000000
-0.011996 -0.002176 0.000000
-0.002176 -0.002219 0.000000
0.000000 0.000000 0.000000
-0.017626 0.001811 0.000000
0.001811 -0.000885 0.000000
0.000000 0.000000 0.000000
0.014741 0.000540 0.000000
0.000540 0.013021 0.000000
0.000000 0.000000 0.000000
-0.012070 -0.002822 0.000000
-0.002822 -0.029509 0.000000
0.000000 0.000000 0.000000
0.000532 -0.006922 0.000000
-0.006922 0.001873 0.000000
0.000000 0.000000 0.000000
0.009708 -0.001410 0.000000
-0.001410 0.017769 0.000000
0.000000 0.000000 0.000000
0.007101 -0.003285 0.000000
-0.003285 0.012438 0.000000
0.000000 0.000000 0.000000
0.009319 -0.006916 0.000000
-0.006916 0.007226 0.000000
0.000000 0.000000 0.000000
0.025699 -0.006907 0.000000
-0.006907 0.025665 0.000000
0.000000 0.000000 0.000000
0.001243 -0.000981 0.000000
-0.000981 0.005952 0.000000
0.000000 0.000000 0.000000
-0.018576 0.000292 0.000000
0.000292 -0.002309 0.000000
0.000000 0.000000 0.000000
0.006530 -0.012993 0.000000
-0.012993 -0.007421 0.000000
0.000000 0.000000 0.000000
0.011524 -0.006871 0.000000
-0.006871 -0.001189 0.000000
0.000000 0.000000 0.000000
-0.006512 -0.003935 0.000000
-0.003935 0.003963 0.000000
0.000000 0.000000 0.000000
0.015156 -0.001619 0.000000
-0.001619 0.002516 0.000000
0.000000 0.000000 0.000000
0.010132 -0.008853 0.000000
-0.008853 0.011938 0.000000
0.000000 0.000000 0.000000
0.010814 -0.002701 0.000000
-0.002701 0.008645 0.000000
0.000000 0.000000 0.000000
0.021254 -0.000742 0.000000
-0.000742 -0.007635 0.000000
0.000000 0.000000 0.000000
0.009644 0.002787 0.000000
0.002787 -0.001783 0.000000
0.000000 0.000000 0.000000
0.004335 -0.001088 0.000000
-0.001088 0.009686 0.000000
0.000000 0.000000 0.000000
-0.000712 -0.004258 0.000000
-0.004258 0.000863 0.000000
0.000000 0.000000 0.000000
0.006350 0.016446 0.000000
0.016446 0.000933 0.000000
0.000000 0.000000 0.000000
0.005439 -0.001103 0.000000
-0.001103 -0.010253 0.000000
0.000000 0.000000 0.000000
-0.028739 0.004741 0.000000
0.004741 0.016392 0.000000
0.000000 0.000000 0.000000
-0.011210 0.000809 0.000000
0.000809 -0.011812 0.000000
0.000000 0.000000 0.000000
0.001426 -0.002854 0.000000
-0.002854 -0.014210 0.000000
0.000000 0.000000 0.000000
0.011894 -0.000744 0.000000
-0.000744 -0.010017 0.000000
0.000000 0.000000 0.000000
0.009434 0.014482 0.000000
0.014482 0.012401 0.000000
0.000000 0.000000 0.000000
0.013770 0.001594 0.000000
0.001594 -0.001529 0.000000
0.000000 0.000000 0.000000
0.014542 0.002679 0.000000
0.002679 -0.004780 0.000000
0.000000 0.000000 0.000000
-0.016492 -0.005756 0.000000
-0.005756 0.000088 0.000000
0.000000 0.000000 0.000000
0.014521 0.003442 0.000000
0.003442 -0.021611 0.000000
0.000000 0.000000 0.000000
-0.018464 -0.001598 0.000000
-0.001598 -0.011068 0.000000
0.000000 0.000000 0.000000
0.007131 -0.001504 0.000000
-0.001504 -0.021747 0.000000
0.000000 0.000000 0.000000
-0.005368 0.003578 0.000000
0.003578 -0.027322 0.000000
0.000000 0.000000 0.000000
-0.016391 -0.011021 0.000000
-0.011021 0.005430 0.000000
0.000000 0.000000 0.000000
0.001542 -0.002330 0.000000
-0.002330 0.024448 0.000000
0.000000 0.000000 0.000000
0.011482 0.007426 0.000000
0.007426 0.025803 0.000000
0.000000 0.000000 0.000000
-0.009204 0.007756 0.000000
0.007756 0.007566 0.000000
0.000000 0.000000 0.000000
0.011144 -0.003772 0.000000
-0.003772 -0.010864 0.000000
0.000000 0.000000 0.000000
-0.011774 0.000571 0.000000
0.000571 -0.011949 0.000000
0.000000 0.000000 0.000000
-0.003922 0.002872 0.000000
0.002872 -0.016538 0.000000
0.000000 0.000000 0.000000
0.015332 0.006574 0.000000
0.006574 -0.015319 0.000000
0.000000 0.000000 0.000000
0.005211 0.006055 0.000000
0.006055 -0.015712 0.000000
0.000000 0.000000 0.000000
-0.004814 0.003388 0.000000
0.003388 -0.014905 0.000000
0.000000 0.000000 0.000000
0.009024 0.004516 0.000000
0.004516 -0.001734 0.000000
0.000000 0.000000 0.000000
-0.008952 -0.003564 0.000000
-0.003564 -0.032773 0.000000
0.000000 0.000000 0.000000
-0.006720 0.007027 0.000000
0.007027 0.005814 0.000000
0.000000 0.000000 0.000000
-0.010780 0.004898 0.000000
0.004898 -0.007597 0.000000
0.000000 0.000000 0.000000
0.018324 -0.012868 0.000000
-0.012868 0.021236 0.000000
0.000000 0.000000 0.000000
-0.012605 0.000265 0.000000
0.000265 -0.011583 0.000000
0.000000 0.000000 0.000000
0.015302 0.009667 0.000000
0.009667 -0.012049 0.000000
0.000000 0.000000 0.000000
0.014373 -0.002670 0.000000
-0.002670 0.017371 0.000000
0.000000 0.000000 0.000000
-0.012951 0.000771 0.000000
0.000771 -0.014060 0.000000
0.000000 0.000000 0.000000
0.011424 0.001481 0.000000
0.001481 -0.014601 0.000000
0.000000 0.000000 0.000000
0.002978 0.005942 0.000000
0.005942 -0.002303 0.000000
0.000000 0.000000 0.000000
-0.009182 -0.002628 0.000000
-0.002628 -0.028752 0.000000
0.000000 0.000000 0.000000
0.020369 -0.002164 0.000000
-0.002164 -0.009017 0.000000
0.000000 0.000000 0.000000
-0.002395 -0.000281 0.000000
-0.000281 -0.006471 0.000000
0.000000 0.000000 0.000000
0.008840 0.020568 0.000000
0.020568 -0.003331 0.000000
0.000000 0.000000 0.000000
0.006525 0.001842 0.000000
0.001842 0.013420 0.000000
0.000000 0.000000 0.000000
-0.013875 0.020361 0.000000
0.020361 0.023082 0.000000
0.000000 0.000000 0.000000
-0.014105 0.005731 0.000000
0.005731 -0.006463 0.000000
0.000000 0.000000 0.000000
-0.009970 -0.000759 0.000000
-0.000759 -0.002979 0.000000
0.000000 0.000000 0.000000
0.002844 -0.008574 0.000000
-0.008574 0.001911 0.000000
0.000000 0.000000 0.000000
0.019677 0.004387 0.000000
0.004387 0.010443 0.000000
0.000000 0.000000 0.000000
-0.000108 -0.006620 0.000000
-0.006620 -0.010061 0.000000
0.000000 0.000000 0.000000
-0.009001 -0.011665 0.000000
-0.011665 -0.007390 0.000000
0.000000 0.000000 0.000000
-0.000279 -0.007493 0.000000
-0.007493 -0.005269 0.000000
0.000000 0.000000 0.000000
-0.004826 -0.001219 0.000000
-0.001219 -0.013129 0.000000
0.000000 0.000000 0.000000
0.002635 -0.009364 0.000000
-0.009364 -0.002072 0.000000
0.000000 0.000000 0.000000
-0.011948 0.006214 0.000000
0.006214 -0.037445 0.000000
0.000000 0.000000 0.000000
0.002496 -0.000862 0.000000
-0.000862 0.001534 0.000000
0.000000 0.000000 0.000000
0.002721 -0.008258 0.000000
-0.008258 -0.001460 0.000000
0.000000 0.000000 0.000000
-0.006038 -0.007215 0.000000
-0.007215 -0.010416 0.000000
0.000000 0.000000 0.000000
-0.028385 0.003975 0.000000
0.003975 -0.022597 0.000000
0.000000 0.000000 0.000000
-0.005446 -0.001537 0.000000
-0.001537 -0.001246 0.000000
0.000000 0.000000 0.000000
-0.026976 0.002121 0.000000
0.002121 -0.011247 0.000000
0.000000 0.000000 0.000000
0.000013 0.002888 0.000000
0.002888 -0.012560 0.000000
0.000000 0.000000 0.000000
0.002504 -0.009699 0.000000
-0.009699 0.005132 0.000000
0.000000 0.000000 0.000000
-0.020110 0.001682 0.000000
0.001682 -0.012656 0.000000
0.000000 0.000000 0.000000
0.018367 0.012697 0.000000
0.012697 -0.002333 0.000000
0.000000 0.000000 0.000000
0.000000 0.010770 0.000000
0.010770 -0.007384 0.000000
0.000000 0.000000 0.000000
-0.002005 0.010121 0.000000
0.010121 -0.008168 0.000000
0.000000 0.000000 0.000000
-0.003711 0.003689 0.000000
0.003689 -0.012853 0.000000
0.000000 0.000000 0.000000
-0.002595 -0.000527 0.000000
-0.000527 -0.013083 0.000000
0.000000 0.000000 0.000000
-0.004726 -0.009787 0.000000
-0.009787 -0.015643 0.000000
0.000000 0.000000 0.000000
-0.008364 0.002034 0.000000
0.002034 -0.015977 0.000000
0.000000 0.000000 0.000000
-0.009394 -0.001712 0.000000
-0.001712 0.004328 0.000000
0.000000 0.000000 0.000000
0.004578 0.008449 0.000000
0.008449 -0.017288 0.000000
0.000000 0.000000 0.000000
-0.004260 0.001645 0.000000
0.001645 -0.008976 0.000000
0.000000 0.000000 0.000000
-0.006237 -0.009033 0.000000
-0.009033 0.003484 0.000000
0.000000 0.000000 0.000000
-0.008345 0.001076 0.000000
0.001076 -0.003926 0.000000
0.000000 0.000000 0.000000
0.014227 0.007137 0.000000
0.007137 0.013915 0.000000
0.000000 0.000000 0.000000
-0.002522 0.001020 0.000000
0.001020 -0.002195 0.000000
0.000000 0.000000 0.000000
-0.006271 -0.002850 0.000000
-0.002850 -0.001408 0.000000
0.000000 0.000000 0.000000
0.001954 0.002825 0.000000
0.002825 -0.005825 0.000000
0.000000 0.000000 0.000000
-0.002230 0.001257 0.000000
0.001257 -0.006814 0.000000
0.000000 0.000000 0.000000
-0.021085 -0.000884 0.000000
-0.000884 -0.006692 0.000000
0.000000 0.000000 0.000000
0.013399 -0.001961 0.000000
-0.001961 -0.005026 0.000000
0.000000 0.000000 0.000000
0.008487 0.004235 0.000000
0.004235 0.016097 0.000000
0.000000 0.000000 0.000000
0.012733 0.000835 0.000000
0.000835 0.034982 0.000000
0.000000 0.000000 0.000000
-0.015971 0.008281 0.000000
0.008281 -0.035262 0.000000
0.000000 0.000000 0.000000
-0.004576 0.003266 0.000000
0.003266 -0.006240 0.000000
0.000000 0.000000 0.000000
0.009025 0.002246 0.000000
0.002246 0.020909 0.000000
0.000000 0.000000 0.000000
0.011972 -0.000084 0.000000
-0.000084 -0.006213 0.000000
0.000000 0.000000 0.000000
-0.014012 0.004478 0.000000
0.004478 -0.027917 0.000000
0.000000 0.000000 0.000000
0.000905 -0.007201 0.000000
-0.007201 0.018124 0.000000
0.000000 0.000000 0.000000
-0.003278 -0.003540 0.000000
-0.003540 0.007550 0.000000
0.000000 0.000000 0.000000
-0.001579 -0.003579 0.000000
-0.003579 0.009391 0.000000
0.000000 0.000000 0.000000
-0.007277 -0.004710 0.000000
-0.004710 0.005238 0.000000
0.000000 0.000000 0.000000
-0.000241 -0.002988 0.000000
-0.002988 0.016413 0.000000
0.000000 0.000000 0.000000
0.009752 -0.002142 0.000000
-0.002142 0.008838 0.000000
0.000000 0.000000 0.000000
-0.006754 -0.001852 0.000000
-0.001852 0.006256 0.000000
0.000000 0.000000 0.000000
-0.008553 0.014197 0.000000
0.014197 -0.041723 0.000000
0.000000 0.000000 0.000000
-0.027987 0.020938 0.000000
0.020938 -0.047698 0.000000
0.000000 0.000000 0.000000
0.002737 0.002575 0.000000
0.002575 -0.012293 0.000000
0.000000 0.000000 0.000000
-0.002122 0.000815 0.000000
0.000815 0.004269 0.000000
0.000000 0.000000 0.000000
-0.009758 -0.004070 0.000000
-0.004070 -0.024142 0.000000
0.000000 0.000000 0.000000
-0.004350 -0.000317 0.000000
-0.000317 0.002296 0.000000
0.000000 0.000000 0.000000
0.003099 0.002170 0.000000
0.002170 -0.002903 0.000000
0.000000 0.000000 0.000000
0.005049 -0.001886 0.000000
-0.001886 0.005716 0.000000
0.000000 0.000000 0.000000
-0.002090 0.001030 0.000000
0.001030 0.007348 0.000000
0.000000 0.000000 0.000000
-0.009793 -0.001122 0.000000
-0.001122 0.002522 0.000000
0.000000 0.000000 0.000000
-0.001059 0.004354 0.000000
0.004354 -0.006828 0.000000
0.000000 0.000000 0.000000
0.001210 -0.000908 0.000000
-0.000908 0.005240 0.000000
0.000000 0.000000 0.000000
-0.013273 0.002128 0.000000
0.002128 -0.004924 0.000000
0.000000 0.000000 0.000000
-0.019506 0.008660 0.000000
0.008660 -0.013597 0.000000
0.000000 0.000000 0.000000
0.005805 -0.012687 0.000000
-0.012687 0.004623 0.000000
0.000000 0.000000 0.000000
-0.009502 0.005423 0.000000
0.005423 -0.011807 0.000000
0.000000 0.000000 0.000000
-0.005023 -0.000927 0.000000
-0.000927 -0.012710 0.000000
0.000000 0.000000 0.000000
-0.014976 0.002692 0.000000
0.002692 0.006496 0.000000
0.000000 0.000000 0.000000
0.004263 -0.003146 0.000000
-0.003146 0.005966 0.000000
0.000000 0.000000 0.000000
-0.002714 0.012083 0.000000
0.012083 0.007490 0.000000
0.000000 0.000000 0.000000
0.019322 -0.014357 0.000000
-0.014357 -0.010377 0.000000
0.000000 0.000000 0.000000
0.011856 -0.003275 0.000000
-0.003275 0.008084 0.000000
0.000000 0.000000 0.000000
0.003772 -0.003686 0.000000
-0.003686 0.001978 0.000000
0.000000 0.000000 0.000000
-0.011287 0.006704 0.000000
0.006704 0.002644 0.000000
0.000000 0.000000 0.000000
-0.001952 0.007708 0.000000
0.007708 0.009421 0.000000
0.000000 0.000000 0.000000
0.004639 -0.002295 0.000000
-0.002295 0.002893 0.000000
0.000000 0.000000 0.000000
0.000771 -0.003270 0.000000
-0.003270 0.002349 0.000000
0.000000 0.000000 0.000000
-0.007543 0.006140 0.000000
0.006140 0.008224 0.000000
0.000000 0.000000 0.000000
-0.000519 -0.003941 0.000000
-0.003941 0.016925 0.000000
0.000000 0.000000 0.000000
0.008176 0.000695 0.000000
0.000695 0.008757 0.000000
0.000000 0.000000 0.000000
0.004764 -0.002278 0.000000
-0.002278 0.004549 0.000000
0.000000 0.000000 0.000000
0.011013 -0.004091 0.000000
-0.004091 0.004612 0.000000
0.000000 0.000000 0.000000
-0.013591 -0.004463 0.000000
-0.004463 -0.003190 0.000000
0.000000 0.000000 0.000000
-0.004514 0.001241 0.000000
0.001241 -0.000664 0.000000
0.000000 0.000000 0.000000
0.013398 -0.013518 0.000000
-0.013518 -0.022230 0.000000
0.000000 0.000000 0.000000
0.012990 0.006830 0.000000
0.006830 0.027797 0.000000
0.000000 0.000000 0.000000
0.020540 -0.005272 0.000000
-0.005272 0.003583 0.000000
0.000000 0.000000 0.000000
0.006814 0.013189 0.000000
0.013189 -0.044126 0.000000
0.000000 0.000000 0.000000
-0.057741 -0.006099 0.000000
-0.006099 0.018563 0.000000
0.000000 0.000000 0.000000
0.004903 -0.001775 0.000000
-0.001775 -0.011709 0.000000
0.000000 0.000000 0.000000
0.005248 0.006760 0.000000
0.006760 -0.015561 0.000000
0.000000 0.000000 0.000000
-0.002882 -0.010083 0.000000
-0.010083 0.014280 0.000000
0.000000 0.000000 0.000000
-0.008742 -0.010657 0.000000
-0.010657 0.007768 0.000000
0.000000 0.000000 0.000000
0.012706 -0.000186 0.000000
-0.000186 0.002354 0.000000
0.000000 0.000000 0.000000
-0.004435 -0.004960 0.000000
-0.004960 -0.000037 0.000000
0.000000 0.000000 0.000000
0.002746 0.005985 0.000000
0.005985 -0.001536 0.000000
0.000000 0.000000 0.000000
-0.001075 -0.007998 0.000000
-0.007998 0.004899 0.000000
0.000000 0.000000 0.000000
0.011408 -0.006580 0.000000
-0.006580 0.004693 0.000000
0.000000 0.000000 0.000000
-0.003596 -0.002610 0.000000
-0.002610 -0.008626 0.000000
0.000000 0.000000 0.000000
0.002195 0.009471 0.000000
0.009471 0.000453 0.000000
0.000000 0.000000 0.000000
0.008862 -0.000652 0.000000
-0.000652 0.010414 0.000000
0.000000 0.000000 0.000000
0.007008 -0.000164 0.000000
-0.000164 0.022535 0.000000
0.000000 0.000000 0.000000
0.005710 0.003030 0.000000
0.003030 0.006465 0.000000
0.000000 0.000000 0.000000
0.008287 0.004813 0.000000
0.004813 0.011948 0.000000
0.000000 0.000000 0.000000
0.018170 0.001977 0.000000
0.001977 -0.017176 0.000000
0.000000 0.000000 0.000000
0.000511 -0.018379 0.000000
-0.018379 0.015589 0.000000
0.000000 0.000000 0.000000
0.010088 -0.000497 0.000000
-0.000497 0.024640 0.000000
0.000000 0.000000 0.000000
-0.007276 0.000402 0.000000
0.000402 -0.017541 0.000000
0.000000 0.000000 0.000000
0.001368 -0.009054 0.000000
-0.009054 0.030032 0.000000
0.000000 0.000000 0.000000
0.007078 0.000497 0.000000
0.000497 0.003838 0.000000
0.000000 0.000000 0.000000
-0.002495 -0.005421 0.000000
-0.005421 -0.000038 0.000000
0.000000 0.000000 0.000000
-0.018246 0.007301 0.000000
0.007301 -0.016932 0.000000
0.000000 0.000000 0.000000
0.001950 -0.008649 0.000000
-0.008649 0.009363 0.000000
0.000000 0.000000 0.000000
0.018165 -0.006042 0.000000
-0.006042 0.005071 0.000000
0.000000 0.000000 0.000000
0.012226 0.002438 0.000000
0.002438 0.005805 0.000000
0.000000 0.000000 0.000000
-0.017290 -0.006136 0.000000
-0.006136 -0.023921 0.000000
0.000000 0.000000 0.000000
-0.005285 0.003922 0.000000
0.003922 0.003614 0.000000
0.000000 0.000000 0.000000
-0.007288 0.003096 0.000000
0.003096 0.000018 0.000000
0.000000 0.000000 0.000000
-0.002226 0.004901 0.000000
0.004901 0.005913 0.000000
0.000000 0.000000 0.000000
0.016589 -0.002497 0.000000
-0.002497 0.007964 0.000000
0.000000 0.000000 0.000000
0.012918 -0.001389 0.000000
-0.001389 -0.002184 0.000000
0.000000 0.000000 0.000000
0.002806 0.002957 0.000000
0.002957 -0.008626 0.000000
0.000000 0.000000 0.000000
-0.005534 -0.007597 0.000000
-0.007597 0.016091 0.000000
0.000000 0.000000 0.000000
0.008312 0.005648 0.000000
0.005648 -0.008014 0.000000
0.000000 0.000000 0.000000
0.000162 -0.012253 0.000000
-0.012253 0.015429 0.000000
0.000000 0.000000 0.000000
-0.008011 0.006919 0.000000
0.006919 -0.015740 0.000000
0.000000 0.000000 0.000000
0.002378 0.001468 0.000000
0.001468 -0.005862 0.000000
0.000000 0.000000 0.000000
0.003963 -0.000028 0.000000
-0.000028 0.000997 0.000000
0.000000 0.000000 0.000000
0.018587 -0.003453 0.000000
-0.003453 0.004490 0.000000
0.000000 0.000000 0.000000
-0.004893 -0.001825 0.000000
-0.001825 -0.015071 0.000000
0.000000 0.000000 0.000000
-0.009562 0.011071 0.000000
0.011071 0.001618 0.000000
0.000000 0.000000 0.000000
0.000310 -0.012070 0.000000
-0.012070 -0.009993 0.000000
0.000000 0.000000 0.000000
-0.004274 -0.020517 0.000000
-0.020517 -0.011886 0.000000
0.000000 0.000000 0.000000
-0.011486 0.005288 0.000000
0.005288 0.010019 0.000000
0.000000 0.000000 0.000000
-0.002957 -0.017573 0.000000
-0.017573 -0.016477 0.000000
0.000000 0.000000 0.000000
-0.009504 0.004894 0.000000
0.004894 0.010706 0.000000
0.000000 0.000000 0.000000
0.002220 0.002270 0.000000
0.002270 0.014093 0.000000
0.000000 0.000000 0.000000
0.008529 -0.002893 0.000000
-0.002893 0.005059 0.000000
0.000000 0.000000 0.000000
0.007842 0.013060 0.000000
0.013060 -0.015515 0.000000
0.000000 0.000000 0.000000
0.008191 0.000457 0.000000
0.000457 0.012708 0.000000
0.000000 0.000000 0.000000
-0.017314 0.008176 0.000000
0.008176 -0.021764 0.000000
0.000000 0.000000 0.000000
0.006419 0.000209 0.000000
0.000209 -0.010626 0.000000
0.000000 0.000000 0.000000
0.004599 0.001952 0.000000
0.001952 -0.008518 0.000000
0.000000 0.000000 0.000000
-0.005750 0.001967 0.000000
0.001967 -0.009137 0.000000
0.000000 0.000000 0.000000
-0.014269 0.010454 0.000000
0.010454 -0.022013 0.000000
0.000000 0.000000 0.000000
0.002404 -0.004496 0.000000
-0.004496 0.005282 0.000000
0.000000 0.000000 0.000000
-0.004691 0.004127 0.000000
0.004127 -0.001632 0.000000
0.000000 0.000000 0.000000
0.001008 0.001515 0.000000
0.001515 0.010342 0.000000
0.000000 0.000000 0.000000
0.006144 -0.000117 0.000000
-0.000117 0.004641 0.000000
0.000000 0.000000 0.000000
0.012521 0.001436 0.000000
0.001436 0.005734 0.000000
0.000000 0.000000 0.000000
-0.003388 0.013796 0.000000
0.013796 0.024171 0.000000
0.000000 0.000000 0.000000
0.010509 -0.012709 0.000000
-0.012709 0.026521 0.000000
0.000000 0.000000 0.000000
-0.002745 -0.006326 0.000000
-0.006326 -0.002269 0.000000
0.000000 0.000000 0.000000
-0.005549 0.005865 0.000000
0.005865 0.035678 0.000000
0.000000 0.000000 0.000000
-0.005372 0.006970 0.000000
0.006970 0.001776 0.000000
0.000000 0.000000 0.000000
0.024953 0.009973 0.000000
0.009973 -0.006016 0.000000
0.000000 0.000000 0.000000
-0.006408 0.005861 0.000000
0.005861 -0.001216 0.000000
0.000000 0.000000 0.000000
-0.004647 0.005376 0.000000
0.005376 0.000169 0.000000
0.000000 0.000000 0.000000
0.009141 -0.007201 0.000000
-0.007201 -0.002413 0.000000
0.000000 0.000000 0.000000
0.016785 0.000381 0.000000
0.000381 0.009454 0.000000
0.000000 0.000000 0.000000
-0.002374 -0.004540 0.000000
-0.004540 -0.006940 0.000000
0.000000 0.000000 0.000000
0.026056 0.009698 0.000000
0.009698 0.022110 0.000000
0.000000 0.000000 0.000000
0.005583 -0.004349 0.000000
-0.004349 -0.009662 0.000000
0.000000 0.000000 0.000000
-0.008311 0.002111 0.000000
0.002111 -0.005498 0.000000
0.000000 0.000000 0.000000
0.010438 0.000729 0.000000
0.000729 -0.010405 0.000000
0.000000 0.000000 0.000000
0.004068 0.000402 0.000000
0.000402 0.000870 0.000000
0.000000 0.000000 0.000000
0.004539 0.001211 0.000000
0.001211 -0.003227 0.000000
0.000000 0.000000 0.000000
0.002237 0.000776 0.000000
0.000776 0.001929 0.000000
0.000000 0.000000 0.000000
0.002776 0.000630 0.000000
0.000630 0.004867 0.000000
0.000000 0.000000 0.000000
0.001531 0.002909 0.000000
0.002909 0.010076 0.000000
0.000000 0.000000 0.000000
-0.005829 -0.009930 0.000000
-0.009930 0.007208 0.000000
0.000000 0.000000 0.000000
0.001233 0.006631 0.000000
0.006631 -0.004505 0.000000
0.000000 0.000000 0.000000
-0.000224 -0.013187 0.000000
-0.013187 -0.001002 0.000000
0.000000 0.000000 0.000000
0.001435 -0.009209 0.000000
-0.009209 -0.005643 0.000000
0.000000 0.000000 0.000000
-0.003555 -0.008103 0.000000
-0.008103 -0.004920 0.000000
0.000000 0.000000 0.000000
0.010676 -0.006812 0.000000
-0.006812 -0.000658 0.000000
0.000000 0.000000 0.000000
0.001241 -0.000061 0.000000
-0.000061 0.005683 0.000000
0.000000 0.000000 0.000000
0.006666 -0.001366 0.000000
-0.001366 0.013573 0.000000
0.000000 0.000000 0.000000
0.005949 -0.003309 0.000000
-0.003309 -0.009581 0.000000
0.000000 0.000000 0.000000
-0.007726 -0.000391 0.000000
-0.000391 -0.004221 0.000000
0.000000 0.000000 0.000000
0.001719 -0.004064 0.000000
-0.004064 0.000075 0.000000
0.000000 0.000000 0.000000
-0.012846 -0.016303 0.000000
-0.016303 0.008143 0.000000
0.000000 0.000000 0.000000
0.011114 -0.000680 0.000000
-0.000680 0.027546 0.000000
0.000000 0.000000 0.000000
-0.009007 -0.003406 0.000000
-0.003406 0.009566 0.000000
0.000000 0.000000 0.000000
0.006968 -0.001858 0.000000
-0.001858 0.030278 0.000000
0.000000 0.000000 0.000000
-0.002714 0.005459 0.000000
0.005459 -0.000421 0.000000
0.000000 0.000000 0.000000
0.001464 -0.001061 0.000000
-0.001061 -0.015834 0.000000
0.000000 0.000000 0.000000
0.006830 0.007904 0.000000
0.007904 -0.019846 0.000000
0.000000 0.000000 0.000000
-0.002265 0.000111 0.000000
0.000111 -0.013127 0.000000
0.000000 0.000000 0.000000
0.008508 0.004250 0.000000
0.004250 -0.008292 0.000000
0.000000 0.000000 0.000000
-0.008958 0.001515 0.000000
0.001515 -0.000148 0.000000
0.000000 0.000000 0.000000
-0.016711 0.000735 0.000000
0.000735 -0.006566 0.000000
0.000000 0.000000 0.000000
0.012534 -0.003795 0.000000
-0.003795 -0.018915 0.000000
0.000000 0.000000 0.000000
0.008607 0.001654 0.000000
0.001654 0.000608 0.000000
0.000000 0.000000 0.000000
0.009684 -0.001177 0.000000
-0.001177 -0.008547 0.000000
0.000000 0.000000 0.000000
0.005266 -0.000501 0.000000
-0.000501 0.001886 0.000000
0.000000 0.000000 0.000000
0.005589 0.001227 0.000000
0.001227 -0.009351 0.000000
0.000000 0.000000 0.000000
-0.003812 0.003986 0.000000
0.003986 0.005740 0.000000
0.000000 0.000000 0.000000
0.001231 0.000529 0.000000
0.000529 0.004131 0.000000
0.000000 0.000000 0.000000
0.008002 -0.002796 0.000000
-0.002796 0.016612 0.000000
0.000000 0.000000 0.000000
-0.004156 0.002295 0.000000
0.002295 -0.015489 0.000000
0.000000 0.000000 0.000000
-0.006286 -0.001568 0.000000
-0.001568 -0.019742 0.000000
0.000000 0.000000 0.000000
-0.005315 -0.002451 0.000000
-0.002451 -0.003612 0.000000
0.000000 0.000000 0.000000
0.003587 -0.002222 0.000000
-0.002222 -0.007807 0.000000
0.000000 0.000000 0.000000
-0.001443 -0.002454 0.000000
-0.002454 -0.013659 0.000000
0.000000 0.000000 0.000000
0.007489 -0.003064 0.000000
-0.003064 -0.006348 0.000000
0.000000 0.000000 0.000000
-0.001067 -0.008947 0.000000
-0.008947 -0.003114 0.000000
0.000000 0.000000 0.000000
-0.026316 0.011452 0.000000
0.011452 0.006485 0.000000
0.000000 0.000000 0.000000
-0.014329 -0.005205 0.000000
-0.005205 -0.025417 0.000000
0.000000 0.000000 0.000000
0.003360 -0.000613 0.000000
-0.000613 -0.003253 0.000000
0.000000 0.000000 0.000000
-0.007808 -0.003126 0.000000
-0.003126 -0.014912 0.000000
0.000000 0.000000 0.000000
0.023220 0.002985 0.000000
0.002985 -0.001457 0.000000
0.000000 0.000000 0.000000
-0.013768 0.000009 0.000000
0.000009 -0.020605 0.000000
0.000000 0.000000 0.000000
0.000320 -0.005956 0.000000
-0.005956 0.000433 0.000000
0.000000 0.000000 0.000000
-0.005199 -0.006520 0.000000
-0.006520 0.002078 0.000000
0.000000 0.000000 0.000000
-0.003150 0.002946 0.000000
0.002946 0.010853 0.000000
0.000000 0.000000 0.000000
0.018941 0.001579 0.000000
0.001579 0.003458 0.000000
0.000000 0.000000 0.000000
-0.014886 0.000348 0.000000
0.000348 -0.012203 0.000000
0.000000 0.000000 0.000000
-0.006635 0.001718 0.000000
0.001718 0.001882 0.000000
0.000000 0.000000 0.000000
-0.026251 0.003909 0.000000
0.003909 -0.007900 0.000000
0.000000 0.000000 0.000000
-0.008283 0.002395 0.000000
0.002395 0.002060 0.000000
0.000000 0.000000 0.000000
0.002816 -0.002146 0.000000
-0.002146 0.013883 0.000000
0.000000 0.000000 0.000000
-0.007200 0.002233 0.000000
0.002233 -0.000116 0.000000
0.000000 0.000000 0.000000
-0.020989 -0.000003 0.000000
-0.000003 0.007064 0.000000
0.000000 0.000000 0.000000
-0.009301 0.004410 0.000000
0.004410 -0.003473 0.000000
0.000000 0.000000 0.000000
0.001095 -0.003013 0.000000
-0.003013 0.012682 0.000000
0.000000 0.000000 0.000000
-0.002037 0.007043 0.000000
0.007043 -0.002359 0.000000
0.000000 0.000000 0.000000
-0.004689 -0.002067 0.000000
-0.002067 0.019016 0.000000
0.000000 0.000000 0.000000
0.000351 -0.002127 0.000000
-0.002127 -0.003273 0.000000
0.000000 0.000000 0.000000
-0.010971 -0.000997 0.000000
-0.000997 -0.003866 0.000000
0.000000 0.000000 0.000000
-0.002280 0.013330 0.000000
0.013330 0.002131 0.000000
0.000000 0.000000 0.000000
-0.008021 0.008644 0.000000
0.008644 -0.015535 0.000000
0.000000 0.000000 0.000000
-0.001298 -0.004031 0.000000
-0.004031 -0.006236 0.000000
0.000000 0.000000 0.000000
0.008749 -0.007821 0.000000
-0.007821 0.003339 0.000000
0.000000 0.000000 0.000000
0.008375 -0.001604 0.000000
-0.001604 -0.014844 0.000000
0.000000 0.000000 0.000000
-0.013096 0.000044 0.000000
0.000044 -0.009592 0.000000
0.000000 0.000000 0.000000
-0.016063 -0.006548 0.000000
-0.006548 -0.003438 0.000000
0.000000 0.000000 0.000000
-0.003122 -0.023573 0.000000
-0.023573 -0.008274 0.000000
0.000000 0.000000 0.000000
0.003708 -0.010827 0.000000
-0.010827 0.028180 0.000000
0.000000 0.000000 0.000000
0.001951 -0.021993 0.000000
-0.021993 0.014490 0.000000
0.000000 0.000000 0.000000
0.020042 -0.007028 0.000000
-0.007028 0.015410 0.000000
0.000000 0.000000 0.000000
-0.021672 -0.019004 0.000000
-0.019004 -0.005238 0.000000
0.000000 0.000000 0.000000
-0.002364 -0.000906 0.000000
-0.000906 -0.004017 0.000000
0.000000 0.000000 0.000000
0.003925 0.004012 0.000000
0.004012 -0.008180 0.000000
0.000000 0.000000 0.000000
-0.004004 0.004078 0.000000
0.004078 -0.004633 0.000000
0.000000 0.000000 0.000000
0.002367 -0.012648 0.000000
-0.012648 -0.005684 0.000000
0.000000 0.000000 0.000000
-0.008727 -0.005087 0.000000
-0.005087 -0.000125 0.000000
0.000000 0.000000 0.000000
0.002199 0.005327 0.000000
0.005327 -0.005792 0.000000
0.000000 0.000000 0.000000
0.009871 0.006197 0.000000
0.006197 0.023869 0.000000
0.000000 0.000000 0.000000
0.009099 -0.007160 0.000000
-0.007160 0.021594 0.000000
0.000000 0.000000 0.000000
0.004251 0.003685 0.000000
0.003685 0.000784 0.000000
0.000000 0.000000 0.000000
0.012820 -0.001528 0.000000
-0.001528 0.019623 0.000000
0.000000 0.000000 0.000000
0.013387 0.001033 0.000000
0.001033 -0.005364 0.000000
0.000000 0.000000 0.000000
0.010749 0.010087 0.000000
0.010087 -0.028090 0.000000
0.000000 0.000000 0.000000
0.001992 -0.004730 0.000000
-0.004730 -0.012515 0.000000
0.000000 0.000000 0.000000
0.001779 0.005515 0.000000
0.005515 0.001105 0.000000
0.000000 0.000000 0.000000
0.013283 -0.005008 0.000000
-0.005008 -0.005669 0.000000
0.000000 0.000000 0.000000
-0.005212 0.001301 0.000000
0.001301 -0.005648 0.000000
0.000000 0.000000 0.000000
0.006345 -0.001799 0.000000
-0.001799 -0.000979 0.000000
0.000000 0.000000 0.000000
0.008272 -0.005498 0.000000
-0.005498 -0.006806 0.000000
0.000000 0.000000 0.000000
0.002043 -0.002645 0.000000
-0.002645 0.008375 0.000000
0.000000 0.000000 0.000000
0.024570 -0.018794 0.000000
-0.018794 0.009439 0.000000
0.000000 0.000000 0.000000
-0.000702 -0.000039 0.000000
-0.000039 -0.007415 0.000000
0.000000 0.000000 0.000000
-0.002017 -0.000575 0.000000
-0.000575 -0.007104 0.000000
0.000000 0.000000 0.000000
0.008328 -0.008356 0.000000
-0.008356 -0.013858 0.000000
0.000000 0.000000 0.000000
0.001457 -0.002928 0.000000
-0.002928 0.007895 0.000000
0.000000 0.000000 0.000000
0.013994 0.003016 0.000000
0.003016 -0.000353 0.000000
0.000000 0.000000 0.000000
-0.004121 0.010070 0.000000
0.010070 0.006635 0.000000
0.000000 0.000000 0.000000
0.003889 0.000077 0.000000
0.000077 -0.011249 0.000000
0.000000 0.000000 0.000000
0.014235 -0.002783 0.000000
-0.002783 -0.004652 0.000000
0.000000 0.000000 0.000000
0.011635 -0.004248 0.000000
-0.004248 -0.009372 0.000000
0.000000 0.000000 0.000000
0.001613 0.000903 0.000000
0.000903 0.012312 0.000000
0.000000 0.000000 0.000000
0.008696 0.001231 0.000000
0.001231 0.014381 0.000000
0.000000 0.000000 0.000000
-0.034560 0.013226 0.000000
0.013226 0.014034 0.000000
0.000000 0.000000 0.000000
-0.004992 -0.004728 0.000000
-0.004728 0.009226 0.000000
0.000000 0.000000 0.000000
0.010808 -0.005509 0.000000
-0.005509 -0.005505 0.000000
0.000000 0.000000 0.000000
-0.004060 0.001660 0.000000
0.001660 0.006583 0.000000
0.000000 0.000000 0.000000
-0.008432 0.009775 0.000000
0.009775 -0.014799 0.000000
0.000000 0.000000 0.000000
0.003809 -0.000368 0.000000
-0.000368 0.014837 0.000000
0.000000 0.000000 0.000000
-0.002290 -0.003857 0.000000
-0.003857 -0.003453 0.000000
0.000000 0.000000 0.000000
-0.001772 0.005657 0.000000
0.005657 -0.010509 0.000000
0.000000 0.000000 0.000000
-0.015632 0.002555 0.000000
0.002555 -0.018707 0.000000
0.000000 0.000000 0.000000
0.004599 -0.001323 0.000000
-0.001323 0.001706 0.000000
0.000000 0.000000 0.000000
0.003107 -0.020079 0.000000
-0.020079 0.010621 0.000000
0.000000 0.000000 0.000000
-0.010274 0.007933 0.000000
0.007933 -0.019777 0.000000
0.000000 0.000000 0.000000
-0.006868 -0.008288 0.000000
-0.008288 -0.019057 0.000000
0.000000 0.000000 0.000000
-0.011608 0.002666 0.000000
0.002666 -0.019775 0.000000
0.000000 0.000000 0.000000
-0.015216 -0.003510 0.000000
-0.003510 0.007907 0.000000
0.000000 0.000000 0.000000
0.010632 0.003388 0.000000
0.003388 -0.000124 0.000000
0.000000 0.000000 0.000000
0.019223 -0.002575 0.000000
-0.002575 0.007493 0.000000
0.000000 0.000000 0.000000
0.001338 -0.004162 0.000000
-0.004162 -0.010263 0.000000
0.000000 0.000000 0.000000
-0.003465 0.001773 0.000000
0.001773 0.008808 0.000000
0.000000 0.000000 0.000000
0.006917 0.000513 0.000000
0.000513 0.022762 0.000000
0.000000 0.000000 0.000000
0.007398 -0.000927 0.000000
-0.000927 0.022752 0.000000
0.000000 0.000000 0.000000
0.023945 0.001642 0.000000
0.001642 0.021529 0.000000
0.000000 0.000000 0.000000
0.001775 -0.004587 0.000000
-0.004587 -0.004905 0.000000
0.000000 0.000000 0.000000
0.004969 0.002793 0.000000
0.002793 0.000199 0.000000
0.000000 0.000000 0.000000
0.001208 -0.002071 0.000000
-0.002071 0.009933 0.000000
0.000000 0.000000 0.000000
-0.009090 -0.012799 0.000000
-0.012799 0.004201 0.000000
0.000000 0.000000 0.000000
-0.005129 0.002648 0.000000
0.002648 -0.005864 0.000000
0.000000 0.000000 0.000000
-0.007825 -0.051153 0.000000
-0.051153 0.013670 0.000000
0.000000 0.000000 0.000000
-0.010348 -0.012183 0.000000
-0.012183 -0.007500 0.000000
0.000000 0.000000 0.000000
0.003616 -0.001454 0.000000
-0.001454 0.009871 0.000000
0.000000 0.000000 0.000000
0.009121 0.007103 0.000000
0.007103 0.015679 0.000000
0.000000 0.000000 0.000000
0.001630 0.011421 0.000000
0.011421 0.007588 0.000000
0.000000 0.000000 0.000000
0.011431 0.012940 0.000000
0.012940 0.021465 0.000000
0.000000 0.000000 0.000000
0.000516 -0.000576 0.000000
-0.000576 0.008535 0.000000
0.000000 0.000000 0.000000
-0.001758 0.000054 0.000000
0.000054 -0.017880 0.000000
0.000000 0.000000 0.000000
0.000636 -0.007003 0.000000
-0.007003 -0.000637 0.000000
0.000000 0.000000 0.000000
0.003733 -0.003319 0.000000
-0.003319 0.015178 0.000000
0.000000 0.000000 0.000000
0.003210 0.017366 0.000000
0.017366 0.011714 0.000000
0.000000 0.000000 0.000000
-0.008700 0.001054 0.000000
0.001054 -0.023871 0.000000
0.000000 0.000000 0.000000
-0.000279 -0.001092 0.000000
-0.001092 0.008546 0.000000
0.000000 0.000000 0.000000
0.002462 -0.001219 0.000000
-0.001219 0.010044 0.000000
0.000000 0.000000 0.000000
0.009876 0.007042 0.000000
0.007042 -0.010980 0.000000
0.000000 0.000000 0.000000
-0.000213 0.002376 0.000000
0.002376 0.008847 0.000000
0.000000 0.000000 0.000000
0.033437 0.005798 0.000000
0.005798 -0.007456 0.000000
0.000000 0.000000 0.000000
0.006444 0.007959 0.000000
0.007959 -0.022243 0.000000
0.000000 0.000000 0.000000
0.012393 -0.009456 0.000000
-0.009456 -0.004722 0.000000
0.000000 0.000000 0.000000
-0.006436 0.000762 0.000000
0.000762 0.002222 0.000000
0.000000 0.000000 0.000000
-0.001376 -0.000826 0.000000
-0.000826 0.004471 0.000000
0.000000 0.000000 0.000000
-0.001725 -0.001813 0.000000
-0.001813 0.005484 0.000000
0.000000 0.000000 0.000000
0.007023 -0.001899 0.000000
-0.001899 0.033861 0.000000
0.000000 0.000000 0.000000
0.016376 0.003162 0.000000
0.003162 0.008705 0.000000
0.000000 0.000000 0.000000
0.004975 -0.002010 0.000000
-0.002010 0.025334 0.000000
0.000000 0.000000 0.000000
0.008929 0.000616 0.000000
0.000616 0.026768 0.000000
0.000000 0.000000 0.000000
-0.003345 -0.001289 0.000000
-0.001289 -0.002353 0.000000
0.000000 0.000000 0.000000
-0.001096 0.001837 0.000000
0.001837 0.008168 0.000000
0.000000 0.000000 0.000000
0.009340 -0.000410 0.000000
-0.000410 0.001011 0.000000
0.000000 0.000000 0.000000
0.012262 0.005640 0.000000
0.005640 -0.000544 0.000000
0.000000 0.000000 0.000000
0.013012 0.007742 0.000000
0.007742 0.036562 0.000000
0.000000 0.000000 0.000000
0.003210 0.007542 0.000000
0.007542 0.014153 0.000000
0.000000 0.000000 0.000000
0.010195 0.007208 0.000000
0.007208 -0.000415 0.000000
0.000000 0.000000 0.000000
-0.011565 -0.010254 0.000000
-0.010254 -0.023802 0.000000
0.000000 0.000000 0.000000
0.003822 -0.001018 0.000000
-0.001018 -0.003854 0.000000
0.000000 0.000000 0.000000
0.006959 0.003383 0.000000
0.003383 0.006996 0.000000
0.000000 0.000000 0.000000
0.002992 0.000937 0.000000
0.000937 0.001432 0.000000
0.000000 0.000000 0.000000
-0.001518 0.000941 0.000000
0.000941 0.015273 0.000000
0.000000 0.000000 0.000000
-0.011772 0.012902 0.000000
0.012902 -0.028599 0.000000
0.000000 0.000000 0.000000
-0.010296 -0.004038 0.000000
-0.004038 0.008376 0.000000
0.000000 0.000000 0.000000
0.010916 0.005083 0.000000
0.005083 0.003916 0.000000
0.000000 0.000000 0.000000
0.003537 -0.000263 0.000000
-0.000263 0.002737 0.000000
0.000000 0.000000 0.000000
-0.003526 -0.014789 0.000000
-0.014789 -0.007658 0.000000
0.000000 0.000000 0.000000
-0.006063 -0.004392 0.000000
-0.004392 -0.012643 0.000000
0.000000 0.000000 0.000000
-0.015425 -0.000548 0.000000
-0.000548 -0.035594 0.000000
0.000000 0.000000 0.000000
0.016393 0.007615 0.000000
0.007615 0.011039 0.000000
0.000000 0.000000 0.000000
0.012640 0.001359 0.000000
0.001359 -0.005232 0.000000
0.000000 0.000000 0.000000
0.009855 0.009022 0.000000
0.009022 0.009290 0.000000
0.000000 0.000000 0.000000
-0.016241 -0.008779 0.000000
-0.008779 0.018753 0.000000
0.000000 0.000000 0.000000
0.007886 -0.001247 0.000000
-0.001247 -0.009567 0.000000
0.000000 0.000000 0.000000
-0.009588 -0.009284 0.000000
-0.009284 0.005440 0.000000
0.000000 0.000000 0.000000
-0.003839 0.010520 0.000000
0.010520 -0.014722 0.000000
0.000000 0.000000 0.000000
0.016166 -0.001853 0.000000
-0.001853 -0.021431 0.000000
0.000000 0.000000 0.000000
0.005749 0.001241 0.000000
0.001241 0.010539 0.000000
0.000000 0.000000 0.000000
-0.010811 -0.011530 0.000000
-0.011530 -0.007121 0.000000
0.000000 0.000000 0.000000
0.004357 0.004441 0.000000
0.004441 -0.000220 0.000000
0.000000 0.000000 0.000000
-0.005987 0.001694 0.000000
0.001694 -0.018220 0.000000
0.000000 0.000000 0.000000
-0.007651 0.001290 0.000000
0.001290 -0.032618 0.000000
0.000000 0.000000 0.000000
0.002722 0.001004 0.000000
0.001004 -0.001728 0.000000
0.000000 0.000000 0.000000
-0.011996 0.006341 0.000000
0.006341 0.020922 0.000000
0.000000 0.000000 0.000000
-0.013944 0.007479 0.000000
0.007479 -0.011535 0.000000
0.000000 0.000000 0.000000
-0.009528 0.006672 0.000000
0.006672 0.011403 0.000000
0.000000 0.000000 0.000000
0.005159 -0.005397 0.000000
-0.005397 -0.003510 0.000000
0.000000 0.000000 0.000000
0.007980 -0.001008 0.000000
-0.001008 -0.013185 0.000000
0.000000 0.000000 0.000000
0.005182 0.004566 0.000000
0.004566 -0.001228 0.000000
0.000000 0.000000 0.000000
0.012766 -0.002693 0.000000
-0.002693 0.028386 0.000000
0.000000 0.000000 0.000000
-0.000385 -0.003556 0.000000
-0.003556 -0.003097 0.000000
0.000000 0.000000 0.000000
0.004480 0.004097 0.000000
0.004097 0.002250 0.000000
0.000000 0.000000 0.000000
-0.003686 -0.000637 0.000000
-0.000637 0.000674 0.000000
0.000000 0.000000 0.000000
-0.000561 -0.000873 0.000000
-0.000873 0.000033 0.000000
0.000000 0.000000 0.000000
0.000925 0.000029 0.000000
0.000029 0.008639 0.000000
0.000000 0.000000 0.000000
0.002334 0.001923 0.000000
0.001923 0.001758 0.000000
0.000000 0.000000 0.000000
0.000744 0.001213 0.000000
0.001213 0.001858 0.000000
0.000000 0.000000 0.000000
-0.005959 -0.020090 0.000000
-0.020090 -0.013668 0.000000
0.000000 0.000000 0.000000
-0.006265 0.005135 0.000000
0.005135 0.003635 0.000000
0.000000 0.000000 0.000000
0.004211 -0.000884 0.000000
-0.000884 0.016112 0.000000
0.000000 0.000000 0.000000
-0.002646 -0.000298 0.000000
-0.000298 0.001980 0.000000
0.000000 0.000000 0.000000
0.000134 0.000243 0.000000
0.000243 0.002198 0.000000
0.000000 0.000000 0.000000
-0.000449 -0.002127 0.000000
-0.002127 -0.000615 0.000000
0.000000 0.000000 0.000000
-0.000205 -0.002013 0.000000
-0.002013 -0.001752 0.000000
0.000000 0.000000 0.000000
-0.005701 0.009107 0.000000
0.009107 -0.005783 0.000000
0.000000 0.000000 0.000000
0.003912 0.004951 0.000000
0.004951 -0.003080 0.000000
0.000000 0.000000 0.000000
0.011562 0.002586 0.000000
0.002586 -0.000012 0.000000
0.000000 0.000000 0.000000
-0.011518 0.002240 0.000000
0.002240 0.016132 0.000000
0.000000 0.000000 0.000000
-0.002189 0.006734 0.000000
0.006734 0.011930 0.000000
0.000000 0.000000 0.000000
-0.010636 0.006875 0.000000
0.006875 0.010511 0.000000
0.000000 0.000000 0.000000
-0.002200 0.004610 0.000000
0.004610 -0.010119 0.000000
0.000000 0.000000 0.000000
0.000432 -0.006693 0.000000
-0.006693 0.007421 0.000000
0.000000 0.000000 0.000000
-0.012919 0.006307 0.000000
0.006307 -0.005319 0.000000
0.000000 0.000000 0.000000
-0.003945 -0.000831 0.000000
-0.000831 -0.009344 0.000000
0.000000 0.000000 0.000000
-0.031640 0.019283 0.000000
0.019283 -0.013346 0.000000
0.000000 0.000000 0.000000
-0.001725 0.001040 0.000000
0.001040 0.003558 0.000000
0.000000 0.000000 0.000000
-0.013329 0.005120 0.000000
0.005120 0.000466 0.000000
0.000000 0.000000 0.000000
-0.022121 0.008874 0.000000
0.008874 0.001781 0.000000
0.000000 0.000000 0.000000
0.000935 0.000716 0.000000
0.000716 0.000847 0.000000
0.000000 0.000000 0.000000
-0.000353 -0.006542 0.000000
-0.006542 0.008348 0.000000
0.000000 0.000000 0.000000
-0.001010 -0.001099 0.000000
-0.001099 -0.008388 0.000000
0.000000 0.000000 0.000000
0.002506 0.002296 0.000000
0.002296 0.000543 0.000000
0.000000 0.000000 0.000000
0.005010 0.009537 0.000000
0.009537 -0.001024 0.000000
0.000000 0.000000 0.000000
-0.010064 -0.000090 0.000000
-0.000090 0.012680 0.000000
0.000000 0.000000 0.000000
0.008459 0.000202 0.000000
0.000202 0.005986 0.000000
0.000000 0.000000 0.000000
0.001408 0.005331 0.000000
0.005331 -0.003270 0.000000
0.000000 0.000000 0.000000
0.001262 0.005822 0.000000
0.005822 0.003763 0.000000
0.000000 0.000000 0.000000
-0.035844 -0.003843 0.000000
-0.003843 0.012269 0.000000
0.000000 0.000000 0.000000
-0.010982 -0.002407 0.000000
-0.002407 -0.018178 0.000000
0.000000 0.000000 0.000000
0.005100 -0.002330 0.000000
-0.002330 -0.012030 0.000000
0.000000 0.000000 0.000000
-0.001866 -0.003012 0.000000
-0.003012 -0.018890 0.000000
0.000000 0.000000 0.000000
0.002846 0.004214 0.000000
0.004214 0.007212 0.000000
0.000000 0.000000 0.000000
0.000661 0.005763 0.000000
0.005763 0.001496 0.000000
0.000000 0.000000 0.000000
0.006570 0.005202 0.000000
0.005202 0.017283 0.000000
0.000000 0.000000 0.000000
-0.000084 -0.002579 0.000000
-0.002579 0.010665 0.000000
0.000000 0.000000 0.000000
-0.004775 -0.000241 0.000000
-0.000241 -0.012755 0.000000
0.000000 0.000000 0.000000
-0.008001 0.006438 0.000000
0.006438 0.005502 0.000000
0.000000 0.000000 0.000000
0.013304 0.000209 0.000000
0.000209 0.004822 0.000000
0.000000 0.000000 0.000000
0.000042 0.004912 0.000000
0.004912 -0.003958 0.000000
0.000000 0.000000 0.000000
-0.008373 -0.004913 0.000000
-0.004913 -0.001185 0.000000
0.000000 0.000000 0.000000
-0.009065 0.010258 0.000000
0.010258 0.000023 0.000000
0.000000 0.000000 0.000000
-0.015693 0.028460 0.000000
0.028460 0.002447 0.000000
0.000000 0.000000 0.000000
0.006456 -0.040219 0.000000
-0.040219 0.016962 0.000000
0.000000 0.000000 0.000000
0.001494 -0.032452 0.000000
-0.032452 0.022294 0.000000
0.000000 0.000000 0.000000
0.001266 -0.007499 0.000000
-0.007499 -0.007496 0.000000
0.000000 0.000000 0.000000
0.005981 -0.009766 0.000000
-0.009766 0.006100 0.000000
0.000000 0.000000 0.000000
-0.011527 -0.001614 0.000000
-0.001614 0.029014 0.000000
0.000000 0.000000 0.000000
0.005221 -0.011625 0.000000
-0.011625 0.003387 0.000000
0.000000 0.000000 0.000000
0.014568 0.003453 0.000000
0.003453 -0.005978 0.000000
0.000000 0.000000 0.000000
-0.014075 -0.000636 0.000000
-0.000636 0.005107 0.000000
0.000000 0.000000 0.000000
-0.007472 0.005799 0.000000
0.005799 -0.009911 0.000000
0.000000 0.000000 0.000000
-0.009092 0.000260 0.000000
0.000260 -0.033309 0.000000
0.000000 0.000000 0.000000
-0.010158 -0.000371 0.000000
-0.000371 -0.033978 0.000000
0.000000 0.000000 0.000000
-0.005100 0.046132 0.000000
0.046132 0.028706 0.000000
0.000000 0.000000 0.000000
-0.034808 -0.009794 0.000000
-0.009794 0.033319 0.000000
0.000000 0.000000 0.000000
-0.005690 0.020897 0.000000
0.020897 -0.001495 0.000000
0.000000 0.000000 0.000000
-0.010740 0.001161 0.000000
0.001161 -0.011786 0.000000
0.000000 0.000000 0.000000
0.002570 0.001888 0.000000
0.001888 0.011544 0.000000
0.000000 0.000000 0.000000
0.004489 -0.006574 0.000000
-0.006574 0.012523 0.000000
0.000000 0.000000 0.000000
-0.013570 -0.000490 0.000000
-0.000490 0.010082 0.000000
0.000000 0.000000 0.000000
-0.012087 -0.001871 0.000000
-0.001871 -0.009689 0.000000
0.000000 0.000000 0.000000
-0.009155 0.000596 0.000000
0.000596 0.010939 0.000000
0.000000 0.000000 0.000000
0.009577 -0.002765 0.000000
-0.002765 -0.012926 0.000000
0.000000 0.000000 0.000000
-0.009384 -0.004872 0.000000
-0.004872 -0.015446 0.000000
0.000000 0.000000 0.000000
0.001539 0.002747 0.000000
0.002747 -0.008010 0.000000
0.000000 0.000000 0.000000
0.003010 -0.000332 0.000000
-0.000332 0.004592 0.000000
0.000000 0.000000 0.000000
0.012052 0.000366 0.000000
0.000366 -0.018201 0.000000
0.000000 0.000000 0.000000
0.002969 -0.003955 0.000000
-0.003955 -0.003921 0.000000
0.000000 0.000000 0.000000
0.009062 -0.005631 0.000000
-0.005631 -0.006385 0.000000
0.000000 0.000000 0.000000
-0.014243 -0.001757 0.000000
-0.001757 -0.006897 0.000000
0.000000 0.000000 0.000000
0.012561 0.004912 0.000000
0.004912 -0.008651 0.000000
0.000000 0.000000 0.000000
0.006897 -0.002116 0.000000
-0.002116 -0.028286 0.000000
0.000000 0.000000 0.000000
0.010220 -0.004048 0.000000
-0.004048 -0.020087 0.000000
0.000000 0.000000 0.000000
0.013733 0.001675 0.000000
0.001675 0.034821 0.000000
0.000000 0.000000 0.000000
0.001945 0.011451 0.000000
0.011451 -0.026986 0.000000
0.000000 0.000000 0.000000
-0.004145 -0.004144 0.000000
-0.004144 0.002252 0.000000
0.000000 0.000000 0.000000
-0.007206 0.005433 0.000000
0.005433 -0.028352 0.000000
0.000000 0.000000 0.000000
-0.000325 -0.001177 0.000000
-0.001177 0.006349 0.000000
0.000000 0.000000 0.000000
-0.017947 -0.002852 0.000000
-0.002852 0.020532 0.000000
0.000000 0.000000 0.000000
0.002849 -0.002104 0.000000
-0.002104 0.007736 0.000000
0.000000 0.000000 0.000000
0.000551 0.003580 0.000000
0.003580 -0.003407 0.000000
0.000000 0.000000 0.000000
-0.016124 -0.003458 0.000000
-0.003458 0.015432 0.000000
0.000000 0.000000 0.000000
0.004417 -0.001145 0.000000
-0.001145 0.001016 0.000000
0.000000 0.000000 0.000000
-0.000233 -0.000115 0.000000
-0.000115 0.002666 0.000000
0.000000 0.000000 0.000000
-0.011056 0.001787 0.000000
0.001787 -0.026270 0.000000
0.000000 0.000000 0.000000
-0.005963 0.012726 0.000000
0.012726 0.006824 0.000000
0.000000 0.000000 0.000000
0.017970 -0.002796 0.000000
-0.002796 -0.027077 0.000000
0.000000 0.000000 0.000000
-0.000523 0.008854 0.000000
0.008854 0.008327 0.000000
0.000000 0.000000 0.000000
-0.005346 0.010532 0.000000
0.010532 0.002461 0.000000
0.000000 0.000000 0.000000
-0.009943 -0.004023 0.000000
-0.004023 -0.013886 0.000000
0.000000 0.000000 0.000000
-0.002933 -0.003403 0.000000
-0.003403 0.006653 0.000000
0.000000 0.000000 0.000000
0.000538 0.007665 0.000000
0.007665 0.013603 0.000000
0.000000 0.000000 0.000000
0.000495 0.009361 0.000000
0.009361 0.004614 0.000000
0.000000 0.000000 0.000000
-0.001944 0.004263 0.000000
0.004263 -0.013693 0.000000
0.000000 0.000000 0.000000
-0.005745 -0.002025 0.000000
-0.002025 -0.013465 0.000000
0.000000 0.000000 0.000000
-0.011872 0.014833 0.000000
0.014833 -0.020246 0.000000
0.000000 0.000000 0.000000
0.008063 -0.005070 0.000000
-0.005070 0.009526 0.000000
0.000000 0.000000 0.000000
-0.010847 0.018711 0.000000
0.018711 -0.017309 0.000000
0.000000 0.000000 0.000000
-0.003306 0.003546 0.000000
0.003546 -0.028766 0.000000
0.000000 0.000000 0.000000
-0.014647 -0.011701 0.000000
-0.011701 -0.014950 0.000000
0.000000 0.000000 0.000000
-0.012281 0.003187 0.000000
0.003187 -0.000537 0.000000
0.000000 0.000000 0.000000
-0.013654 -0.009068 0.000000
-0.009068 -0.007959 0.000000
0.000000 0.000000 0.000000
0.048427 0.033594 0.000000
0.033594 -0.001388 0.000000
0.000000 0.000000 0.000000
-0.004550 -0.000820 0.000000
-0.000820 -0.013346 0.000000
0.000000 0.000000 0.000000
0.002835 -0.004936 0.000000
-0.004936 -0.005770 0.000000
0.000000 0.000000 0.000000
0.008385 -0.002469 0.000000
-0.002469 -0.020205 0.000000
0.000000 0.000000 0.000000
-0.046332 0.037751 0.000000
0.037751 -0.019749 0.000000
0.000000 0.000000 0.000000
0.043679 0.001184 0.000000
0.001184 0.002438 0.000000
0.000000 0.000000 0.000000
-0.001603 0.002738 0.000000
0.002738 -0.008074 0.000000
0.000000 0.000000 0.000000
-0.018846 0.040811 0.000000
0.040811 -0.026815 0.000000
0.000000 0.000000 0.000000
-0.007617 0.001623 0.000000
0.001623 0.010205 0.000000
0.000000 0.000000 0.000000
-0.002978 0.001312 0.000000
0.001312 0.004955 0.000000
0.000000 0.000000 0.000000
-0.003193 0.004319 0.000000
0.004319 -0.019121 0.000000
0.000000 0.000000 0.000000
-0.004850 0.001797 0.000000
0.001797 0.005754 0.000000
0.000000 0.000000 0.000000
-0.002747 0.003153 0.000000
0.003153 -0.016412 0.000000
0.000000 0.000000 0.000000
-0.016782 0.004960 0.000000
0.004960 0.009361 0.000000
0.000000 0.000000 0.000000
-0.015586 0.002136 0.000000
0.002136 0.014356 0.000000
0.000000 0.000000 0.000000
0.011286 0.001025 0.000000
0.001025 0.018800 0.000000
0.000000 0.000000 0.000000
-0.018520 -0.002520 0.000000
-0.002520 0.001076 0.000000
0.000000 0.000000 0.000000
-0.003140 0.003054 0.000000
0.003054 0.015454 0.000000
0.000000 0.000000 0.000000
0.006529 -0.006072 0.000000
-0.006072 0.018912 0.000000
0.000000 0.000000 0.000000
-0.010091 0.007081 0.000000
0.007081 0.002473 0.000000
0.000000 0.000000 0.000000
-0.010650 -0.000336 0.000000
-0.000336 -0.035746 0.000000
0.000000 0.000000 0.000000
-0.002574 -0.003972 0.000000
-0.003972 -0.008503 0.000000
0.000000 0.000000 0.000000
-0.005275 -0.006244 0.000000
-0.006244 -0.010524 0.000000
0.000000 0.000000 0.000000
-0.007309 -0.009418 0.000000
-0.009418 -0.000208 0.000000
0.000000 0.000000 0.000000
0.009860 -0.002254 0.000000
-0.002254 -0.007198 0.000000
0.000000 0.000000 0.000000
-0.000298 -0.002861 0.000000
-0.002861 0.003606 0.000000
0.000000 0.000000 0.000000
0.000485 -0.007986 0.000000
-0.007986 -0.006125 0.000000
0.000000 0.000000 0.000000
-0.023806 0.003544 0.000000
0.003544 -0.010371 0.000000
0.000000 0.000000 0.000000
0.013323 -0.000082 0.000000
-0.000082 0.005454 0.000000
0.000000 0.000000 0.000000
-0.001770 -0.001949 0.000000
-0.001949 -0.004897 0.000000
0.000000 0.000000 0.000000
0.023733 0.001202 0.000000
0.001202 0.008073 0.000000
0.000000 0.000000 0.000000
-0.002912 -0.005897 0.000000
-0.005897 -0.009756 0.000000
0.000000 0.000000 0.000000
-0.003381 0.012144 0.000000
0.012144 -0.007190 0.000000
0.000000 0.000000 0.000000
-0.001704 0.009546 0.000000
0.009546 -0.005030 0.000000
0.000000 0.000000 0.000000
-0.005894 -0.001554 0.000000
-0.001554 0.004133 0.000000
0.000000 0.000000 0.000000
0.007074 -0.017775 0.000000
-0.017775 0.008829 0.000000
0.000000 0.000000 0.000000
0.002970 0.006018 0.000000
0.006018 0.013008 0.000000
0.000000 0.000000 0.000000
0.020879 -0.005496 0.000000
-0.005496 0.011908 0.000000
0.000000 0.000000 0.000000
-0.007200 0.001496 0.000000
0.001496 -0.015726 0.000000
0.000000 0.000000 0.000000
0.005265 0.007566 0.000000
0.007566 -0.005583 0.000000
0.000000 0.000000 0.000000
0.033660 0.053157 0.000000
0.053157 -0.003387 0.000000
0.000000 0.000000 0.000000
0.001937 0.005491 0.000000
0.005491 -0.033972 0.000000
0.000000 0.000000 0.000000
0.004273 -0.008864 0.000000
-0.008864 0.015517 0.000000
0.000000 0.000000 0.000000
0.009672 -0.007876 0.000000
-0.007876 0.004048 0.000000
0.000000 0.000000 0.000000
0.030386 -0.017182 0.000000
-0.017182 0.034201 0.000000
0.000000 0.000000 0.000000
0.027900 -0.021377 0.000000
-0.021377 0.040220 0.000000
0.000000 0.000000 0.000000
0.006711 0.022753 0.000000
0.022753 -0.007286 0.000000
0.000000 0.000000 0.000000
0.012380 -0.003318 0.000000
-0.003318 -0.002597 0.000000
0.000000 0.000000 0.000000
-0.005365 -0.001710 0.000000
-0.001710 -0.002830 0.000000
0.000000 0.000000 0.000000
0.002800 -0.005093 0.000000
-0.005093 0.005039 0.000000
0.000000 0.000000 0.000000
-0.002478 -0.006568 0.000000
-0.006568 0.002663 0.000000
0.000000 0.000000 0.000000
-0.000094 -0.000645 0.000000
-0.000645 -0.012698 0.000000
0.000000 0.000000 0.000000
-0.005224 -0.001380 0.000000
-0.001380 0.008173 0.000000
0.000000 0.000000 0.000000
-0.002707 0.000311 0.000000
0.000311 -0.015331 0.000000
0.000000 0.000000 0.000000
0.002946 0.009034 0.000000
0.009034 0.018404 0.000000
0.000000 0.000000 0.000000
-0.000384 -0.001020 0.000000
-0.001020 -0.013507 0.000000
0.000000 0.000000 0.000000
0.001598 0.005164 0.000000
0.005164 0.017044 0.000000
0.000000 0.000000 0.000000
0.006694 0.004638 0.000000
0.004638 0.017583 0.000000
0.000000 0.000000 0.000000
0.014628 -0.010329 0.000000
-0.010329 0.015487 0.000000
0.000000 0.000000 0.000000
0.019922 -0.009418 0.000000
-0.009418 0.017346 0.000000
0.000000 0.000000 0.000000
0.000051 -0.002917 0.000000
-0.002917 0.003731 0.000000
0.000000 0.000000 0.000000
0.011818 0.000698 0.000000
0.000698 0.019128 0.000000
0.000000 0.000000 0.000000
0.007015 -0.007631 0.000000
-0.007631 0.008400 0.000000
0.000000 0.000000 0.000000
0.003365 0.003827 0.000000
0.003827 -0.001830 0.000000
0.000000 0.000000 0.000000
-0.006928 0.003520 0.000000
0.003520 -0.004567 0.000000
0.000000 0.000000 0.000000
-0.000722 0.003573 0.000000
0.003573 0.005428 0.000000
0.000000 0.000000 0.000000
0.001131 0.000355 0.000000
0.000355 -0.000464 0.000000
0.000000 0.000000 0.000000
0.005976 -0.000779 0.000000
-0.000779 0.000490 0.000000
0.000000 0.000000 0.000000
-0.000254 0.001466 0.000000
0.001466 -0.007275 0.000000
0.000000 0.000000 0.000000
-0.008767 0.001902 0.000000
0.001902 -0.012194 0.000000
0.000000 0.000000 0.000000
0.015436 0.021471 0.000000
0.021471 -0.010277 0.000000
0.000000 0.000000 0.000000
-0.004734 -0.006968 0.000000
-0.006968 0.013530 0.000000
0.000000 0.000000 0.000000
-0.014599 -0.001582 0.000000
-0.001582 0.004889 0.000000
0.000000 0.000000 0.000000
0.010018 0.010938 0.000000
0.010938 0.013515 0.000000
0.000000 0.000000 0.000000
0.000502 -0.010756 0.000000
-0.010756 0.000835 0.000000
0.000000 0.000000 0.000000
-0.015753 -0.000735 0.000000
-0.000735 0.022682 0.000000
0.000000 0.000000 0.000000
0.003492 -0.009011 0.000000
-0.009011 0.019757 0.000000
0.000000 0.000000 0.000000
-0.004399 0.011601 0.000000
0.011601 -0.011004 0.000000
0.000000 0.000000 0.000000
0.008829 0.003831 0.000000
0.003831 0.011279 0.000000
0.000000 0.000000 0.000000
-0.006806 0.008315 0.000000
0.008315 0.006998 0.000000
0.000000 0.000000 0.000000
-0.004516 -0.005115 0.000000
-0.005115 -0.000270 0.000000
0.000000 0.000000 0.000000
-0.016211 -0.005727 0.000000
-0.005727 -0.014468 0.000000
0.000000 0.000000 0.000000
0.007962 0.006449 0.000000
0.006449 0.008324 0.000000
0.000000 0.000000 0.000000
0.016774 -0.000161 0.000000
-0.000161 -0.011616 0.000000
0.000000 0.000000 0.000000
0.003580 0.005872 0.000000
0.005872 0.004356 0.000000
0.000000 0.000000 0.000000
0.012039 0.006116 0.000000
0.006116 -0.000274 0.000000
0.000000 0.000000 0.000000
0.010504 0.010879 0.000000
0.010879 0.006486 0.000000
0.000000 0.000000 0.000000
0.008820 0.003914 0.000000
0.003914 -0.010518 0.000000
0.000000 0.000000 0.000000
0.010500 -0.000214 0.000000
-0.000214 0.010546 0.000000
0.000000 0.000000 0.000000
-0.012577 0.010845 0.000000
0.010845 -0.008689 0.000000
0.000000 0.000000 0.000000
-0.001023 -0.000141 0.000000
-0.000141 0.001145 0.000000
0.000000 0.000000 0.000000
0.003657 -0.003654 0.000000
-0.003654 0.006334 0.000000
0.000000 0.000000 0.000000
0.006328 -0.003521 0.000000
-0.003521 0.006884 0.000000
0.000000 0.000000 0.000000
-0.007850 -0.010108 0.000000
-0.010108 0.008489 0.000000
0.000000 0.000000 0.000000
-0.004945 0.002124 0.000000
0.002124 0.007352 0.000000
0.000000 0.000000 0.000000
0.000250 -0.011474 0.000000
-0.011474 -0.000679 0.000000
0.000000 0.000000 0.000000
-0.001186 0.008267 0.000000
0.008267 -0.004194 0.000000
0.000000 0.000000 0.000000
0.010281 0.005222 0.000000
0.005222 0.010368 0.000000
0.000000 0.000000 0.000000
0.000421 -0.000667 0.000000
-0.000667 -0.000149 0.000000
0.000000 0.000000 0.000000
0.009846 0.002220 0.000000
0.002220 -0.010271 0.000000
0.000000 0.000000 0.000000
-0.006401 0.000812 0.000000
0.000812 -0.000343 0.000000
0.000000 0.000000 0.000000
-0.006613 0.001956 0.000000
0.001956 -0.004856 0.000000
0.000000 0.000000 0.000000
0.009765 -0.001587 0.000000
-0.001587 -0.015900 0.000000
0.000000 0.000000 0.000000
0.002137 -0.001960 0.000000
-0.001960 -0.029518 0.000000
0.000000 0.000000 0.000000
-0.001489 -0.007479 0.000000
-0.007479 -0.004551 0.000000
0.000000 0.000000 0.000000
-0.011476 -0.008123 0.000000
-0.008123 -0.016117 0.000000
0.000000 0.000000 0.000000
-0.009593 0.005084 0.000000
0.005084 -0.001005 0.000000
0.000000 0.000000 0.000000
-0.011771 -0.009496 0.000000
-0.009496 0.018756 0.000000
0.000000 0.000000 0.000000
-0.004705 0.004794 0.000000
0.004794 0.017321 0.000000
0.000000 0.000000 0.000000
-0.001612 0.001136 0.000000
0.001136 0.001962 0.000000
0.000000 0.000000 0.000000
0.013972 0.014961 0.000000
0.014961 0.011112 0.000000
0.000000 0.000000 0.000000
-0.004880 0.004252 0.000000
0.004252 -0.011917 0.000000
0.000000 0.000000 0.000000
0.005549 -0.000231 0.000000
-0.000231 0.004557 0.000000
0.000000 0.000000 0.000000
-0.001500 0.004471 0.000000
0.004471 -0.011899 0.000000
0.000000 0.000000 0.000000
0.008732 -0.000153 0.000000
-0.000153 -0.002511 0.000000
0.000000 0.000000 0.000000
0.000943 -0.001122 0.000000
-0.001122 0.004205 0.000000
0.000000 0.000000 0.000000
-0.006134 -0.004343 0.000000
-0.004343 0.009408 0.000000
0.000000 0.000000 0.000000
-0.008882 -0.003172 0.000000
-0.003172 -0.007208 0.000000
0.000000 0.000000 0.000000
-0.003818 0.002353 0.000000
0.002353 0.012897 0.000000
0.000000 0.000000 0.000000
0.016209 0.011664 0.000000
0.011664 -0.005564 0.000000
0.000000 0.000000 0.000000
0.009426 0.006135 0.000000
0.006135 0.005432 0.000000
0.000000 0.000000 0.000000
0.005371 0.001627 0.000000
0.001627 0.006195 0.000000
0.000000 0.000000 0.000000
0.009076 -0.001568 0.000000
-0.001568 -0.005744 0.000000
0.000000 0.000000 0.000000
-0.002190 -0.002743 0.000000
-0.002743 -0.000349 0.000000
0.000000 0.000000 0.000000
-0.000519 -0.002019 0.000000
-0.002019 0.006291 0.000000
0.000000 0.000000 0.000000
0.002391 0.001474 0.000000
0.001474 -0.005444 0.000000
0.000000 0.000000 0.000000
0.006215 -0.000713 0.000000
-0.000713 -0.001612 0.000000
0.000000 0.000000 0.000000
0.000059 -0.000546 0.000000
-0.000546 0.002934 0.000000
0.000000 0.000000 0.000000
0.005608 0.004047 0.000000
0.004047 -0.005541 0.000000
0.000000 0.000000 0.000000
0.006748 -0.006295 0.000000
-0.006295 0.003844 0.000000
0.000000 0.000000 0.000000
0.000651 -0.000710 0.000000
-0.000710 -0.010985 0.000000
0.000000 0.000000 0.000000
0.013596 0.009873 0.000000
0.009873 0.021742 0.000000
0.000000 0.000000 0.000000
0.005350 -0.007404 0.000000
-0.007404 -0.006914 0.000000
0.000000 0.000000 0.000000
-0.020237 0.003686 0.000000
0.003686 -0.011673 0.000000
0.000000 0.000000 0.000000
-0.008948 0.001701 0.000000
0.001701 0.012679 0.000000
0.000000 0.000000 0.000000
0.007778 0.003129 0.000000
0.003129 -0.008934 0.000000
0.000000 0.000000 0.000000
0.008194 0.003503 0.000000
0.003503 -0.006660 0.000000
0.000000 0.000000 0.000000
-0.004154 -0.004910 0.000000
-0.004910 -0.012512 0.000000
0.000000 0.000000 0.000000
-0.009017 0.000498 0.000000
0.000498 0.004681 0.000000
0.000000 0.000000 0.000000
0.000510 0.003139 0.000000
0.003139 0.001212 0.000000
0.000000 0.000000 0.000000
0.003852 -0.002326 0.000000
-0.002326 -0.007673 0.000000
0.000000 0.000000 0.000000
-0.013586 0.007321 0.000000
0.007321 0.018301 0.000000
0.000000 0.000000 0.000000
0.007930 -0.005634 0.000000
-0.005634 0.008857 0.000000
0.000000 0.000000 0.000000
-0.021322 -0.012509 0.000000
-0.012509 0.004781 0.000000
0.000000 0.000000 0.000000
-0.010429 0.001716 0.000000
0.001716 -0.020474 0.000000
0.000000 0.000000 0.000000
0.008646 -0.000371 0.000000
-0.000371 0.023392 0.000000
0.000000 0.000000 0.000000
0.009419 0.015094 0.000000
0.015094 -0.009334 0.000000
0.000000 0.000000 0.000000
0.012941 -0.002515 0.000000
-0.002515 0.022716 0.000000
0.000000 0.000000 0.000000
0.001802 -0.000830 0.000000
-0.000830 0.011344 0.000000
0.000000 0.000000 0.000000
-0.002453 0.002269 0.000000
0.002269 -0.004727 0.000000
0.000000 0.000000 0.000000
-0.004319 0.010413 0.000000
0.010413 0.014244 0.000000
0.000000 0.000000 0.000000
-0.000719 0.002139 0.000000
0.002139 -0.016448 0.000000
0.000000 0.000000 0.000000
-0.004990 -0.015673 0.000000
-0.015673 -0.006860 0.000000
0.000000 0.000000 0.000000
-0.010810 0.006034 0.000000
0.006034 -0.020055 0.000000
0.000000 0.000000 0.000000
0.002959 0.005946 0.000000
0.005946 0.010744 0.000000
0.000000 0.000000 0.000000
-0.005273 0.002493 0.000000
0.002493 -0.008519 0.000000
0.000000 0.000000 0.000000
-0.007379 -0.020402 0.000000
-0.020402 0.001245 0.000000
0.000000 0.000000 0.000000
-0.009821 0.000993 0.000000
0.000993 0.004279 0.000000
0.000000 0.000000 0.000000
-0.007262 0.005396 0.000000
0.005396 0.016977 0.000000
0.000000 0.000000 0.000000
-0.014299 -0.014569 0.000000
-0.014569 -0.012847 0.000000
0.000000 0.000000 0.000000
0.004828 0.005904 0.000000
0.005904 -0.008363 0.000000
0.000000 0.000000 0.000000
0.007789 0.001032 0.000000
0.001032 0.001501 0.000000
0.000000 0.000000 0.000000
-0.002024 0.007460 0.000000
0.007460 -0.009546 0.000000
0.000000 0.000000 0.000000
-0.005672 -0.001448 0.000000
-0.001448 -0.000825 0.000000
0.000000 0.000000 0.000000
-0.000631 -0.002158 0.000000
-0.002158 0.008700 0.000000
0.000000 0.000000 0.000000
0.003484 0.005722 0.000000
0.005722 0.009670 0.000000
0.000000 0.000000 0.000000
-0.003752 0.008605 0.000000
0.008605 -0.007905 0.000000
0.000000 0.000000 0.000000
-0.006756 0.010079 0.000000
0.010079 0.004511 0.000000
0.000000 0.000000 0.000000
-0.013663 -0.010706 0.000000
-0.010706 -0.010497 0.000000
0.000000 0.000000 0.000000
-0.010522 0.016902 0.000000
0.016902 0.004653 0.000000
0.000000 0.000000 0.000000
-0.011447 0.002646 0.000000
0.002646 0.007489 0.000000
0.000000 0.000000 0.000000
0.010066 0.010785 0.000000
0.010785 0.013783 0.000000
0.000000 0.000000 0.000000
0.003968 0.003052 0.000000
0.003052 0.016427 0.000000
0.000000 0.000000 0.000000
0.036186 0.006431 0.000000
0.006431 0.008806 0.000000
0.000000 0.000000 0.000000
-0.001999 0.003629 0.000000
0.003629 0.010211 0.000000
0.000000 0.000000 0.000000
-0.005106 -0.007368 0.000000
-0.007368 -0.013481 0.000000
0.000000 0.000000 0.000000
-0.011866 0.009518 0.000000
0.009518 -0.011196 0.000000
0.000000 0.000000 0.000000
-0.003390 0.008725 0.000000
0.008725 -0.008871 0.000000
0.000000 0.000000 0.000000
0.006004 0.002738 0.000000
0.002738 -0.010557 0.000000
0.000000 0.000000 0.000000
0.030112 0.010249 0.000000
0.010249 0.003334 0.000000
0.000000 0.000000 0.000000
0.001862 0.002243 0.000000
0.002243 -0.010618 0.000000
0.000000 0.000000 0.000000
0.000550 -0.000088 0.000000
-0.000088 -0.008567 0.000000
0.000000 0.000000 0.000000
-0.003477 -0.010315 0.000000
-0.010315 -0.019075 0.000000
0.000000 0.000000 0.000000
-0.003463 -0.000441 0.000000
-0.000441 0.011550 0.000000
0.000000 0.000000 0.000000
0.000008 0.002895 0.000000
0.002895 -0.007971 0.000000
0.000000 0.000000 0.000000
-0.004475 0.003709 0.000000
0.003709 -0.001438 0.000000
0.000000 0.000000 0.000000
-0.000717 0.003998 0.000000
0.003998 0.003322 0.000000
0.000000 0.000000 0.000000
0.001327 0.001653 0.000000
0.001653 -0.000213 0.000000
0.000000 0.000000 0.000000
0.000575 -0.003511 0.000000
-0.003511 0.002369 0.000000
0.000000 0.000000 0.000000
-0.000893 -0.000791 0.000000
-0.000791 -0.014201 0.000000
0.000000 0.000000 0.000000
-0.002167 0.000308 0.000000
0.000308 -0.011931 0.000000
0.000000 0.000000 0.000000
0.008960 -0.009689 0.000000
-0.009689 -0.009903 0.000000
0.000000 0.000000 0.000000
-0.004802 0.005085 0.000000
0.005085 -0.019293 0.000000
0.000000 0.000000 0.000000
0.001865 -0.003957 0.000000
-0.003957 -0.011588 0.000000
0.000000 0.000000 0.000000
0.012415 -0.007083 0.000000
-0.007083 -0.002736 0.000000
0.000000 0.000000 0.000000
0.003666 0.013129 0.000000
0.013129 0.009337 0.000000
0.000000 0.000000 0.000000
0.011159 -0.006794 0.000000
-0.006794 0.007566 0.000000
0.000000 0.000000 0.000000
0.018603 -0.000798 0.000000
-0.000798 0.018508 0.000000
0.000000 0.000000 0.000000
0.012405 0.011731 0.000000
0.011731 -0.013024 0.000000
0.000000 0.000000 0.000000
-0.010378 0.001918 0.000000
0.001918 -0.001156 0.000000
0.000000 0.000000 0.000000
0.021038 -0.000896 0.000000
-0.000896 0.018510 0.000000
0.000000 0.000000 0.000000
0.004782 0.002066 0.000000
0.002066 0.008562 0.000000
0.000000 0.000000 0.000000
0.016185 0.000489 0.000000
0.000489 -0.009028 0.000000
0.000000 0.000000 0.000000
-0.005151 0.003516 0.000000
0.003516 -0.007699 0.000000
0.000000 0.000000 0.000000
0.006799 -0.001933 0.000000
-0.001933 -0.029929 0.000000
0.000000 0.000000 0.000000
-0.034366 0.016165 0.000000
0.016165 -0.004079 0.000000
0.000000 0.000000 0.000000
-0.014920 0.003097 0.000000
0.003097 0.020293 0.000000
0.000000 0.000000 0.000000
-0.020565 0.007531 0.000000
0.007531 0.010630 0.000000
0.000000 0.000000 0.000000
0.017080 -0.006838 0.000000
-0.006838 -0.007110 0.000000
0.000000 0.000000 0.000000
0.004253 0.001138 0.000000
0.001138 -0.002298 0.000000
0.000000 0.000000 0.000000
0.000769 0.001227 0.000000
0.001227 0.013021 0.000000
0.000000 0.000000 0.000000
0.011317 0.000660 0.000000
0.000660 0.001598 0.000000
0.000000 0.000000 0.000000
0.007382 -0.004025 0.000000
-0.004025 0.000150 0.000000
0.000000 0.000000 0.000000
-0.004547 -0.003552 0.000000
-0.003552 0.003611 0.000000
0.000000 0.000000 0.000000
0.008279 0.004585 0.000000
0.004585 0.000201 0.000000
0.000000 0.000000 0.000000
0.006329 -0.001083 0.000000
-0.001083 0.002577 0.000000
0.000000 0.000000 0.000000
0.000393 0.000484 0.000000
0.000484 -0.010100 0.000000
0.000000 0.000000 0.000000
-0.014765 -0.017354 0.000000
-0.017354 0.012948 0.000000
0.000000 0.000000 0.000000
-0.002172 0.002724 0.000000
0.002724 0.018883 0.000000
0.000000 0.000000 0.000000
-0.018034 -0.003632 0.000000
-0.003632 -0.012554 0.000000
0.000000 0.000000 0.000000
-0.002480 0.006280 0.000000
0.006280 0.010901 0.000000
0.000000 0.000000 0.000000
0.011443 -0.006712 0.000000
-0.006712 -0.007162 0.000000
0.000000 0.000000 0.000000
-0.006285 0.003322 0.000000
0.003322 -0.003950 0.000000
0.000000 0.000000 0.000000
0.009962 -0.002951 0.000000
-0.002951 -0.007258 0.000000
0.000000 0.000000 0.000000
-0.005056 0.013565 0.000000
0.013565 0.001421 0.000000
0.000000 0.000000 0.000000
-0.017676 0.000380 0.000000
0.000380 -0.016984 0.000000
0.000000 0.000000 0.000000
0.005778 -0.003320 0.000000
-0.003320 0.011872 0.000000
0.000000 0.000000 0.000000
0.006924 -0.001590 0.000000
-0.001590 -0.006419 0.000000
0.000000 0.000000 0.000000
0.002821 -0.002024 0.000000
-0.002024 -0.001586 0.000000
0.000000 0.000000 0.000000
-0.001466 0.002545 0.000000
0.002545 0.002224 0.000000
0.000000 0.000000 0.000000
0.004238 0.003269 0.000000
0.003269 0.009065 0.000000
0.000000 0.000000 0.000000
-0.002687 0.002801 0.000000
0.002801 -0.014266 0.000000
0.000000 0.000000 0.000000
-0.007547 0.007205 0.000000
0.007205 0.012654 0.000000
0.000000 0.000000 0.000000
0.005979 -0.007240 0.000000
-0.007240 0.012722 0.000000
0.000000 0.000000 0.000000
-0.019074 0.001117 0.000000
0.001117 0.001559 0.000000
0.000000 0.000000 0.000000
0.000741 0.004067 0.000000
0.004067 0.000679 0.000000
0.000000 0.000000 0.000000
0.002575 -0.003894 0.000000
-0.003894 0.000876 0.000000
0.000000 0.000000 0.000000
0.006531 -0.008989 0.000000
-0.008989 0.001783 0.000000
0.000000 0.000000 0.000000
-0.000362 0.005351 0.000000
0.005351 -0.002798 0.000000
0.000000 0.000000 0.000000
-0.002975 0.000270 0.000000
0.000270 0.000246 0.000000
0.000000 0.000000 0.000000
-0.006467 0.004305 0.000000
0.004305 0.001537 0.000000
0.000000 0.000000 0.000000
-0.000402 -0.004826 0.000000
-0.004826 0.006786 0.000000
0.000000 0.000000 0.000000
-0.005052 -0.006525 0.000000
-0.006525 -0.007169 0.000000
0.000000 0.000000 0.000000
-0.010121 0.014107 0.000000
0.014107 0.022633 0.000000
0.000000 0.000000 0.000000
0.004302 -0.001361 0.000000
-0.001361 0.005443 0.000000
0.000000 0.000000 0.000000
0.021482 0.002061 0.000000
0.002061 -0.007610 0.000000
0.000000 0.000000 0.000000
0.011854 -0.015929 0.000000
-0.015929 -0.011639 0.000000
0.000000 0.000000 0.000000
0.010774 0.001229 0.000000
0.001229 0.005075 0.000000
0.000000 0.000000 0.000000
-0.003374 0.012543 0.000000
0.012543 0.017761 0.000000
0.000000 0.000000 0.000000
-0.000525 -0.004242 0.000000
-0.004242 0.009577 0.000000
0.000000 0.000000 0.000000
0.000254 -0.000902 0.000000
-0.000902 0.016250 0.000000
0.000000 0.000000 0.000000
0.013782 0.010833 0.000000
0.010833 0.000174 0.000000
0.000000 0.000000 0.000000
-0.021527 0.000333 0.000000
0.000333 0.000334 0.000000
0.000000 0.000000 0.000000
-0.008660 0.010747 0.000000
0.010747 0.003600 0.000000
0.000000 0.000000 0.000000
-0.004123 -0.006739 0.000000
-0.006739 0.007025 0.000000
0.000000 0.000000 0.000000
-0.019459 0.000506 0.000000
0.000506 -0.004143 0.000000
0.000000 0.000000 0.000000
-0.008254 0.000627 0.000000
0.000627 -0.030837 0.000000
0.000000 0.000000 0.000000
0.005072 -0.001265 0.000000
-0.001265 -0.015100 0.000000
0.000000 0.000000 0.000000
0.012328 0.003727 0.000000
0.003727 0.010658 0.000000
0.000000 0.000000 0.000000
0.010322 -0.009184 0.000000
-0.009184 -0.002630 0.000000
0.000000 0.000000 0.000000
0.000685 -0.015010 0.000000
-0.015010 -0.016017 0.000000
0.000000 0.000000 0.000000
-0.008148 -0.007564 0.000000
-0.007564 -0.031844 0.000000
0.000000 0.000000 0.000000
-0.001811 -0.004824 0.000000
-0.004824 0.000094 0.000000
0.000000 0.000000 0.000000
-0.010117 -0.000795 0.000000
-0.000795 0.010070 0.000000
0.000000 0.000000 0.000000
-0.016795 0.006518 0.000000
0.006518 0.004592 0.000000
0.000000 0.000000 0.000000
0.001392 0.003656 0.000000
0.003656 0.008669 0.000000
0.000000 0.000000 0.000000
-0.000167 -0.000223 0.000000
-0.000223 -0.003363 0.000000
0.000000 0.000000 0.000000
0.001741 -0.002680 0.000000
-0.002680 0.008258 0.000000
0.000000 0.000000 0.000000
0.001295 0.002788 0.000000
0.002788 0.005329 0.000000
0.000000 0.000000 0.000000
-0.000964 0.001199 0.000000
0.001199 -0.009166 0.000000
0.000000 0.000000 0.000000
-0.003356 0.002188 0.000000
0.002188 0.003931 0.000000
0.000000 0.000000 0.000000
-0.013035 -0.007857 0.000000
-0.007857 -0.018477 0.000000
0.000000 0.000000 0.000000
0.028300 0.020074 0.000000
0.020074 -0.025228 0.000000
0.000000 0.000000 0.000000
0.011504 0.001490 0.000000
0.001490 -0.005585 0.000000
0.000000 0.000000 0.000000
-0.040144 -0.005599 0.000000
-0.005599 -0.011989 0.000000
0.000000 0.000000 0.000000
0.006901 -0.007683 0.000000
-0.007683 -0.004902 0.000000
0.000000 0.000000 0.000000
-0.006664 -0.002932 0.000000
-0.002932 -0.002543 0.000000
0.000000 0.000000 0.000000
0.005938 0.030572 0.000000
0.030572 -0.004473 0.000000
0.000000 0.000000 0.000000
0.009787 -0.007244 0.000000
-0.007244 0.045497 0.000000
0.000000 0.000000 0.000000
-0.011397 0.015959 0.000000
0.015959 -0.010902 0.000000
0.000000 0.000000 0.000000
0.025123 0.003510 0.000000
0.003510 0.002075 0.000000
0.000000 0.000000 0.000000
0.007717 0.006057 0.000000
0.006057 -0.003733 0.000000
0.000000 0.000000 0.000000
0.002807 0.005546 0.000000
0.005546 -0.005180 0.000000
0.000000 0.000000 0.000000
-0.007433 0.013968 0.000000
0.013968 0.024024 0.000000
0.000000 0.000000 0.000000
-0.004010 0.014331 0.000000
0.014331 0.035389 0.000000
0.000000 0.000000 0.000000
-0.024217 -0.003109 0.000000
-0.003109 -0.010716 0.000000
0.000000 0.000000 0.000000
-0.023432 -0.004550 0.000000
-0.004550 0.002756 0.000000
0.000000 0.000000 0.000000
-0.005691 0.012268 0.000000
0.012268 -0.000545 0.000000
0.000000 0.000000 0.000000
-0.001469 -0.003829 0.000000
-0.003829 -0.001732 0.000000
0.000000 0.000000 0.000000
-0.004044 0.002331 0.000000
0.002331 -0.009202 0.000000
0.000000 0.000000 0.000000
-0.001541 0.001943 0.000000
0.001943 0.000389 0.000000
0.000000 0.000000 0.000000
-0.005725 0.009892 0.000000
0.009892 -0.008172 0.000000
0.000000 0.000000 0.000000
0.012168 0.007274 0.000000
0.007274 -0.005653 0.000000
0.000000 0.000000 0.000000
0.000975 0.002315 0.000000
0.002315 -0.001671 0.000000
0.000000 0.000000 0.000000
0.005892 0.003210 0.000000
0.003210 -0.019790 0.000000
0.000000 0.000000 0.000000
0.000659 0.001987 0.000000
0.001987 -0.001850 0.000000
0.000000 0.000000 0.000000
0.006399 -0.019129 0.000000
-0.019129 0.021454 0.000000
0.000000 0.000000 0.000000
-0.002468 -0.013369 0.000000
-0.013369 -0.015898 0.000000
0.000000 0.000000 0.000000
-0.004761 -0.002330 0.000000
-0.002330 0.003239 0.000000
0.000000 0.000000 0.000000
0.001837 0.002986 0.000000
0.002986 -0.001563 0.000000
0.000000 0.000000 0.000000
-0.004119 0.001712 0.000000
0.001712 0.022019 0.000000
0.000000 0.000000 0.000000
0.010765 0.011525 0.000000
0.011525 -0.018780 0.000000
0.000000 0.000000 0.000000
0.002463 0.011351 0.000000
0.011351 0.023133 0.000000
0.000000 0.000000 0.000000
-0.007002 0.000526 0.000000
0.000526 0.003657 0.000000
0.000000 0.000000 0.000000
-0.005100 -0.003069 0.000000
-0.003069 -0.011623 0.000000
0.000000 0.000000 0.000000
0.002020 0.001024 0.000000
0.001024 0.003994 0.000000
0.000000 0.000000 0.000000
0.011884 0.012982 0.000000
0.012982 0.004286 0.000000
0.000000 0.000000 0.000000
0.011236 0.007428 0.000000
0.007428 -0.011555 0.000000
0.000000 0.000000 0.000000
0.009775 -0.017044 0.000000
-0.017044 -0.006805 0.000000
0.000000 0.000000 0.000000
-0.009260 0.007889 0.000000
0.007889 0.000753 0.000000
0.000000 0.000000 0.000000
0.013513 -0.000420 0.000000
-0.000420 0.005640 0.000000
0.000000 0.000000 0.000000
0.014281 -0.007422 0.000000
-0.007422 0.011241 0.000000
0.000000 0.000000 0.000000
0.001346 -0.000102 0.000000
-0.000102 0.003697 0.000000
0.000000 0.000000 0.000000
0.005148 -0.004861 0.000000
-0.004861 0.001712 0.000000
0.000000 0.000000 0.000000
0.041781 -0.019082 0.000000
-0.019082 -0.024565 0.000000
0.000000 0.000000 0.000000
0.004097 0.006956 0.000000
0.006956 -0.016350 0.000000
0.000000 0.000000 0.000000
-0.001352 -0.010116 0.000000
-0.010116 -0.002039 0.000000
0.000000 0.000000 0.000000
0.004175 0.005047 0.000000
0.005047 -0.013716 0.000000
0.000000 0.000000 0.000000
0.013539 0.004984 0.000000
0.004984 0.001452 0.000000
0.000000 0.000000 0.000000
-0.008877 -0.000163 0.000000
-0.000163 -0.005123 0.000000
0.000000 0.000000 0.000000
-0.006955 0.003875 0.000000
0.003875 -0.011959 0.000000
0.000000 0.000000 0.000000
-0.028443 -0.009100 0.000000
-0.009100 -0.012047 0.000000
0.000000 0.000000 0.000000
-0.014730 0.007364 0.000000
0.007364 -0.001492 0.000000
0.000000 0.000000 0.000000
0.004446 -0.003548 0.000000
-0.003548 -0.019611 0.000000
0.000000 0.000000 0.000000
-0.028441 0.024976 0.000000
0.024976 0.007434 0.000000
0.000000 0.000000 0.000000
0.013873 0.006706 0.000000
0.006706 0.006821 0.000000
0.000000 0.000000 0.000000
0.001542 0.002512 0.000000
0.002512 0.012778 0.000000
0.000000 0.000000 0.000000
0.001207 -0.008228 0.000000
-0.008228 -0.000430 0.000000
0.000000 0.000000 0.000000
-0.004092 0.000246 0.000000
0.000246 0.000622 0.000000
0.000000 0.000000 0.000000
-0.001734 -0.000732 0.000000
-0.000732 0.010120 0.000000
0.000000 0.000000 0.000000
-0.000347 0.001407 0.000000
0.001407 0.023137 0.000000
0.000000 0.000000 0.000000
0.002312 -0.000315 0.000000
-0.000315 0.005630 0.000000
0.000000 0.000000 0.000000
-0.002355 -0.003132 0.000000
-0.003132 0.002983 0.000000
0.000000 0.000000 0.000000
0.001756 0.000136 0.000000
0.000136 0.001964 0.000000
0.000000 0.000000 0.000000
-0.001260 0.005998 0.000000
0.005998 -0.009946 0.000000
0.000000 0.000000 0.000000
0.006668 0.001723 0.000000
0.001723 -0.012700 0.000000
0.000000 0.000000 0.000000
0.005606 0.005153 0.000000
0.005153 0.010128 0.000000
0.000000 0.000000 0.000000
-0.009090 -0.004236 0.000000
-0.004236 -0.005220 0.000000
0.000000 0.000000 0.000000
0.002836 -0.000187 0.000000
-0.000187 -0.000050 0.000000
0.000000 0.000000 0.000000
-0.002188 0.016204 0.000000
0.016204 -0.020358 0.000000
0.000000 0.000000 0.000000
-0.015980 0.008479 0.000000
0.008479 0.018690 0.000000
0.000000 0.000000 0.000000
-0.003663 0.007564 0.000000
0.007564 0.000938 0.000000
0.000000 0.000000 0.000000
0.002996 -0.002321 0.000000
-0.002321 0.004882 0.000000
0.000000 0.000000 0.000000
-0.009027 0.003733 0.000000
0.003733 -0.002187 0.000000
0.000000 0.000000 0.000000
0.008012 -0.001883 0.000000
-0.001883 0.008728 0.000000
0.000000 0.000000 0.000000
-0.004219 0.001447 0.000000
0.001447 0.013260 0.000000
0.000000 0.000000 0.000000
-0.019305 0.000656 0.000000
0.000656 0.002329 0.000000
0.000000 0.000000 0.000000
-0.007110 0.001220 0.000000
0.001220 -0.001846 0.000000
0.000000 0.000000 0.000000
-0.010686 -0.051959 0.000000
-0.051959 -0.006358 0.000000
0.000000 0.000000 0.000000
-0.007852 -0.022145 0.000000
-0.022145 -0.028105 0.000000
0.000000 0.000000 0.000000
0.001768 0.001535 0.000000
0.001535 -0.012219 0.000000
0.000000 0.000000 0.000000
0.008269 -0.033658 0.000000
-0.033658 0.035961 0.000000
0.000000 0.000000 0.000000
-0.008767 -0.011345 0.000000
-0.011345 0.007295 0.000000
0.000000 0.000000 0.000000
0.005107 -0.006816 0.000000
-0.006816 0.001220 0.000000
0.000000 0.000000 0.000000
0.017438 -0.005286 0.000000
-0.005286 0.002877 0.000000
0.000000 0.000000 0.000000
-0.011667 -0.000102 0.000000
-0.000102 -0.009358 0.000000
0.000000 0.000000 0.000000
-0.000827 -0.000776 0.000000
-0.000776 0.014066 0.000000
0.000000 0.000000 0.000000
-0.013535 -0.003868 0.000000
-0.003868 0.009927 0.000000
0.000000 0.000000 0.000000
-0.010393 0.007596 0.000000
0.007596 -0.028049 0.000000
0.000000 0.000000 0.000000
0.004118 -0.002674 0.000000
-0.002674 -0.007531 0.000000
0.000000 0.000000 0.000000
-0.008977 -0.002045 0.000000
-0.002045 0.003230 0.000000
0.000000 0.000000 0.000000
0.005276 -0.002932 0.000000
-0.002932 0.005769 0.000000
0.000000 0.000000 0.000000
-0.011871 0.014457 0.000000
0.014457 -0.004320 0.000000
0.000000 0.000000 0.000000
0.000217 0.000095 0.000000
0.000095 -0.000433 0.000000
0.000000 0.000000 0.000000
0.004802 0.008670 0.000000
0.008670 -0.004441 0.000000
0.000000 0.000000 0.000000
0.019591 0.022274 0.000000
0.022274 0.006117 0.000000
0.000000 0.000000 0.000000
0.010454 0.011056 0.000000
0.011056 -0.012459 0.000000
0.000000 0.000000 0.000000
-0.008184 -0.000854 0.000000
-0.000854 -0.020183 0.000000
0.000000 0.000000 0.000000
-0.002967 0.002174 0.000000
0.002174 0.001496 0.000000
0.000000 0.000000 0.000000
-0.002801 -0.000785 0.000000
-0.000785 -0.010345 0.000000
0.000000 0.000000 0.000000
0.000212 0.001000 0.000000
0.001000 0.005630 0.000000
0.000000 0.000000 0.000000
0.013358 -0.011107 0.000000
-0.011107 0.040000 0.000000
0.000000 0.000000 0.000000
0.005378 -0.006647 0.000000
-0.006647 0.031932 0.000000
0.000000 0.000000 0.000000
-0.009376 -0.005931 0.000000
-0.005931 -0.005240 0.000000
0.000000 0.000000 0.000000
0.012832 -0.002977 0.000000
-0.002977 -0.000799 0.000000
0.000000 0.000000 0.000000
0.003082 -0.004340 0.000000
-0.004340 0.022187 0.000000
0.000000 0.000000 0.000000
-0.006290 0.004124 0.000000
0.004124 0.005211 0.000000
0.000000 0.000000 0.000000
0.012622 0.025170 0.000000
0.025170 -0.014576 0.000000
0.000000 0.000000 0.000000
0.001472 -0.000732 0.000000
-0.000732 0.002476 0.000000
0.000000 0.000000 0.000000
-0.028110 0.005360 0.000000
0.005360 0.000437 0.000000
0.000000 0.000000 0.000000
0.009065 0.006474 0.000000
0.006474 -0.016378 0.000000
0.000000 0.000000 0.000000
-0.002469 0.003283 0.000000
0.003283 0.000689 0.000000
0.000000 0.000000 0.000000
-0.008111 0.036243 0.000000
0.036243 -0.002309 0.000000
0.000000 0.000000 0.000000
0.009674 0.000869 0.000000
0.000869 -0.007305 0.000000
0.000000 0.000000 0.000000
0.001377 -0.004099 0.000000
-0.004099 0.002638 0.000000
0.000000 0.000000 0.000000
-0.012091 -0.006988 0.000000
-0.006988 -0.009954 0.000000
0.000000 0.000000 0.000000
0.010496 -0.004326 0.000000
-0.004326 0.004356 0.000000
0.000000 0.000000 0.000000
0.023213 -0.009670 0.000000
-0.009670 -0.043281 0.000000
0.000000 0.000000 0.000000
-0.013799 -0.003644 0.000000
-0.003644 -0.011751 0.000000
0.000000 0.000000 0.000000
-0.000768 0.004648 0.000000
0.004648 -0.002424 0.000000
0.000000 0.000000 0.000000
0.000262 -0.001168 0.000000
-0.001168 -0.010297 0.000000
0.000000 0.000000 0.000000
-0.008918 0.002452 0.000000
0.002452 -0.002312 0.000000
0.000000 0.000000 0.000000
0.000392 -0.002033 0.000000
-0.002033 0.003362 0.000000
0.000000 0.000000 0.000000
-0.012274 0.007697 0.000000
0.007697 -0.013964 0.000000
0.000000 0.000000 0.000000
-0.003413 0.001218 0.000000
0.001218 -0.005076 0.000000
0.000000 0.000000 0.000000
-0.008274 0.001815 0.000000
0.001815 0.001495 0.000000
0.000000 0.000000 0.000000
-0.000866 -0.001776 0.000000
-0.001776 -0.002142 0.000000
0.000000 0.000000 0.000000
-0.006647 0.003716 0.000000
0.003716 0.003845 0.000000
0.000000 0.000000 0.000000
-0.006058 -0.000376 0.000000
-0.000376 -0.013907 0.000000
0.000000 0.000000 0.000000
-0.000714 0.000480 0.000000
0.000480 -0.002379 0.000000
0.000000 0.000000 0.000000
0.036382 -0.034485 0.000000
-0.034485 0.010726 0.000000
0.000000 0.000000 0.000000
-0.044030 -0.011482 0.000000
-0.011482 -0.026572 0.000000
0.000000 0.000000 0.000000
-0.001226 -0.002514 0.000000
-0.002514 -0.010418 0.000000
0.000000 0.000000 0.000000
-0.032824 -0.013469 0.000000
-0.013469 0.064181 0.000000
0.000000 0.000000 0.000000
0.004132 -0.004553 0.000000
-0.004553 0.028558 0.000000
0.000000 0.000000 0.000000
-0.010159 0.001887 0.000000
0.001887 -0.022819 0.000000
0.000000 0.000000 0.000000
-0.010421 -0.002436 0.000000
-0.002436 -0.026698 0.000000
0.000000 0.000000 0.000000
-0.003650 -0.003957 0.000000
-0.003957 0.007248 0.000000
0.000000 0.000000 0.000000
-0.005143 -0.006346 0.000000
-0.006346 -0.001922 0.000000
0.000000 0.000000 0.000000
0.007042 0.006200 0.000000
0.006200 0.015869 0.000000
0.000000 0.000000 0.000000
0.006352 -0.002072 0.000000
-0.002072 0.006561 0.000000
0.000000 0.000000 0.000000
-0.004745 0.000879 0.000000
0.000879 -0.000364 0.000000
0.000000 0.000000 0.000000
-0.006157 0.010689 0.000000
0.010689 -0.010320 0.000000
0.000000 0.000000 0.000000
0.007399 0.010434 0.000000
0.010434 0.021394 0.000000
0.000000 0.000000 0.000000
-0.018615 -0.017301 0.000000
-0.017301 -0.025008 0.000000
0.000000 0.000000 0.000000
0.008141 0.020251 0.000000
0.020251 -0.004174 0.000000
0.000000 0.000000 0.000000
-0.006210 0.007727 0.000000
0.007727 0.016364 0.000000
0.000000 0.000000 0.000000
-0.012928 -0.001638 0.000000
-0.001638 -0.022731 0.000000
0.000000 0.000000 0.000000
0.012788 0.008944 0.000000
0.008944 0.005124 0.000000
0.000000 0.000000 0.000000
0.017491 0.005684 0.000000
0.005684 0.013248 0.000000
0.000000 0.000000 0.000000
-0.009625 0.000855 0.000000
0.000855 0.005376 0.000000
0.000000 0.000000 0.000000
-0.016850 0.001978 0.000000
0.001978 -0.030577 0.000000
0.000000 0.000000 0.000000
-0.004256 0.002461 0.000000
0.002461 0.003751 0.000000
0.000000 0.000000 0.000000
0.008454 0.007326 0.000000
0.007326 -0.002281 0.000000
0.000000 0.000000 0.000000
0.024588 0.009319 0.000000
0.009319 0.018239 0.000000
0.000000 0.000000 0.000000
0.010683 -0.008791 0.000000
-0.008791 0.010274 0.000000
0.000000 0.000000 0.000000
-0.010428 0.002171 0.000000
0.002171 0.002039 0.000000
0.000000 0.000000 0.000000
0.000847 -0.000241 0.000000
-0.000241 0.006906 0.000000
0.000000 0.000000 0.000000
0.005000 -0.000508 0.000000
-0.000508 -0.004038 0.000000
0.000000 0.000000 0.000000
-0.005939 -0.001848 0.000000
-0.001848 0.010188 0.000000
0.000000 0.000000 0.000000
-0.006862 0.011746 0.000000
0.011746 -0.000097 0.000000
0.000000 0.000000 0.000000
0.000393 -0.004065 0.000000
-0.004065 0.011577 0.000000
0.000000 0.000000 0.000000
-0.000740 -0.006169 0.000000
-0.006169 0.004232 0.000000
0.000000 0.000000 0.000000
0.002731 0.001160 0.000000
0.001160 0.004712 0.000000
0.000000 0.000000 0.000000
-0.013907 0.000968 0.000000
0.000968 -0.030467 0.000000
0.000000 0.000000 0.000000
-0.001777 0.004862 0.000000
0.004862 -0.012684 0.000000
0.000000 0.000000 0.000000
-0.014481 0.003052 0.000000
0.003052 -0.007488 0.000000
0.000000 0.000000 0.000000
-0.003440 0.000313 0.000000
0.000313 0.010795 0.000000
0.000000 0.000000 0.000000
-0.016080 0.003404 0.000000
0.003404 -0.008115 0.000000
0.000000 0.000000 0.000000
-0.012107 0.001444 0.000000
0.001444 0.003730 0.000000
0.000000 0.000000 0.000000
0.003740 -0.000636 0.000000
-0.000636 0.002190 0.000000
0.000000 0.000000 0.000000
0.000502 0.002400 0.000000
0.002400 -0.002735 0.000000
0.000000 0.000000 0.000000
-0.008887 0.010172 0.000000
0.010172 -0.010856 0.000000
0.000000 0.000000 0.000000
-0.011672 -0.004902 0.000000
-0.004902 0.002264 0.000000
0.000000 0.000000 0.000000
-0.005807 -0.004644 0.000000
-0.004644 -0.010260 0.000000
0.000000 0.000000 0.000000
0.020315 0.007448 0.000000
0.007448 0.005582 0.000000
0.000000 0.000000 0.000000
-0.008900 0.000514 0.000000
0.000514 0.001666 0.000000
0.000000 0.000000 0.000000
0.002117 0.008555 0.000000
0.008555 0.040330 0.000000
0.000000 0.000000 0.000000
0.000432 0.000716 0.000000
0.000716 -0.005556 0.000000
0.000000 0.000000 0.000000
0.005541 -0.002579 0.000000
-0.002579 0.007012 0.000000
0.000000 0.000000 0.000000
-0.015793 0.004768 0.000000
0.004768 -0.042495 0.000000
0.000000 0.000000 0.000000
0.026993 -0.000288 0.000000
-0.000288 0.007354 0.000000
0.000000 0.000000 0.000000
-0.011040 -0.009540 0.000000
-0.009540 -0.008285 0.000000
0.000000 0.000000 0.000000
0.006901 -0.004257 0.000000
-0.004257 -0.001987 0.000000
0.000000 0.000000 0.000000
0.000558 -0.002006 0.000000
-0.002006 0.002382 0.000000
0.000000 0.000000 0.000000
-0.008745 -0.001652 0.000000
-0.001652 -0.003147 0.000000
0.000000 0.000000 0.000000
0.008748 -0.005785 0.000000
-0.005785 -0.011595 0.000000
0.000000 0.000000 0.000000
0.019923 0.003357 0.000000
0.003357 -0.003565 0.000000
0.000000 0.000000 0.000000
0.013679 0.001835 0.000000
0.001835 0.003862 0.000000
0.000000 0.000000 0.000000
-0.003308 -0.001546 0.000000
-0.001546 -0.004052 0.000000
0.000000 0.000000 0.000000
-0.003686 -0.002333 0.000000
-0.002333 -0.009864 0.000000
0.000000 0.000000 0.000000
-0.005903 0.003471 0.000000
0.003471 0.014140 0.000000
0.000000 0.000000 0.000000
-0.005384 0.003853 0.000000
0.003853 0.015523 0.000000
0.000000 0.000000 0.000000
0.014576 -0.006105 0.000000
-0.006105 -0.016464 0.000000
0.000000 0.000000 0.000000
-0.003640 -0.013295 0.000000
-0.013295 0.007214 0.000000
0.000000 0.000000 0.000000
-0.002561 0.001653 0.000000
0.001653 -0.003569 0.000000
0.000000 0.000000 0.000000
0.003585 0.000198 0.000000
0.000198 -0.001896 0.000000
0.000000 0.000000 0.000000
0.002493 0.001342 0.000000
0.001342 0.004049 0.000000
0.000000 0.000000 0.000000
0.000274 0.002953 0.000000
0.002953 0.003028 0.000000
0.000000 0.000000 0.000000
-0.000260 0.006782 0.000000
0.006782 -0.013719 0.000000
0.000000 0.000000 0.000000
0.001745 0.002842 0.000000
0.002842 -0.010097 0.000000
0.000000 0.000000 0.000000
-0.016721 0.006202 0.000000
0.006202 -0.018245 0.000000
0.000000 0.000000 0.000000
-0.004622 -0.001580 0.000000
-0.001580 -0.001143 0.000000
0.000000 0.000000 0.000000
0.015162 -0.003560 0.000000
-0.003560 -0.016400 0.000000
0.000000 0.000000 0.000000
-0.003352 0.004736 0.000000
0.004736 0.002949 0.000000
0.000000 0.000000 0.000000
-0.004304 0.011641 0.000000
0.011641 -0.006065 0.000000
0.000000 0.000000 0.000000
0.003998 -0.000257 0.000000
-0.000257 0.003663 0.000000
0.000000 0.000000 0.000000
-0.007443 -0.009835 0.000000
-0.009835 -0.006802 0.000000
0.000000 0.000000 0.000000
-0.000192 -0.001641 0.000000
-0.001641 0.001463 0.000000
0.000000 0.000000 0.000000
0.003656 -0.003448 0.000000
-0.003448 0.006688 0.000000
0.000000 0.000000 0.000000
-0.003756 -0.000416 0.000000
-0.000416 0.004647 0.000000
0.000000 0.000000 0.000000
0.004315 0.000871 0.000000
0.000871 -0.003140 0.000000
0.000000 0.000000 0.000000
-0.007668 0.001925 0.000000
0.001925 -0.004188 0.000000
0.000000 0.000000 0.000000
-0.012170 0.001909 0.000000
0.001909 0.003703 0.000000
0.000000 0.000000 0.000000
0.002532 0.008255 0.000000
0.008255 0.012492 0.000000
0.000000 0.000000 0.000000
-0.004765 -0.016672 0.000000
-0.016672 -0.007487 0.000000
0.000000 0.000000 0.000000
0.003315 -0.023771 0.000000
-0.023771 0.016355 0.000000
0.000000 0.000000 0.000000
-0.000389 -0.002198 0.000000
-0.002198 0.002278 0.000000
0.000000 0.000000 0.000000
-0.003646 0.010027 0.000000
0.010027 0.008604 0.000000
0.000000 0.000000 0.000000
-0.006708 -0.000030 0.000000
-0.000030 -0.013181 0.000000
0.000000 0.000000 0.000000
0.018876 -0.000111 0.000000
-0.000111 0.007914 0.000000
0.000000 0.000000 0.000000
-0.002040 -0.002095 0.000000
-0.002095 0.001072 0.000000
0.000000 0.000000 0.000000
-0.001309 0.009277 0.000000
0.009277 -0.004611 0.000000
0.000000 0.000000 0.000000
-0.003097 0.002042 0.000000
0.002042 -0.004131 0.000000
0.000000 0.000000 0.000000
0.007181 -0.004759 0.000000
-0.004759 0.005708 0.000000
0.000000 0.000000 0.000000
-0.003618 0.002252 0.000000
0.002252 -0.006461 0.000000
0.000000 0.000000 0.000000
-0.005799 -0.006983 0.000000
-0.006983 -0.001783 0.000000
0.000000 0.000000 0.000000
-0.003207 -0.003419 0.000000
-0.003419 -0.014615 0.000000
0.000000 0.000000 0.000000
0.002114 -0.001451 0.000000
-0.001451 0.001180 0.000000
0.000000 0.000000 0.000000
-0.003507 0.001381 0.000000
0.001381 -0.020868 0.000000
0.000000 0.000000 0.000000
-0.002365 -0.005969 0.000000
-0.005969 0.004287 0.000000
0.000000 0.000000 0.000000
-0.004215 -0.006217 0.000000
-0.006217 -0.001824 0.000000
0.000000 0.000000 0.000000
0.001565 -0.001980 0.000000
-0.001980 -0.004864 0.000000
0.000000 0.000000 0.000000
0.025440 -0.005234 0.000000
-0.005234 -0.008605 0.000000
0.000000 0.000000 0.000000
-0.000477 0.009355 0.000000
0.009355 0.010044 0.000000
0.000000 0.000000 0.000000
-0.003622 -0.005483 0.000000
-0.005483 -0.002974 0.000000
0.000000 0.000000 0.000000
-0.003586 -0.004516 0.000000
-0.004516 -0.008408 0.000000
0.000000 0.000000 0.000000
0.001583 -0.005411 0.000000
-0.005411 -0.005239 0.000000
0.000000 0.000000 0.000000
-0.005732 0.005970 0.000000
0.005970 0.016327 0.000000
0.000000 0.000000 0.000000
0.004651 -0.008994 0.000000
-0.008994 0.004869 0.000000
0.000000 0.000000 0.000000
0.000424 0.002158 0.000000
0.002158 0.019522 0.000000
0.000000 0.000000 0.000000
0.005315 -0.011070 0.000000
-0.011070 0.004619 0.000000
0.000000 0.000000 0.000000
0.002499 -0.004830 0.000000
-0.004830 0.008600 0.000000
0.000000 0.000000 0.000000
-0.001583 -0.001049 0.000000
-0.001049 0.007444 0.000000
0.000000 0.000000 0.000000
0.004309 -0.006183 0.000000
-0.006183 0.017262 0.000000
0.000000 0.000000 0.000000
-0.003938 -0.006364 0.000000
-0.006364 0.004114 0.000000
0.000000 0.000000 0.000000
0.009315 -0.004317 0.000000
-0.004317 0.009652 0.000000
0.000000 0.000000 0.000000
-0.016360 0.008570 0.000000
0.008570 -0.014103 0.000000
0.000000 0.000000 0.000000
0.005625 -0.002920 0.000000
-0.002920 -0.003521 0.000000
0.000000 0.000000 0.000000
0.040778 0.004827 0.000000
0.004827 0.001411 0.000000
0.000000 0.000000 0.000000
-0.001820 0.000683 0.000000
0.000683 -0.012337 0.000000
0.000000 0.000000 0.000000
0.016922 -0.013492 0.000000
-0.013492 0.007435 0.000000
0.000000 0.000000 0.000000
-0.002657 -0.023103 0.000000
-0.023103 -0.001988 0.000000
0.000000 0.000000 0.000000
-0.001307 0.001632 0.000000
0.001632 0.002945 0.000000
0.000000 0.000000 0.000000
-0.009600 0.001487 0.000000
0.001487 0.006922 0.000000
0.000000 0.000000 0.000000
-0.009600 -0.007437 0.000000
-0.007437 -0.007367 0.000000
0.000000 0.000000 0.000000
0.001559 -0.001115 0.000000
-0.001115 0.008420 0.000000
0.000000 0.000000 0.000000
0.036178 0.016759 0.000000
0.016759 0.010146 0.000000
0.000000 0.000000 0.000000
0.000864 0.014653 0.000000
0.014653 0.007379 0.000000
0.000000 0.000000 0.000000
0.002752 -0.000408 0.000000
-0.000408 0.011831 0.000000
0.000000 0.000000 0.000000
0.021437 -0.008783 0.000000
-0.008783 0.021878 0.000000
0.000000 0.000000 0.000000
-0.012206 -0.002096 0.000000
-0.002096 -0.007490 0.000000
0.000000 0.000000 0.000000
0.014859 -0.005483 0.000000
-0.005483 -0.000530 0.000000
0.000000 0.000000 0.000000
0.012860 -0.000089 0.000000
-0.000089 0.029227 0.000000
0.000000 0.000000 0.000000
0.001514 -0.001796 0.000000
-0.001796 0.005296 0.000000
0.000000 0.000000 0.000000
0.004210 0.000239 0.000000
0.000239 0.004573 0.000000
0.000000 0.000000 0.000000
-0.006906 0.026646 0.000000
0.026646 -0.007993 0.000000
0.000000 0.000000 0.000000
0.012477 0.013505 0.000000
0.013505 0.011170 0.000000
0.000000 0.000000 0.000000
0.007715 0.009665 0.000000
0.009665 -0.003343 0.000000
0.000000 0.000000 0.000000
-0.002517 -0.002057 0.000000
-0.002057 0.010227 0.000000
0.000000 0.000000 0.000000
-0.016062 -0.009771 0.000000
-0.009771 0.003594 0.000000
0.000000 0.000000 0.000000
-0.010840 0.005197 0.000000
0.005197 -0.011247 0.000000
0.000000 0.000000 0.000000
-0.000848 0.003681 0.000000
0.003681 -0.018575 0.000000
0.000000 0.000000 0.000000
0.007571 -0.009551 0.000000
-0.009551 0.003642 0.000000
0.000000 0.000000 0.000000
0.002705 0.036098 0.000000
0.036098 0.007612 0.000000
0.000000 0.000000 0.000000
-0.007959 -0.001055 0.000000
-0.001055 0.003096 0.000000
0.000000 0.000000 0.000000
-0.006913 0.001642 0.000000
0.001642 0.016702 0.000000
0.000000 0.000000 0.000000
-0.003998 0.000251 0.000000
0.000251 0.003850 0.000000
0.000000 0.000000 0.000000
0.007937 -0.012203 0.000000
-0.012203 -0.005399 0.000000
0.000000 0.000000 0.000000
0.001485 -0.000137 0.000000
-0.000137 -0.015717 0.000000
0.000000 0.000000 0.000000
0.005029 -0.010801 0.000000
-0.010801 -0.007618 0.000000
0.000000 0.000000 0.000000
-0.023804 -0.001718 0.000000
-0.001718 -0.020540 0.000000
0.000000 0.000000 0.000000
0.004369 0.004378 0.000000
0.004378 -0.002889 0.000000
0.000000 0.000000 0.000000
0.008569 0.010300 0.000000
0.010300 -0.011649 0.000000
0.000000 0.000000 0.000000
0.007312 0.036845 0.000000
0.036845 0.001666 0.000000
0.000000 0.000000 0.000000
0.001908 0.001672 0.000000
0.001672 -0.008818 0.000000
0.000000 0.000000 0.000000
0.014955 -0.002317 0.000000
-0.002317 -0.013323 0.000000
0.000000 0.000000 0.000000
0.001343 0.001386 0.000000
0.001386 -0.008836 0.000000
0.000000 0.000000 0.000000
-0.005763 -0.000953 0.000000
-0.000953 0.017077 0.000000
0.000000 0.000000 0.000000
-0.019960 0.005681 0.000000
0.005681 -0.004448 0.000000
0.000000 0.000000 0.000000
0.000667 -0.001308 0.000000
-0.001308 -0.004002 0.000000
0.000000 0.000000 0.000000
-0.001721 0.001618 0.000000
0.001618 -0.005834 0.000000
0.000000 0.000000 0.000000
-0.017470 -0.014247 0.000000
-0.014247 0.003757 0.000000
0.000000 0.000000 0.000000
-0.003237 0.005361 0.000000
0.005361 -0.021687 0.000000
0.000000 0.000000 0.000000
0.007747 -0.004050 0.000000
-0.004050 -0.004407 0.000000
0.000000 0.000000 0.000000
-0.006428 0.005728 0.000000
0.005728 -0.033208 0.000000
0.000000 0.000000 0.000000
-0.007264 -0.003632 0.000000
-0.003632 -0.011985 0.000000
0.000000 0.000000 0.000000
-0.008660 0.005419 0.000000
0.005419 0.009305 0.000000
0.000000 0.000000 0.000000
-0.006211 -0.004571 0.000000
-0.004571 -0.012198 0.000000
0.000000 0.000000 0.000000
-0.003884 0.003201 0.000000
0.003201 -0.006508 0.000000
0.000000 0.000000 0.000000
-0.012741 -0.000938 0.000000
-0.000938 -0.010665 0.000000
0.000000 0.000000 0.000000
-0.018524 -0.004630 0.000000
-0.004630 0.006118 0.000000
0.000000 0.000000 0.000000
-0.017694 -0.004060 0.000000
-0.004060 -0.007300 0.000000
0.000000 0.000000 0.000000
0.001487 -0.012527 0.000000
-0.012527 0.020040 0.000000
0.000000 0.000000 0.000000
-0.009079 -0.002702 0.000000
-0.002702 0.000518 0.000000
0.000000 0.000000 0.000000
0.004937 -0.002875 0.000000
-0.002875 0.020626 0.000000
0.000000 0.000000 0.000000
-0.005398 -0.007119 0.000000
-0.007119 0.004734 0.000000
0.000000 0.000000 0.000000
0.001572 0.000774 0.000000
0.000774 0.000675 0.000000
0.000000 0.000000 0.000000
-0.003002 0.001093 0.000000
0.001093 -0.008098 0.000000
0.000000 0.000000 0.000000
-0.012070 -0.001262 0.000000
-0.001262 -0.019863 0.000000
0.000000 0.000000 0.000000
-0.006925 0.004952 0.000000
0.004952 -0.029558 0.000000
0.000000 0.000000 0.000000
-0.007061 -0.005198 0.000000
-0.005198 0.002689 0.000000
0.000000 0.000000 0.000000
-0.000741 0.007079 0.000000
0.007079 0.008813 0.000000
0.000000 0.000000 0.000000
-0.005957 0.007824 0.000000
0.007824 0.001672 0.000000
0.000000 0.000000 0.000000
-0.015832 -0.000485 0.000000
-0.000485 0.003414 0.000000
0.000000 0.000000 0.000000
-0.004151 0.002715 0.000000
0.002715 0.001945 0.000000
0.000000 0.000000 0.000000
-0.003829 -0.004107 0.000000
-0.004107 0.006973 0.000000
0.000000 0.000000 0.000000
-0.001573 -0.006961 0.000000
-0.006961 0.001707 0.000000
0.000000 0.000000 0.000000
-0.022568 -0.042336 0.000000
-0.042336 0.006740 0.000000
0.000000 0.000000 0.000000
-0.009392 0.004569 0.000000
0.004569 -0.018190 0.000000
0.000000 0.000000 0.000000
0.013729 0.001873 0.000000
0.001873 -0.011874 0.000000
0.000000 0.000000 0.000000
-0.006962 0.002554 0.000000
0.002554 0.007926 0.000000
0.000000 0.000000 0.000000
0.015108 -0.001356 0.000000
-0.001356 0.007085 0.000000
0.000000 0.000000 0.000000
-0.003466 0.002522 0.000000
0.002522 0.017568 0.000000
0.000000 0.000000 0.000000
-0.017015 0.011182 0.000000
0.011182 0.003941 0.000000
0.000000 0.000000 0.000000
-0.002090 -0.004998 0.000000
-0.004998 0.000351 0.000000
0.000000 0.000000 0.000000
0.006781 -0.002589 0.000000
-0.002589 0.002284 0.000000
0.000000 0.000000 0.000000
0.015854 -0.010111 0.000000
-0.010111 0.013306 0.000000
0.000000 0.000000 0.000000
0.013220 -0.000128 0.000000
-0.000128 -0.008684 0.000000
0.000000 0.000000 0.000000
-0.001433 0.020667 0.000000
0.020667 -0.008902 0.000000
0.000000 0.000000 0.000000
-0.015429 -0.000388 0.000000
-0.000388 -0.027068 0.000000
0.000000 0.000000 0.000000
0.009390 0.003552 0.000000
0.003552 0.010609 0.000000
0.000000 0.000000 0.000000
0.004030 -0.000304 0.000000
-0.000304 0.002852 0.000000
0.000000 0.000000 0.000000
0.008879 0.000770 0.000000
0.000770 0.002935 0.000000
0.000000 0.000000 0.000000
-0.008371 0.012429 0.000000
0.012429 -0.021546 0.000000
0.000000 0.000000 0.000000
-0.004316 0.009565 0.000000
0.009565 0.010717 0.000000
0.000000 0.000000 0.000000
-0.000388 0.001463 0.000000
0.001463 -0.009586 0.000000
0.000000 0.000000 0.000000
-0.017431 0.000317 0.000000
0.000317 0.005656 0.000000
0.000000 0.000000 0.000000
0.021366 -0.009543 0.000000
-0.009543 -0.010739 0.000000
0.000000 0.000000 0.000000
-0.003984 0.012987 0.000000
0.012987 -0.012053 0.000000
0.000000 0.000000 0.000000
0.026073 -0.006025 0.000000
-0.006025 0.000290 0.000000
0.000000 0.000000 0.000000
-0.002263 -0.003776 0.000000
-0.003776 -0.005108 0.000000
0.000000 0.000000 0.000000
-0.004239 0.004013 0.000000
0.004013 -0.005118 0.000000
0.000000 0.000000 0.000000
0.007058 0.006227 0.000000
0.006227 -0.004710 0.000000
0.000000 0.000000 0.000000
-0.001175 -0.000855 0.000000
-0.000855 -0.004409 0.000000
0.000000 0.000000 0.000000
-0.006512 -0.006108 0.000000
-0.006108 -0.023123 0.000000
0.000000 0.000000 0.000000
0.006171 0.003312 0.000000
0.003312 0.011105 0.000000
0.000000 0.000000 0.000000
0.002724 -0.000029 0.000000
-0.000029 0.009803 0.000000
0.000000 0.000000 0.000000
0.007519 0.002742 0.000000
0.002742 0.011032 0.000000
0.000000 0.000000 0.000000
0.003002 0.008297 0.000000
0.008297 0.004072 0.000000
0.000000 0.000000 0.000000
0.010471 0.002120 0.000000
0.002120 0.015906 0.000000
0.000000 0.000000 0.000000
-0.029501 0.004076 0.000000
0.004076 -0.003282 0.000000
0.000000 0.000000 0.000000
-0.006650 0.006588 0.000000
0.006588 0.001312 0.000000
0.000000 0.000000 0.000000
-0.030121 -0.000690 0.000000
-0.000690 -0.015345 0.000000
0.000000 0.000000 0.000000
-0.004628 0.001214 0.000000
0.001214 -0.007087 0.000000
0.000000 0.000000 0.000000
-0.005193 0.006160 0.000000
0.006160 -0.000600 0.000000
0.000000 0.000000 0.000000
0.002801 -0.016071 0.000000
-0.016071 0.011059 0.000000
0.000000 0.000000 0.000000
-0.004232 -0.003833 0.000000
-0.003833 0.011920 0.000000
0.000000 0.000000 0.000000
0.002388 -0.002571 0.000000
-0.002571 0.016229 0.000000
0.000000 0.000000 0.000000
0.000608 0.003120 0.000000
0.003120 0.011379 0.000000
0.000000 0.000000 0.000000
-0.014730 0.004874 0.000000
0.004874 0.011985 0.000000
0.000000 0.000000 0.000000
0.022136 0.002370 0.000000
0.002370 -0.010684 0.000000
0.000000 0.000000 0.000000
-0.021372 -0.007183 0.000000
-0.007183 -0.003136 0.000000
0.000000 0.000000 0.000000
-0.006280 0.001745 0.000000
0.001745 0.003161 0.000000
0.000000 0.000000 0.000000
0.018294 -0.000720 0.000000
-0.000720 0.000602 0.000000
0.000000 0.000000 0.000000
-0.000676 -0.022655 0.000000
-0.022655 0.005630 0.000000
0.000000 0.000000 0.000000
-0.012396 -0.001282 0.000000
-0.001282 -0.010664 0.000000
0.000000 0.000000 0.000000
-0.012649 0.000730 0.000000
0.000730 -0.000755 0.000000
0.000000 0.000000 0.000000
0.015719 -0.003336 0.000000
-0.003336 -0.001357 0.000000
0.000000 0.000000 0.000000
0.004091 0.003186 0.000000
0.003186 -0.005040 0.000000
0.000000 0.000000 0.000000
0.004786 -0.002850 0.000000
-0.002850 -0.009241 0.000000
0.000000 0.000000 0.000000
-0.000490 0.000222 0.000000
0.000222 -0.014070 0.000000
0.000000 0.000000 0.000000
0.004873 -0.002321 0.000000
-0.002321 0.005901 0.000000
0.000000 0.000000 0.000000
0.003135 0.003129 0.000000
0.003129 0.003693 0.000000
0.000000 0.000000 0.000000
0.010358 -0.001392 0.000000
-0.001392 0.001470 0.000000
0.000000 0.000000 0.000000
-0.008672 0.004444 0.000000
0.004444 -0.034079 0.000000
0.000000 0.000000 0.000000
-0.009791 -0.004887 0.000000
-0.004887 -0.025154 0.000000
0.000000 0.000000 0.000000
-0.006186 -0.001242 0.000000
-0.001242 -0.024868 0.000000
0.000000 0.000000 0.000000
-0.009768 -0.008929 0.000000
-0.008929 -0.001907 0.000000
0.000000 0.000000 0.000000
-0.011668 -0.003671 0.000000
-0.003671 -0.028716 0.000000
0.000000 0.000000 0.000000
0.002631 0.006638 0.000000
0.006638 0.004589 0.000000
0.000000 0.000000 0.000000
0.012143 0.013822 0.000000
0.013822 0.014565 0.000000
0.000000 0.000000 0.000000
0.013099 0.013743 0.000000
0.013743 0.013515 0.000000
0.000000 0.000000 0.000000
0.006037 -0.000720 0.000000
-0.000720 -0.001483 0.000000
0.000000 0.000000 0.000000
0.016516 0.004523 0.000000
0.004523 0.010606 0.000000
0.000000 0.000000 0.000000
-0.011350 0.005557 0.000000
0.005557 0.013189 0.000000
0.000000 0.000000 0.000000
0.007599 0.002979 0.000000
0.002979 -0.005152 0.000000
0.000000 0.000000 0.000000
-0.024422 0.012765 0.000000
0.012765 0.008045 0.000000
0.000000 0.000000 0.000000
0.001763 -0.007428 0.000000
-0.007428 0.000920 0.000000
0.000000 0.000000 0.000000
-0.004032 0.002050 0.000000
0.002050 0.000371 0.000000
0.000000 0.000000 0.000000
-0.001549 -0.004913 0.000000
-0.004913 0.008010 0.000000
0.000000 0.000000 0.000000
-0.010104 -0.000595 0.000000
-0.000595 0.001137 0.000000
0.000000 0.000000 0.000000
0.009665 -0.009436 0.000000
-0.009436 -0.009797 0.000000
0.000000 0.000000 0.000000
0.000373 0.004459 0.000000
0.004459 0.022374 0.000000
0.000000 0.000000 0.000000
0.009595 0.002151 0.000000
0.002151 0.016678 0.000000
0.000000 0.000000 0.000000
0.001052 0.004030 0.000000
0.004030 -0.000287 0.000000
0.000000 0.000000 0.000000
0.009364 -0.001979 0.000000
-0.001979 0.010954 0.000000
0.000000 0.000000 0.000000
0.003621 -0.007132 0.000000
-0.007132 0.003354 0.000000
0.000000 0.000000 0.000000
-0.002455 0.000766 0.000000
0.000766 -0.018548 0.000000
0.000000 0.000000 0.000000
0.001596 0.006439 0.000000
0.006439 -0.016481 0.000000
0.000000 0.000000 0.000000
0.003969 0.003317 0.000000
0.003317 0.012597 0.000000
0.000000 0.000000 0.000000
-0.003816 -0.004369 0.000000
-0.004369 -0.027865 0.000000
0.000000 0.000000 0.000000
0.003091 -0.007690 0.000000
-0.007690 0.008017 0.000000
0.000000 0.000000 0.000000
0.004284 -0.011576 0.000000
-0.011576 0.013838 0.000000
0.000000 0.000000 0.000000
0.005519 -0.002164 0.000000
-0.002164 -0.006989 0.000000
0.000000 0.000000 0.000000
-0.000166 0.000284 0.000000
0.000284 -0.007614 0.000000
0.000000 0.000000 0.000000
-0.002583 0.002157 0.000000
0.002157 -0.005661 0.000000
0.000000 0.000000 0.000000
-0.014381 0.000081 0.000000
0.000081 0.006361 0.000000
0.000000 0.000000 0.000000
0.000479 -0.001464 0.000000
-0.001464 0.000715 0.000000
0.000000 0.000000 0.000000
-0.001287 -0.003861 0.000000
-0.003861 -0.006303 0.000000
0.000000 0.000000 0.000000
-0.001411 0.002618 0.000000
0.002618 -0.003668 0.000000
0.000000 0.000000 0.000000
-0.002345 0.002069 0.000000
0.002069 -0.001253 0.000000
0.000000 0.000000 0.000000
-0.014565 -0.002642 0.000000
-0.002642 0.000099 0.000000
0.000000 0.000000 0.000000
0.001133 0.002969 0.000000
0.002969 0.000052 0.000000
0.000000 0.000000 0.000000
0.000433 -0.000282 0.000000
-0.000282 0.003673 0.000000
0.000000 0.000000 0.000000
0.009156 -0.006891 0.000000
-0.006891 0.012585 0.000000
0.000000 0.000000 0.000000
-0.001818 0.010379 0.000000
0.010379 0.007965 0.000000
0.000000 0.000000 0.000000
-0.010264 0.007995 0.000000
0.007995 0.009210 0.000000
0.000000 0.000000 0.000000
0.000836 -0.002522 0.000000
-0.002522 0.017447 0.000000
0.000000 0.000000 0.000000
0.011414 0.002369 0.000000
0.002369 0.010273 0.000000
0.000000 0.000000 0.000000
0.004259 -0.001864 0.000000
-0.001864 0.011124 0.000000
0.000000 0.000000 0.000000
0.010915 0.003983 0.000000
0.003983 0.042132 0.000000
0.000000 0.000000 0.000000
0.010161 0.002467 0.000000
0.002467 0.003153 0.000000
0.000000 0.000000 0.000000
0.021655 -0.013131 0.000000
-0.013131 -0.003162 0.000000
0.000000 0.000000 0.000000
0.009841 -0.002761 0.000000
-0.002761 -0.006137 0.000000
0.000000 0.000000 0.000000
0.011640 -0.014991 0.000000
-0.014991 -0.000742 0.000000
0.000000 0.000000 0.000000
-0.032150 0.004837 0.000000
0.004837 0.003266 0.000000
0.000000 0.000000 0.000000
0.000993 0.019699 0.000000
0.019699 0.005662 0.000000
0.000000 0.000000 0.000000
-0.027607 -0.005030 0.000000
-0.005030 0.042191 0.000000
0.000000 0.000000 0.000000
-0.012148 -0.022415 0.000000
-0.022415 0.014002 0.000000
0.000000 0.000000 0.000000
0.001529 0.004553 0.000000
0.004553 -0.008656 0.000000
0.000000 0.000000 0.000000
-0.005352 -0.001235 0.000000
-0.001235 0.002439 0.000000
0.000000 0.000000 0.000000
0.006651 0.011079 0.000000
0.011079 0.014000 0.000000
0.000000 0.000000 0.000000
0.003128 -0.001610 0.000000
-0.001610 -0.005448 0.000000
0.000000 0.000000 0.000000
0.003559 -0.002037 0.000000
-0.002037 -0.007137 0.000000
0.000000 0.000000 0.000000
0.002131 -0.000834 0.000000
-0.000834 -0.006817 0.000000
0.000000 0.000000 0.000000
0.000040 -0.002935 0.000000
-0.002935 0.005437 0.000000
0.000000 0.000000 0.000000
0.012902 0.008518 0.000000
0.008518 -0.000841 0.000000
0.000000 0.000000 0.000000
0.000320 -0.001403 0.000000
-0.001403 0.010560 0.000000
0.000000 0.000000 0.000000
-0.020956 -0.033217 0.000000
-0.033217 -0.028085 0.000000
0.000000 0.000000 0.000000
-0.035666 -0.025465 0.000000
-0.025465 -0.039998 0.000000
0.000000 0.000000 0.000000
0.004991 0.002106 0.000000
0.002106 0.012113 0.000000
0.000000 0.000000 0.000000
0.008640 0.005560 0.000000
0.005560 0.013147 0.000000
0.000000 0.000000 0.000000
0.012614 0.006694 0.000000
0.006694 0.002907 0.000000
0.000000 0.000000 0.000000
0.016162 -0.002248 0.000000
-0.002248 -0.013983 0.000000
0.000000 0.000000 0.000000
0.003707 0.001001 0.000000
0.001001 -0.016728 0.000000
0.000000 0.000000 0.000000
0.012931 0.001421 0.000000
0.001421 -0.010981 0.000000
0.000000 0.000000 0.000000
0.002323 -0.006654 0.000000
-0.006654 -0.004939 0.000000
0.000000 0.000000 0.000000
0.002208 -0.002911 0.000000
-0.002911 -0.003466 0.000000
0.000000 0.000000 0.000000
0.014248 0.001548 0.000000
0.001548 0.000801 0.000000
0.000000 0.000000 0.000000
0.002603 -0.003727 0.000000
-0.003727 0.004153 0.000000
0.000000 0.000000 0.000000
-0.042021 -0.004719 0.000000
-0.004719 0.021530 0.000000
0.000000 0.000000 0.000000
-0.004600 -0.000252 0.000000
-0.000252 0.000238 0.000000
0.000000 0.000000 0.000000
0.003316 0.000623 0.000000
0.000623 0.009570 0.000000
0.000000 0.000000 0.000000
-0.015158 0.002574 0.000000
0.002574 0.005690 0.000000
0.000000 0.000000 0.000000
-0.018186 -0.022930 0.000000
-0.022930 -0.031332 0.000000
0.000000 0.000000 0.000000
-0.010964 -0.010856 0.000000
-0.010856 0.018255 0.000000
0.000000 0.000000 0.000000
-0.002115 0.002769 0.000000
0.002769 -0.017153 0.000000
0.000000 0.000000 0.000000
-0.023623 -0.022547 0.000000
-0.022547 -0.008833 0.000000
0.000000 0.000000 0.000000
0.010825 0.000275 0.000000
0.000275 0.027000 0.000000
0.000000 0.000000 0.000000
-0.021417 -0.012461 0.000000
-0.012461 0.035891 0.000000
0.000000 0.000000 0.000000
0.004110 -0.025003 0.000000
-0.025003 -0.000326 0.000000
0.000000 0.000000 0.000000
0.009107 0.003472 0.000000
0.003472 -0.003137 0.000000
0.000000 0.000000 0.000000
0.005109 0.001061 0.000000
0.001061 -0.003995 0.000000
0.000000 0.000000 0.000000
0.007283 0.010073 0.000000
0.010073 0.006178 0.000000
0.000000 0.000000 0.000000
-0.001439 -0.002845 0.000000
-0.002845 -0.005450 0.000000
0.000000 0.000000 0.000000
-0.006754 0.014860 0.000000
0.014860 0.037283 0.000000
0.000000 0.000000 0.000000
0.001085 0.001263 0.000000
0.001263 0.012198 0.000000
0.000000 0.000000 0.000000
0.011846 -0.000995 0.000000
-0.000995 0.002603 0.000000
0.000000 0.000000 0.000000
0.009312 0.004981 0.000000
0.004981 0.007901 0.000000
0.000000 0.000000 0.000000
-0.006101 0.007171 0.000000
0.007171 -0.010151 0.000000
0.000000 0.000000 0.000000
-0.008481 0.022082 0.000000
0.022082 -0.008207 0.000000
0.000000 0.000000 0.000000
-0.010016 -0.008446 0.000000
-0.008446 -0.007689 0.000000
0.000000 0.000000 0.000000
-0.004109 -0.004480 0.000000
-0.004480 0.001740 0.000000
0.000000 0.000000 0.000000
0.013819 0.003952 0.000000
0.003952 -0.001904 0.000000
0.000000 0.000000 0.000000
0.001824 -0.008076 0.000000
-0.008076 0.008208 0.000000
0.000000 0.000000 0.000000
0.001740 0.005014 0.000000
0.005014 -0.008615 0.000000
0.000000 0.000000 0.000000
-0.016049 0.019101 0.000000
0.019101 -0.008886 0.000000
0.000000 0.000000 0.000000
0.006215 -0.007538 0.000000
-0.007538 0.004702 0.000000
0.000000 0.000000 0.000000
0.004438 0.028422 0.000000
0.028422 -0.014659 0.000000
0.000000 0.000000 0.000000
-0.003349 0.003086 0.000000
0.003086 -0.016388 0.000000
0.000000 0.000000 0.000000
0.008613 -0.004168 0.000000
-0.004168 0.013393 0.000000
0.000000 0.000000 0.000000
-0.004130 0.003778 0.000000
0.003778 -0.009731 0.000000
0.000000 0.000000 0.000000
-0.001446 0.000196 0.000000
0.000196 0.002162 0.000000
0.000000 0.000000 0.000000
-0.004087 -0.001132 0.000000
-0.001132 0.000407 0.000000
0.000000 0.000000 0.000000
-0.002202 -0.001867 0.000000
-0.001867 0.001222 0.000000
0.000000 0.000000 0.000000
0.015512 -0.012307 0.000000
-0.012307 -0.008257 0.000000
0.000000 0.000000 0.000000
-0.003578 0.002910 0.000000
0.002910 -0.010396 0.000000
0.000000 0.000000 0.000000
-0.008287 0.002343 0.000000
0.002343 -0.017494 0.000000
0.000000 0.000000 0.000000
0.014617 -0.012448 0.000000
-0.012448 -0.006956 0.000000
0.000000 0.000000 0.000000
-0.011942 0.004976 0.000000
0.004976 -0.009513 0.000000
0.000000 0.000000 0.000000
0.016033 0.011378 0.000000
0.011378 0.017479 0.000000
0.000000 0.000000 0.000000
-0.000441 -0.002987 0.000000
-0.002987 -0.014661 0.000000
0.000000 0.000000 0.000000
0.010417 -0.011946 0.000000
-0.011946 0.019997 0.000000
0.000000 0.000000 0.000000
0.009850 -0.001701 0.000000
-0.001701 -0.011272 0.000000
0.000000 0.000000 0.000000
-0.001353 0.037382 0.000000
0.037382 -0.002124 0.000000
0.000000 0.000000 0.000000
0.037979 -0.001118 0.000000
-0.001118 0.017594 0.000000
0.000000 0.000000 0.000000
-0.033641 0.024278 0.000000
0.024278 -0.015526 0.000000
0.000000 0.000000 0.000000
-0.006708 0.008176 0.000000
0.008176 -0.002519 0.000000
0.000000 0.000000 0.000000
-0.000878 0.012016 0.000000
0.012016 0.004817 0.000000
0.000000 0.000000 0.000000
0.005755 0.007539 0.000000
0.007539 -0.011177 0.000000
0.000000 0.000000 0.000000
-0.006007 -0.010301 0.000000
-0.010301 -0.011825 0.000000
0.000000 0.000000 0.000000
-0.002426 0.007294 0.000000
0.007294 -0.004309 0.000000
0.000000 0.000000 0.000000
-0.004395 -0.001000 0.000000
-0.001000 -0.016398 0.000000
0.000000 0.000000 0.000000
-0.005019 0.006292 0.000000
0.006292 0.017707 0.000000
0.000000 0.000000 0.000000
0.010317 0.005734 0.000000
0.005734 0.029220 0.000000
0.000000 0.000000 0.000000
-0.003670 0.012995 0.000000
0.012995 0.019203 0.000000
0.000000 0.000000 0.000000
-0.007273 -0.001031 0.000000
-0.001031 0.012753 0.000000
0.000000 0.000000 0.000000
-0.004736 0.010663 0.000000
0.010663 -0.013811 0.000000
0.000000 0.000000 0.000000
-0.015923 0.002148 0.000000
0.002148 -0.001771 0.000000
0.000000 0.000000 0.000000
0.007699 -0.011697 0.000000
-0.011697 0.006917 0.000000
0.000000 0.000000 0.000000
-0.001696 0.001963 0.000000
0.001963 0.018910 0.000000
0.000000 0.000000 0.000000
0.000424 0.005828 0.000000
0.005828 -0.015627 0.000000
0.000000 0.000000 0.000000
-0.003284 0.010404 0.000000
0.010404 0.017847 0.000000
0.000000 0.000000 0.000000
-0.017796 -0.005147 0.000000
-0.005147 -0.000774 0.000000
0.000000 0.000000 0.000000
0.001793 -0.013236 0.000000
-0.013236 -0.002019 0.000000
0.000000 0.000000 0.000000
0.003728 0.000931 0.000000
0.000931 0.012797 0.000000
0.000000 0.000000 0.000000
0.011129 0.003413 0.000000
0.003413 0.014539 0.000000
0.000000 0.000000 0.000000
0.001755 0.006290 0.000000
0.006290 0.010585 0.000000
0.000000 0.000000 0.000000
0.005972 0.006994 0.000000
0.006994 0.005393 0.000000
0.000000 0.000000 0.000000
0.023201 -0.004512 0.000000
-0.004512 0.005682 0.000000
0.000000 0.000000 0.000000
0.000501 0.003779 0.000000
0.003779 -0.006303 0.000000
0.000000 0.000000 0.000000
0.001686 0.002390 0.000000
0.002390 0.018922 0.000000
0.000000 0.000000 0.000000
-0.018344 -0.014969 0.000000
-0.014969 0.006438 0.000000
0.000000 0.000000 0.000000
-0.003446 -0.005681 0.000000
-0.005681 -0.003182 0.000000
0.000000 0.000000 0.000000
0.011425 0.017012 0.000000
0.017012 0.015673 0.000000
0.000000 0.000000 0.000000
0.016922 0.004098 0.000000
0.004098 0.035101 0.000000
0.000000 0.000000 0.000000
-0.000241 -0.001376 0.000000
-0.001376 -0.022231 0.000000
0.000000 0.000000 0.000000
-0.000709 -0.018516 0.000000
-0.018516 -0.019357 0.000000
0.000000 0.000000 0.000000
0.012034 -0.007145 0.000000
-0.007145 0.021345 0.000000
0.000000 0.000000 0.000000
-0.008318 0.002019 0.000000
0.002019 -0.006206 0.000000
0.000000 0.000000 0.000000
0.006636 -0.017951 0.000000
-0.017951 0.009659 0.000000
0.000000 0.000000 0.000000
0.005522 0.007600 0.000000
0.007600 0.002211 0.000000
0.000000 0.000000 0.000000
-0.003406 0.000649 0.000000
0.000649 0.009522 0.000000
0.000000 0.000000 0.000000
0.017396 0.000547 0.000000
0.000547 -0.012267 0.000000
0.000000 0.000000 0.000000
0.015147 -0.000841 0.000000
-0.000841 -0.003730 0.000000
0.000000 0.000000 0.000000
0.014248 -0.000029 0.000000
-0.000029 -0.004538 0.000000
0.000000 0.000000 0.000000
0.003553 0.014094 0.000000
0.014094 0.017417 0.000000
0.000000 0.000000 0.000000
-0.001410 -0.002280 0.000000
-0.002280 -0.004529 0.000000
0.000000 0.000000 0.000000
0.002871 0.003296 0.000000
0.003296 -0.012344 0.000000
0.000000 0.000000 0.000000
-0.003834 -0.018471 0.000000
-0.018471 -0.020671 0.000000
0.000000 0.000000 0.000000
0.007959 -0.009272 0.000000
-0.009272 -0.009133 0.000000
0.000000 0.000000 0.000000
0.004517 0.001878 0.000000
0.001878 0.007147 0.000000
0.000000 0.000000 0.000000
0.004586 0.000433 0.000000
0.000433 0.004029 0.000000
0.000000 0.000000 0.000000
0.005149 0.010737 0.000000
0.010737 -0.007182 0.000000
0.000000 0.000000 0.000000
0.005535 0.004329 0.000000
0.004329 -0.011602 0.000000
0.000000 0.000000 0.000000
0.006445 -0.012649 0.000000
-0.012649 -0.001573 0.000000
0.000000 0.000000 0.000000
0.002327 -0.004559 0.000000
-0.004559 -0.009620 0.000000
0.000000 0.000000 0.000000
-0.000523 0.004632 0.000000
0.004632 0.006752 0.000000
0.000000 0.000000 0.000000
0.002621 -0.000077 0.000000
-0.000077 0.007861 0.000000
0.000000 0.000000 0.000000
-0.006277 -0.002239 0.000000
-0.002239 -0.018618 0.000000
0.000000 0.000000 0.000000
0.017497 0.039167 0.000000
0.039167 -0.011802 0.000000
0.000000 0.000000 0.000000
0.011561 -0.034128 0.000000
-0.034128 -0.001230 0.000000
0.000000 0.000000 0.000000
-0.007479 -0.002261 0.000000
-0.002261 -0.018904 0.000000
0.000000 0.000000 0.000000
0.009254 -0.000911 0.000000
-0.000911 -0.000994 0.000000
0.000000 0.000000 0.000000
-0.002224 -0.015687 0.000000
-0.015687 0.007318 0.000000
0.000000 0.000000 0.000000
0.010022 0.008226 0.000000
0.008226 0.009760 0.000000
0.000000 0.000000 0.000000
0.000011 0.005641 0.000000
0.005641 0.005988 0.000000
0.000000 0.000000 0.000000
-0.005243 0.001429 0.000000
0.001429 0.008067 0.000000
0.000000 0.000000 0.000000
0.010130 -0.002400 0.000000
-0.002400 0.003632 0.000000
0.000000 0.000000 0.000000
0.005574 0.008479 0.000000
0.008479 -0.006369 0.000000
0.000000 0.000000 0.000000
-0.005036 -0.006186 0.000000
-0.006186 -0.013576 0.000000
0.000000 0.000000 0.000000
0.012831 -0.011966 0.000000
-0.011966 0.009332 0.000000
0.000000 0.000000 0.000000
0.003510 0.001262 0.000000
0.001262 0.015139 0.000000
0.000000 0.000000 0.000000
0.002306 0.006160 0.000000
0.006160 -0.001843 0.000000
0.000000 0.000000 0.000000
-0.003340 -0.000378 0.000000
-0.000378 0.007665 0.000000
0.000000 0.000000 0.000000
-0.005197 0.002768 0.000000
0.002768 -0.004152 0.000000
0.000000 0.000000 0.000000
0.004492 0.000556 0.000000
0.000556 0.004066 0.000000
0.000000 0.000000 0.000000
0.006962 -0.005809 0.000000
-0.005809 0.007532 0.000000
0.000000 0.000000 0.000000
0.005282 -0.001801 0.000000
-0.001801 0.000062 0.000000
0.000000 0.000000 0.000000
-0.001248 -0.002268 0.000000
-0.002268 -0.005676 0.000000
0.000000 0.000000 0.000000
-0.004652 -0.001872 0.000000
-0.001872 -0.016956 0.000000
0.000000 0.000000 0.000000
-0.003866 -0.000125 0.000000
-0.000125 -0.007298 0.000000
0.000000 0.000000 0.000000
0.013075 0.012900 0.000000
0.012900 -0.006961 0.000000
0.000000 0.000000 0.000000
-0.003006 0.021747 0.000000
0.021747 0.001947 0.000000
0.000000 0.000000 0.000000
-0.004269 -0.023516 0.000000
-0.023516 0.001841 0.000000
0.000000 0.000000 0.000000
0.008739 0.008127 0.000000
0.008127 0.018133 0.000000
0.000000 0.000000 0.000000
-0.005316 -0.005788 0.000000
-0.005788 0.002503 0.000000
0.000000 0.000000 0.000000
-0.015941 0.007489 0.000000
0.007489 -0.006191 0.000000
0.000000 0.000000 0.000000
0.012556 0.001731 0.000000
0.001731 0.032990 0.000000
0.000000 0.000000 0.000000
0.002490 0.003920 0.000000
0.003920 -0.012746 0.000000
0.000000 0.000000 0.000000
-0.012637 0.002618 0.000000
0.002618 0.006128 0.000000
0.000000 0.000000 0.000000
-0.013159 -0.004248 0.000000
-0.004248 -0.005227 0.000000
0.000000 0.000000 0.000000
-0.014782 0.003897 0.000000
0.003897 -0.001754 0.000000
0.000000 0.000000 0.000000
-0.021289 -0.012365 0.000000
-0.012365 -0.000371 0.000000
0.000000 0.000000 0.000000
-0.002311 -0.012943 0.000000
-0.012943 0.008476 0.000000
0.000000 0.000000 0.000000
-0.002894 -0.006919 0.000000
-0.006919 0.011802 0.000000
0.000000 0.000000 0.000000
-0.004551 -0.010245 0.000000
-0.010245 0.013317 0.000000
0.000000 0.000000 0.000000
-0.009435 0.000420 0.000000
0.000420 0.015398 0.000000
0.000000 0.000000 0.000000
-0.000994 -0.001288 0.000000
-0.001288 -0.015953 0.000000
0.000000 0.000000 0.000000
0.034827 0.000862 0.000000
0.000862 0.013085 0.000000
0.000000 0.000000 0.000000
-0.013430 0.002357 0.000000
0.002357 -0.009273 0.000000
0.000000 0.000000 0.000000
-0.001366 -0.002350 0.000000
-0.002350 0.010384 0.000000
0.000000 0.000000 0.000000
0.011350 -0.000134 0.000000
-0.000134 -0.015532 0.000000
0.000000 0.000000 0.000000
0.023909 0.007670 0.000000
0.007670 0.004120 0.000000
0.000000 0.000000 0.000000
-0.001627 0.000728 0.000000
0.000728 0.014697 0.000000
0.000000 0.000000 0.000000
0.012976 0.010791 0.000000
0.010791 0.018264 0.000000
0.000000 0.000000 0.000000
-0.001448 -0.003310 0.000000
-0.003310 -0.006435 0.000000
0.000000 0.000000 0.000000
-0.009316 -0.006315 0.000000
-0.006315 0.003198 0.000000
0.000000 0.000000 0.000000
-0.010885 -0.008779 0.000000
-0.008779 -0.015187 0.000000
0.000000 0.000000 0.000000
-0.009003 -0.007623 0.000000
-0.007623 -0.001787 0.000000
0.000000 0.000000 0.000000
0.005924 0.004535 0.000000
0.004535 -0.006297 0.000000
0.000000 0.000000 0.000000
0.018268 -0.000470 0.000000
-0.000470 0.007879 0.000000
0.000000 0.000000 0.000000
0.000967 0.011180 0.000000
0.011180 -0.017554 0.000000
0.000000 0.000000 0.000000
0.002115 0.026787 0.000000
0.026787 -0.002042 0.000000
0.000000 0.000000 0.000000
0.005055 -0.015736 0.000000
-0.015736 0.001842 0.000000
0.000000 0.000000 0.000000
0.018522 -0.001664 0.000000
-0.001664 0.003399 0.000000
0.000000 0.000000 0.000000
-0.018877 -0.022519 0.000000
-0.022519 -0.025274 0.000000
0.000000 0.000000 0.000000
-0.004782 0.025699 0.000000
0.025699 -0.005562 0.000000
0.000000 0.000000 0.000000
-0.015605 -0.010359 0.000000
-0.010359 0.000302 0.000000
0.000000 0.000000 0.000000
0.004542 0.000235 0.000000
0.000235 -0.010472 0.000000
0.000000 0.000000 0.000000
0.001572 0.007674 0.000000
0.007674 -0.015743 0.000000
0.000000 0.000000 0.000000
-0.011142 0.003368 0.000000
0.003368 -0.000292 0.000000
0.000000 0.000000 0.000000
-0.000360 0.008152 0.000000
0.008152 0.011162 0.000000
0.000000 0.000000 0.000000
0.031872 -0.000305 0.000000
-0.000305 -0.017807 0.000000
0.000000 0.000000 0.000000
0.001151 -0.000706 0.000000
-0.000706 -0.019380 0.000000
0.000000 0.000000 0.000000
0.001071 0.000082 0.000000
0.000082 -0.014472 0.000000
0.000000 0.000000 0.000000
0.005618 0.007921 0.000000
0.007921 0.010765 0.000000
0.000000 0.000000 0.000000
0.003259 0.009830 0.000000
0.009830 0.017273 0.000000
0.000000 0.000000 0.000000
0.001125 -0.000044 0.000000
-0.000044 0.007292 0.000000
0.000000 0.000000 0.000000
-0.006916 0.000012 0.000000
0.000012 -0.020103 0.000000
0.000000 0.000000 0.000000
-0.002862 0.000523 0.000000
0.000523 -0.014234 0.000000
0.000000 0.000000 0.000000
-0.000978 0.002978 0.000000
0.002978 -0.012958 0.000000
0.000000 0.000000 0.000000
-0.013964 0.001068 0.000000
0.001068 0.006034 0.000000
0.000000 0.000000 0.000000
-0.002191 0.004700 0.000000
0.004700 0.010580 0.000000
0.000000 0.000000 0.000000
-0.001808 -0.014334 0.000000
-0.014334 -0.007096 0.000000
0.000000 0.000000 0.000000
-0.003542 -0.000652 0.000000
-0.000652 -0.011141 0.000000
0.000000 0.000000 0.000000
-0.001217 0.001702 0.000000
0.001702 -0.009469 0.000000
0.000000 0.000000 0.000000
-0.006599 -0.011121 0.000000
-0.011121 -0.017578 0.000000
0.000000 0.000000 0.000000
0.000565 -0.003983 0.000000
-0.003983 -0.007295 0.000000
0.000000 0.000000 0.000000
-0.011510 -0.024230 0.000000
-0.024230 -0.010232 0.000000
0.000000 0.000000 0.000000
-0.004215 -0.005312 0.000000
-0.005312 0.004272 0.000000
0.000000 0.000000 0.000000
0.000693 -0.027363 0.000000
-0.027363 -0.011239 0.000000
0.000000 0.000000 0.000000
0.014223 0.003258 0.000000
0.003258 0.038117 0.000000
0.000000 0.000000 0.000000
-0.003690 -0.002685 0.000000
-0.002685 0.016349 0.000000
0.000000 0.000000 0.000000
-0.007308 -0.008456 0.000000
-0.008456 0.006350 0.000000
0.000000 0.000000 0.000000
-0.005607 0.001754 0.000000
0.001754 0.002406 0.000000
0.000000 0.000000 0.000000
-0.000958 -0.002009 0.000000
-0.002009 0.009075 0.000000
0.000000 0.000000 0.000000
-0.007970 0.012676 0.000000
0.012676 -0.040494 0.000000
0.000000 0.000000 0.000000
-0.000188 0.005051 0.000000
0.005051 0.008827 0.000000
0.000000 0.000000 0.000000
0.015324 -0.012707 0.000000
-0.012707 0.013675 0.000000
0.000000 0.000000 0.000000
0.003767 -0.004713 0.000000
-0.004713 0.015607 0.000000
0.000000 0.000000 0.000000
0.026711 -0.009949 0.000000
-0.009949 -0.026750 0.000000
0.000000 0.000000 0.000000
0.007503 0.001201 0.000000
0.001201 0.008769 0.000000
0.000000 0.000000 0.000000
-0.001791 -0.006268 0.000000
-0.006268 -0.010088 0.000000
0.000000 0.000000 0.000000
0.011189 -0.013154 0.000000
-0.013154 -0.001259 0.000000
0.000000 0.000000 0.000000
0.001727 0.000286 0.000000
0.000286 -0.000574 0.000000
0.000000 0.000000 0.000000
-0.006265 0.006267 0.000000
0.006267 -0.000830 0.000000
0.000000 0.000000 0.000000
-0.003997 -0.004616 0.000000
-0.004616 -0.000347 0.000000
0.000000 0.000000 0.000000
0.008700 0.001585 0.000000
0.001585 -0.004070 0.000000
0.000000 0.000000 0.000000
0.000499 -0.009315 0.000000
-0.009315 0.007368 0.000000
0.000000 0.000000 0.000000
0.009316 0.000717 0.000000
0.000717 -0.011995 0.000000
0.000000 0.000000 0.000000
0.010201 -0.004447 0.000000
-0.004447 0.010642 0.000000
0.000000 0.000000 0.000000
-0.013589 0.005897 0.000000
0.005897 -0.003002 0.000000
0.000000 0.000000 0.000000
0.001989 0.004371 0.000000
0.004371 0.008475 0.000000
0.000000 0.000000 0.000000
-0.010174 0.005611 0.000000
0.005611 0.005921 0.000000
0.000000 0.000000 0.000000
-0.016549 0.008600 0.000000
0.008600 -0.008973 0.000000
0.000000 0.000000 0.000000
-0.004352 -0.004953 0.000000
-0.004953 -0.000100 0.000000
0.000000 0.000000 0.000000
-0.002204 -0.011790 0.000000
-0.011790 -0.014032 0.000000
0.000000 0.000000 0.000000
0.002484 0.000036 0.000000
0.000036 0.015708 0.000000
0.000000 0.000000 0.000000
-0.000206 -0.002807 0.000000
-0.002807 0.005976 0.000000
0.000000 0.000000 0.000000
0.004272 -0.000443 0.000000
-0.000443 0.015204 0.000000
0.000000 0.000000 0.000000
0.003284 0.007602 0.000000
0.007602 -0.012849 0.000000
0.000000 0.000000 0.000000
0.004755 0.000820 0.000000
0.000820 -0.003685 0.000000
0.000000 0.000000 0.000000
-0.005437 0.001960 0.000000
0.001960 -0.011071 0.000000
0.000000 0.000000 0.000000
0.006130 0.003158 0.000000
0.003158 0.007984 0.000000
0.000000 0.000000 0.000000
0.014209 0.005888 0.000000
0.005888 -0.012482 0.000000
0.000000 0.000000 0.000000
-0.007961 -0.002870 0.000000
-0.002870 0.014057 0.000000
0.000000 0.000000 0.000000
-0.005915 0.001476 0.000000
0.001476 -0.031600 0.000000
0.000000 0.000000 0.000000
0.011565 -0.010768 0.000000
-0.010768 0.013279 0.000000
0.000000 0.000000 0.000000
0.009843 -0.006059 0.000000
-0.006059 0.038477 0.000000
0.000000 0.000000 0.000000
0.000191 -0.002890 0.000000
-0.002890 0.012553 0.000000
0.000000 0.000000 0.000000
0.024395 -0.001027 0.000000
-0.001027 -0.006269 0.000000
0.000000 0.000000 0.000000
0.011103 -0.004049 0.000000
-0.004049 0.028320 0.000000
0.000000 0.000000 0.000000
0.004966 -0.001411 0.000000
-0.001411 0.020452 0.000000
0.000000 0.000000 0.000000
-0.007036 0.001314 0.000000
0.001314 -0.007531 0.000000
0.000000 0.000000 0.000000
-0.006281 0.000501 0.000000
0.000501 -0.001368 0.000000
0.000000 0.000000 0.000000
0.001122 0.010108 0.000000
0.010108 0.008785 0.000000
0.000000 0.000000 0.000000
-0.002701 0.000786 0.000000
0.000786 -0.005159 0.000000
0.000000 0.000000 0.000000
-0.009394 -0.004803 0.000000
-0.004803 0.003836 0.000000
0.000000 0.000000 0.000000
0.012062 -0.011799 0.000000
-0.011799 -0.001253 0.000000
0.000000 0.000000 0.000000
0.008808 -0.002279 0.000000
-0.002279 0.013017 0.000000
0.000000 0.000000 0.000000
-0.008355 -0.001886 0.000000
-0.001886 -0.009734 0.000000
0.000000 0.000000 0.000000
-0.000851 0.001159 0.000000
0.001159 0.001684 0.000000
0.000000 0.000000 0.000000
-0.000429 -0.001283 0.000000
-0.001283 -0.001583 0.000000
0.000000 0.000000 0.000000
-0.002531 0.005285 0.000000
0.005285 0.000955 0.000000
0.000000 0.000000 0.000000
0.016802 -0.008718 0.000000
-0.008718 0.006449 0.000000
0.000000 0.000000 0.000000
0.014007 0.009060 0.000000
0.009060 -0.001486 0.000000
0.000000 0.000000 0.000000
0.007691 0.008582 0.000000
0.008582 -0.003031 0.000000
0.000000 0.000000 0.000000
0.018072 -0.000347 0.000000
-0.000347 0.008794 0.000000
0.000000 0.000000 0.000000
-0.002213 -0.030672 0.000000
-0.030672 -0.013128 0.000000
0.000000 0.000000 0.000000
0.009387 -0.000174 0.000000
-0.000174 0.001328 0.000000
0.000000 0.000000 0.000000
-0.005339 -0.002000 0.000000
-0.002000 -0.015847 0.000000
0.000000 0.000000 0.000000
-0.015769 -0.001064 0.000000
-0.001064 -0.006928 0.000000
0.000000 0.000000 0.000000
-0.001386 -0.007962 0.000000
-0.007962 -0.004563 0.000000
0.000000 0.000000 0.000000
0.001083 0.006156 0.000000
0.006156 0.013303 0.000000
0.000000 0.000000 0.000000
0.003603 0.004361 0.000000
0.004361 0.014493 0.000000
0.000000 0.000000 0.000000
0.001344 0.007216 0.000000
0.007216 0.016618 0.000000
0.000000 0.000000 0.000000
-0.036344 0.006440 0.000000
0.006440 -0.002950 0.000000
0.000000 0.000000 0.000000
0.002462 -0.005056 0.000000
-0.005056 -0.006677 0.000000
0.000000 0.000000 0.000000
-0.017949 -0.007413 0.000000
-0.007413 -0.016517 0.000000
0.000000 0.000000 0.000000
-0.031467 0.007795 0.000000
0.007795 -0.007859 0.000000
0.000000 0.000000 0.000000
-0.017729 0.013037 0.000000
0.013037 -0.010996 0.000000
0.000000 0.000000 0.000000
0.006801 -0.000699 0.000000
-0.000699 0.000461 0.000000
0.000000 0.000000 0.000000
0.002322 0.005069 0.000000
0.005069 0.000622 0.000000
0.000000 0.000000 0.000000
0.001558 -0.000132 0.000000
-0.000132 -0.001863 0.000000
0.000000 0.000000 0.000000
-0.000623 0.002156 0.000000
0.002156 -0.012049 0.000000
0.000000 0.000000 0.000000
-0.020767 -0.003083 0.000000
-0.003083 -0.003095 0.000000
0.000000 0.000000 0.000000
-0.002003 -0.002760 0.000000
-0.002760 -0.009820 0.000000
0.000000 0.000000 0.000000
-0.012012 -0.005914 0.000000
-0.005914 -0.001704 0.000000
0.000000 0.000000 0.000000
0.004323 0.003969 0.000000
0.003969 0.001731 0.000000
0.000000 0.000000 0.000000
-0.004909 -0.002317 0.000000
-0.002317 0.000173 0.000000
0.000000 0.000000 0.000000
-0.001813 -0.002915 0.000000
-0.002915 0.005163 0.000000
0.000000 0.000000 0.000000
0.008298 0.008244 0.000000
0.008244 -0.005236 0.000000
0.000000 0.000000 0.000000
-0.003865 0.001208 0.000000
0.001208 -0.018098 0.000000
0.000000 0.000000 0.000000
-0.000753 0.003738 0.000000
0.003738 -0.012436 0.000000
0.000000 0.000000 0.000000
-0.002169 -0.001886 0.000000
-0.001886 0.020417 0.000000
0.000000 0.000000 0.000000
-0.008162 0.002797 0.000000
0.002797 -0.008351 0.000000
0.000000 0.000000 0.000000
-0.007030 0.009823 0.000000
0.009823 -0.003941 0.000000
0.000000 0.000000 0.000000
-0.005158 0.007409 0.000000
0.007409 -0.008258 0.000000
0.000000 0.000000 0.000000
-0.006330 0.007831 0.000000
0.007831 -0.004150 0.000000
0.000000 0.000000 0.000000
-0.014607 -0.006054 0.000000
-0.006054 0.029886 0.000000
0.000000 0.000000 0.000000
0.005097 0.002611 0.000000
0.002611 0.006347 0.000000
0.000000 0.000000 0.000000
-0.013859 -0.009177 0.000000
-0.009177 0.023270 0.000000
0.000000 0.000000 0.000000
-0.003939 0.008485 0.000000
0.008485 0.004584 0.000000
0.000000 0.000000 0.000000
0.003384 -0.017237 0.000000
-0.017237 -0.019197 0.000000
0.000000 0.000000 0.000000
-0.008112 0.006861 0.000000
0.006861 0.011329 0.000000
0.000000 0.000000 0.000000
0.010214 0.001695 0.000000
0.001695 0.020046 0.000000
0.000000 0.000000 0.000000
-0.008445 0.001319 0.000000
0.001319 -0.005672 0.000000
0.000000 0.000000 0.000000
-0.010797 0.009835 0.000000
0.009835 0.004917 0.000000
0.000000 0.000000 0.000000
0.006503 -0.003897 0.000000
-0.003897 0.009385 0.000000
0.000000 0.000000 0.000000
-0.006207 0.000135 0.000000
0.000135 0.003653 0.000000
0.000000 0.000000 0.000000
-0.008063 -0.000451 0.000000
-0.000451 -0.031664 0.000000
0.000000 0.000000 0.000000
0.000680 0.013093 0.000000
0.013093 0.004621 0.000000
0.000000 0.000000 0.000000
-0.006442 0.007066 0.000000
0.007066 -0.003450 0.000000
0.000000 0.000000 0.000000
-0.010143 0.005833 0.000000
0.005833 -0.012492 0.000000
0.000000 0.000000 0.000000
-0.027101 -0.004290 0.000000
-0.004290 0.001671 0.000000
0.000000 0.000000 0.000000
-0.003694 -0.003964 0.000000
-0.003964 0.003292 0.000000
0.000000 0.000000 0.000000
-0.024118 -0.007934 0.000000
-0.007934 -0.002593 0.000000
0.000000 0.000000 0.000000
-0.025770 0.006427 0.000000
0.006427 -0.002839 0.000000
0.000000 0.000000 0.000000
0.000151 0.003697 0.000000
0.003697 0.004885 0.000000
0.000000 0.000000 0.000000
0.012655 0.004396 0.000000
0.004396 -0.008000 0.000000
0.000000 0.000000 0.000000
-0.016645 0.003418 0.000000
0.003418 0.001191 0.000000
0.000000 0.000000 0.000000
-0.013304 -0.004928 0.000000
-0.004928 -0.018861 0.000000
0.000000 0.000000 0.000000
-0.008403 0.003750 0.000000
0.003750 0.016888 0.000000
0.000000 0.000000 0.000000
-0.014814 0.014383 0.000000
0.014383 -0.007233 0.000000
0.000000 0.000000 0.000000
-0.012649 0.001763 0.000000
0.001763 0.004713 0.000000
0.000000 0.000000 0.000000
-0.015898 -0.003503 0.000000
-0.003503 0.003677 0.000000
0.000000 0.000000 0.000000
0.002351 0.009751 0.000000
0.009751 0.002126 0.000000
0.000000 0.000000 0.000000
0.003118 -0.010280 0.000000
-0.010280 -0.017902 0.000000
0.000000 0.000000 0.000000
-0.002307 -0.000421 0.000000
-0.000421 -0.003510 0.000000
0.000000 0.000000 0.000000
-0.000686 0.002886 0.000000
0.002886 0.009636 0.000000
0.000000 0.000000 0.000000
-0.006461 -0.002846 0.000000
-0.002846 0.003549 0.000000
0.000000 0.000000 0.000000
-0.005061 0.006618 0.000000
0.006618 -0.001392 0.000000
0.000000 0.000000 0.000000
-0.004288 0.010099 0.000000
0.010099 -0.015310 0.000000
0.000000 0.000000 0.000000
0.001939 -0.002995 0.000000
-0.002995 0.000060 0.000000
0.000000 0.000000 0.000000
0.001619 -0.001997 0.000000
-0.001997 0.001816 0.000000
0.000000 0.000000 0.000000
-0.006888 0.003593 0.000000
0.003593 -0.008402 0.000000
0.000000 0.000000 0.000000
0.006911 -0.005449 0.000000
-0.005449 0.002049 0.000000
0.000000 0.000000 0.000000
-0.001415 0.000778 0.000000
0.000778 0.009514 0.000000
0.000000 0.000000 0.000000
-0.012852 0.002393 0.000000
0.002393 -0.008987 0.000000
0.000000 0.000000 0.000000
-0.014453 -0.004809 0.000000
-0.004809 0.001894 0.000000
0.000000 0.000000 0.000000
0.003160 0.006731 0.000000
0.006731 -0.003075 0.000000
0.000000 0.000000 0.000000
-0.000376 0.001284 0.000000
0.001284 0.003559 0.000000
0.000000 0.000000 0.000000
-0.013526 -0.002420 0.000000
-0.002420 0.009504 0.000000
0.000000 0.000000 0.000000
-0.004442 0.003052 0.000000
0.003052 0.000700 0.000000
0.000000 0.000000 0.000000
0.005192 -0.009389 0.000000
-0.009389 -0.018353 0.000000
0.000000 0.000000 0.000000
-0.005384 0.000026 0.000000
0.000026 -0.010494 0.000000
0.000000 0.000000 0.000000
0.004698 0.005613 0.000000
0.005613 -0.006840 0.000000
0.000000 0.000000 0.000000
-0.017842 -0.003876 0.000000
-0.003876 0.007544 0.000000
0.000000 0.000000 0.000000
0.001774 0.004533 0.000000
0.004533 0.004253 0.000000
0.000000 0.000000 0.000000
-0.006365 -0.003198 0.000000
-0.003198 -0.024574 0.000000
0.000000 0.000000 0.000000
-0.001898 0.000703 0.000000
0.000703 0.001147 0.000000
0.000000 0.000000 0.000000
-0.011516 0.000841 0.000000
0.000841 -0.029073 0.000000
0.000000 0.000000 0.000000
-0.002728 -0.002079 0.000000
-0.002079 0.010077 0.000000
0.000000 0.000000 0.000000
0.005741 0.000645 0.000000
0.000645 0.004953 0.000000
0.000000 0.000000 0.000000
0.014309 -0.000129 0.000000
-0.000129 0.005648 0.000000
0.000000 0.000000 0.000000
-0.010589 -0.003707 0.000000
-0.003707 0.007309 0.000000
0.000000 0.000000 0.000000
0.004332 0.001022 0.000000
0.001022 -0.014512 0.000000
0.000000 0.000000 0.000000
0.004701 -0.002747 0.000000
-0.002747 0.001716 0.000000
0.000000 0.000000 0.000000
0.012172 -0.011372 0.000000
-0.011372 -0.002980 0.000000
0.000000 0.000000 0.000000
-0.004214 -0.001893 0.000000
-0.001893 -0.011041 0.000000
0.000000 0.000000 0.000000
0.011541 0.002993 0.000000
0.002993 -0.004707 0.000000
0.000000 0.000000 0.000000
0.009518 -0.004263 0.000000
-0.004263 -0.007620 0.000000
0.000000 0.000000 0.000000
-0.012446 0.005414 0.000000
0.005414 -0.013929 0.000000
0.000000 0.000000 0.000000
0.000306 -0.018292 0.000000
-0.018292 0.006315 0.000000
0.000000 0.000000 0.000000
-0.017318 -0.011588 0.000000
-0.011588 -0.022660 0.000000
0.000000 0.000000 0.000000
0.004354 -0.020559 0.000000
-0.020559 -0.012316 0.000000
0.000000 0.000000 0.000000
0.003447 -0.001716 0.000000
-0.001716 0.009007 0.000000
0.000000 0.000000 0.000000
0.003152 -0.001933 0.000000
-0.001933 0.010187 0.000000
0.000000 0.000000 0.000000
-0.003780 0.001988 0.000000
0.001988 -0.003694 0.000000
0.000000 0.000000 0.000000
-0.006504 -0.011172 0.000000
-0.011172 0.005127 0.000000
0.000000 0.000000 0.000000
0.005424 0.001904 0.000000
0.001904 0.012855 0.000000
0.000000 0.000000 0.000000
-0.003374 -0.011671 0.000000
-0.011671 0.003722 0.000000
0.000000 0.000000 0.000000
0.013247 -0.002929 0.000000
-0.002929 -0.028509 0.000000
0.000000 0.000000 0.000000
-0.015502 0.002126 0.000000
0.002126 -0.003310 0.000000
0.000000 0.000000 0.000000
-0.016841 -0.008170 0.000000
-0.008170 -0.025623 0.000000
0.000000 0.000000 0.000000
-0.009534 0.004549 0.000000
0.004549 -0.000369 0.000000
0.000000 0.000000 0.000000
0.008681 -0.004648 0.000000
-0.004648 -0.002322 0.000000
0.000000 0.000000 0.000000
-0.003742 -0.005784 0.000000
-0.005784 -0.001433 0.000000
0.000000 0.000000 0.000000
0.013839 -0.015830 0.000000
-0.015830 -0.028273 0.000000
0.000000 0.000000 0.000000
0.012134 -0.000474 0.000000
-0.000474 -0.009681 0.000000
0.000000 0.000000 0.000000
-0.004931 0.014623 0.000000
0.014623 0.000462 0.000000
0.000000 0.000000 0.000000
-0.000276 -0.007427 0.000000
-0.007427 -0.006003 0.000000
0.000000 0.000000 0.000000
-0.005903 -0.004064 0.000000
-0.004064 0.027305 0.000000
0.000000 0.000000 0.000000
0.000660 0.002855 0.000000
0.002855 -0.020069 0.000000
0.000000 0.000000 0.000000
0.006865 -0.001675 0.000000
-0.001675 0.000476 0.000000
0.000000 0.000000 0.000000
0.009927 -0.006986 0.000000
-0.006986 0.004556 0.000000
0.000000 0.000000 0.000000
-0.005725 0.027878 0.000000
0.027878 -0.011772 0.000000
0.000000 0.000000 0.000000
-0.001614 0.001535 0.000000
0.001535 0.005686 0.000000
0.000000 0.000000 0.000000
0.013318 0.014249 0.000000
0.014249 0.005130 0.000000
0.000000 0.000000 0.000000
-0.017048 0.006680 0.000000
0.006680 -0.004458 0.000000
0.000000 0.000000 0.000000
-0.012454 0.005574 0.000000
0.005574 -0.003049 0.000000
0.000000 0.000000 0.000000
-0.002759 -0.003601 0.000000
-0.003601 -0.003592 0.000000
0.000000 0.000000 0.000000
0.002784 0.000762 0.000000
0.000762 -0.005516 0.000000
0.000000 0.000000 0.000000
0.004158 0.003090 0.000000
0.003090 -0.002159 0.000000
0.000000 0.000000 0.000000
0.000709 0.008196 0.000000
0.008196 -0.018165 0.000000
0.000000 0.000000 0.000000
-0.005624 0.002301 0.000000
0.002301 -0.005118 0.000000
0.000000 0.000000 0.000000
0.030451 -0.004646 0.000000
-0.004646 -0.029213 0.000000
0.000000 0.000000 0.000000
-0.001006 -0.001021 0.000000
-0.001021 -0.000014 0.000000
0.000000 0.000000 0.000000
0.001961 -0.000858 0.000000
-0.000858 -0.000251 0.000000
0.000000 0.000000 0.000000
0.000815 0.009313 0.000000
0.009313 -0.012459 0.000000
0.000000 0.000000 0.000000
-0.009688 -0.001174 0.000000
-0.001174 -0.007198 0.000000
0.000000 0.000000 0.000000
-0.021266 0.009223 0.000000
0.009223 -0.005861 0.000000
0.000000 0.000000 0.000000
0.021803 0.001152 0.000000
0.001152 -0.005415 0.000000
0.000000 0.000000 0.000000
0.003965 0.000892 0.000000
0.000892 -0.011059 0.000000
0.000000 0.000000 0.000000
-0.009806 0.003939 0.000000
0.003939 -0.000791 0.000000
0.000000 0.000000 0.000000
-0.005239 0.000597 0.000000
0.000597 -0.000249 0.000000
0.000000 0.000000 0.000000
0.001493 -0.003599 0.000000
-0.003599 0.004939 0.000000
0.000000 0.000000 0.000000
0.001723 -0.001893 0.000000
-0.001893 0.010382 0.000000
0.000000 0.000000 0.000000
-0.006932 0.000388 0.000000
0.000388 -0.000431 0.000000
0.000000 0.000000 0.000000
0.002719 -0.003334 0.000000
-0.003334 0.004991 0.000000
0.000000 0.000000 0.000000
0.001170 0.002778 0.000000
0.002778 0.008851 0.000000
0.000000 0.000000 0.000000
0.009260 -0.002078 0.000000
-0.002078 0.024279 0.000000
0.000000 0.000000 0.000000
-0.001213 0.009826 0.000000
0.009826 -0.004633 0.000000
0.000000 0.000000 0.000000
-0.005622 0.007781 0.000000
0.007781 0.010523 0.000000
0.000000 0.000000 0.000000
-0.001254 0.000045 0.000000
0.000045 0.005381 0.000000
0.000000 0.000000 0.000000
-0.000842 -0.001773 0.000000
-0.001773 -0.005553 0.000000
0.000000 0.000000 0.000000
-0.007440 -0.005184 0.000000
-0.005184 -0.006674 0.000000
0.000000 0.000000 0.000000
0.007343 0.011569 0.000000
0.011569 -0.005943 0.000000
0.000000 0.000000 0.000000
0.003669 0.009625 0.000000
0.009625 -0.015964 0.000000
0.000000 0.000000 0.000000
-0.013755 0.000948 0.000000
0.000948 0.020043 0.000000
0.000000 0.000000 0.000000
-0.010157 0.004025 0.000000
0.004025 -0.008916 0.000000
0.000000 0.000000 0.000000
-0.008460 0.009014 0.000000
0.009014 0.000112 0.000000
0.000000 0.000000 0.000000
-0.002012 0.004311 0.000000
0.004311 -0.006462 0.000000
0.000000 0.000000 0.000000
-0.008224 -0.000967 0.000000
-0.000967 -0.015907 0.000000
0.000000 0.000000 0.000000
0.006829 -0.005974 0.000000
-0.005974 -0.003220 0.000000
0.000000 0.000000 0.000000
-0.000122 -0.002000 0.000000
-0.002000 0.017378 0.000000
0.000000 0.000000 0.000000
0.008065 -0.001223 0.000000
-0.001223 -0.000830 0.000000
0.000000 0.000000 0.000000
-0.003707 0.001353 0.000000
0.001353 0.005666 0.000000
0.000000 0.000000 0.000000
0.009661 0.003843 0.000000
0.003843 0.006311 0.000000
0.000000 0.000000 0.000000
-0.004809 0.000034 0.000000
0.000034 0.000068 0.000000
0.000000 0.000000 0.000000
0.000456 0.006355 0.000000
0.006355 0.007551 0.000000
0.000000 0.000000 0.000000
-0.005767 -0.005886 0.000000
-0.005886 0.003365 0.000000
0.000000 0.000000 0.000000
-0.000530 -0.000725 0.000000
-0.000725 -0.018721 0.000000
0.000000 0.000000 0.000000
-0.005853 0.001826 0.000000
0.001826 -0.013925 0.000000
0.000000 0.000000 0.000000
0.006207 -0.007841 0.000000
-0.007841 0.007011 0.000000
0.000000 0.000000 0.000000
0.008645 -0.004037 0.000000
-0.004037 -0.007239 0.000000
0.000000 0.000000 0.000000
0.010357 -0.004341 0.000000
-0.004341 0.013490 0.000000
0.000000 0.000000 0.000000
0.005419 -0.003115 0.000000
-0.003115 0.014247 0.000000
0.000000 0.000000 0.000000
0.001540 -0.010250 0.000000
-0.010250 0.012340 0.000000
0.000000 0.000000 0.000000
0.000869 0.007579 0.000000
0.007579 -0.007943 0.000000
0.000000 0.000000 0.000000
0.003033 -0.002010 0.000000
-0.002010 0.014608 0.000000
0.000000 0.000000 0.000000
0.007473 -0.004175 0.000000
-0.004175 -0.000600 0.000000
0.000000 0.000000 0.000000
-0.015705 -0.005236 0.000000
-0.005236 -0.004184 0.000000
0.000000 0.000000 0.000000
-0.004811 -0.002565 0.000000
-0.002565 0.000977 0.000000
0.000000 0.000000 0.000000
0.009588 -0.004662 0.000000
-0.004662 0.027738 0.000000
0.000000 0.000000 0.000000
-0.008349 -0.007359 0.000000
-0.007359 0.000999 0.000000
0.000000 0.000000 0.000000
-0.002635 -0.005785 0.000000
-0.005785 -0.001510 0.000000
0.000000 0.000000 0.000000
0.006767 0.011153 0.000000
0.011153 0.009510 0.000000
0.000000 0.000000 0.000000
-0.009724 -0.002378 0.000000
-0.002378 0.007242 0.000000
0.000000 0.000000 0.000000
-0.007619 -0.005221 0.000000
-0.005221 0.002228 0.000000
0.000000 0.000000 0.000000
-0.008970 -0.002328 0.000000
-0.002328 0.003219 0.000000
0.000000 0.000000 0.000000
0.002162 -0.002216 0.000000
-0.002216 0.009366 0.000000
0.000000 0.000000 0.000000
-0.001120 0.007237 0.000000
0.007237 0.016965 0.000000
0.000000 0.000000 0.000000
0.000945 0.000259 0.000000
0.000259 0.007547 0.000000
0.000000 0.000000 0.000000
-0.008398 -0.009071 0.000000
-0.009071 -0.005239 0.000000
0.000000 0.000000 0.000000
-0.000298 0.003322 0.000000
0.003322 0.003583 0.000000
0.000000 0.000000 0.000000
0.004630 -0.030947 0.000000
-0.030947 0.017840 0.000000
0.000000 0.000000 0.000000
0.006693 -0.003239 0.000000
-0.003239 0.010106 0.000000
0.000000 0.000000 0.000000
-0.003832 0.000232 0.000000
0.000232 0.011053 0.000000
0.000000 0.000000 0.000000
-0.017570 -0.021876 0.000000
-0.021876 0.008585 0.000000
0.000000 0.000000 0.000000
0.007988 0.000587 0.000000
0.000587 0.004406 0.000000
0.000000 0.000000 0.000000
-0.011302 -0.000608 0.000000
-0.000608 0.005199 0.000000
0.000000 0.000000 0.000000
-0.001312 0.002368 0.000000
0.002368 0.001145 0.000000
0.000000 0.000000 0.000000
-0.003882 -0.004045 0.000000
-0.004045 0.013102 0.000000
0.000000 0.000000 0.000000
-0.007171 0.003840 0.000000
0.003840 0.001039 0.000000
0.000000 0.000000 0.000000
-0.003185 0.001229 0.000000
0.001229 0.008022 0.000000
0.000000 0.000000 0.000000
-0.006064 0.008653 0.000000
0.008653 -0.024324 0.000000
0.000000 0.000000 0.000000
0.002685 0.007886 0.000000
0.007886 -0.000670 0.000000
0.000000 0.000000 0.000000
0.009062 0.005276 0.000000
0.005276 0.011716 0.000000
0.000000 0.000000 0.000000
0.022122 0.004864 0.000000
0.004864 0.015637 0.000000
0.000000 0.000000 0.000000
0.016765 -0.001477 0.000000
-0.001477 0.016130 0.000000
0.000000 0.000000 0.000000
0.002222 0.004954 0.000000
0.004954 0.003214 0.000000
0.000000 0.000000 0.000000
-0.001234 -0.000450 0.000000
-0.000450 -0.006726 0.000000
0.000000 0.000000 0.000000
-0.002720 -0.000331 0.000000
-0.000331 -0.013731 0.000000
0.000000 0.000000 0.000000
-0.003629 0.004034 0.000000
0.004034 -0.016525 0.000000
0.000000 0.000000 0.000000
0.014665 -0.012678 0.000000
-0.012678 0.014013 0.000000
0.000000 0.000000 0.000000
0.007329 0.002693 0.000000
0.002693 -0.006389 0.000000
0.000000 0.000000 0.000000
0.004525 -0.008920 0.000000
-0.008920 -0.005588 0.000000
0.000000 0.000000 0.000000
-0.002638 0.010495 0.000000
0.010495 0.008009 0.000000
0.000000 0.000000 0.000000
-0.000132 0.003150 0.000000
0.003150 0.009333 0.000000
0.000000 0.000000 0.000000
-0.030238 0.002874 0.000000
0.002874 0.018625 0.000000
0.000000 0.000000 0.000000
0.003773 -0.003427 0.000000
-0.003427 0.004633 0.000000
0.000000 0.000000 0.000000
0.009384 -0.002959 0.000000
-0.002959 0.023975 0.000000
0.000000 0.000000 0.000000
-0.001475 -0.006847 0.000000
-0.006847 0.001888 0.000000
0.000000 0.000000 0.000000
0.000297 -0.002167 0.000000
-0.002167 0.000286 0.000000
0.000000 0.000000 0.000000
0.009502 0.003169 0.000000
0.003169 -0.026911 0.000000
0.000000 0.000000 0.000000
0.001900 -0.008100 0.000000
-0.008100 -0.000789 0.000000
0.000000 0.000000 0.000000
0.006008 0.003295 0.000000
0.003295 0.004582 0.000000
0.000000 0.000000 0.000000
0.035948 -0.003106 0.000000
-0.003106 -0.007936 0.000000
0.000000 0.000000 0.000000
-0.005989 0.008576 0.000000
0.008576 -0.009301 0.000000
0.000000 0.000000 0.000000
0.005722 -0.000147 0.000000
-0.000147 -0.039556 0.000000
0.000000 0.000000 0.000000
-0.022063 0.014823 0.000000
0.014823 -0.010306 0.000000
0.000000 0.000000 0.000000
0.004188 -0.000360 0.000000
-0.000360 0.011558 0.000000
0.000000 0.000000 0.000000
-0.007434 0.003064 0.000000
0.003064 0.000284 0.000000
0.000000 0.000000 0.000000
-0.000869 -0.002839 0.000000
-0.002839 0.007861 0.000000
0.000000 0.000000 0.000000
0.012714 0.008369 0.000000
0.008369 -0.001753 0.000000
0.000000 0.000000 0.000000
-0.004845 0.000188 0.000000
0.000188 -0.000570 0.000000
0.000000 0.000000 0.000000
0.004766 -0.000696 0.000000
-0.000696 0.000429 0.000000
0.000000 0.000000 0.000000
-0.023982 0.020316 0.000000
0.020316 -0.012473 0.000000
0.000000 0.000000 0.000000
-0.003706 -0.003278 0.000000
-0.003278 -0.003886 0.000000
0.000000 0.000000 0.000000
0.004920 -0.001092 0.000000
-0.001092 0.000323 0.000000
0.000000 0.000000 0.000000
0.014359 0.005933 0.000000
0.005933 0.041446 0.000000
0.000000 0.000000 0.000000
0.004111 0.010069 0.000000
0.010069 -0.010292 0.000000
0.000000 0.000000 0.000000
0.004716 -0.003302 0.000000
-0.003302 -0.010962 0.000000
0.000000 0.000000 0.000000
-0.006673 -0.012437 0.000000
-0.012437 0.005174 0.000000
0.000000 0.000000 0.000000
0.008088 0.006937 0.000000
0.006937 -0.010669 0.000000
0.000000 0.000000 0.000000
-0.002083 0.001042 0.000000
0.001042 -0.006832 0.000000
0.000000 0.000000 0.000000
-0.000942 0.002465 0.000000
0.002465 -0.007960 0.000000
0.000000 0.000000 0.000000
0.001346 0.014704 0.000000
0.014704 -0.016080 0.000000
0.000000 0.000000 0.000000
0.011726 0.004245 0.000000
0.004245 0.041441 0.000000
0.000000 0.000000 0.000000
-0.002663 -0.007712 0.000000
-0.007712 -0.014298 0.000000
0.000000 0.000000 0.000000
0.003891 0.008579 0.000000
0.008579 -0.012266 0.000000
0.000000 0.000000 0.000000
0.005779 0.001948 0.000000
0.001948 -0.005556 0.000000
0.000000 0.000000 0.000000
-0.004859 0.004491 0.000000
0.004491 0.021134 0.000000
0.000000 0.000000 0.000000
0.011430 -0.001778 0.000000
-0.001778 -0.001496 0.000000
0.000000 0.000000 0.000000
-0.001845 0.002375 0.000000
0.002375 0.004848 0.000000
0.000000 0.000000 0.000000
-0.002731 -0.001549 0.000000
-0.001549 0.003482 0.000000
0.000000 0.000000 0.000000
-0.009544 -0.008390 0.000000
-0.008390 0.008399 0.000000
0.000000 0.000000 0.000000
0.001939 0.002289 0.000000
0.002289 0.000582 0.000000
0.000000 0.000000 0.000000
-0.006412 -0.003012 0.000000
-0.003012 0.018045 0.000000
0.000000 0.000000 0.000000
-0.013021 0.000502 0.000000
0.000502 -0.003253 0.000000
0.000000 0.000000 0.000000
-0.008112 0.003876 0.000000
0.003876 0.009537 0.000000
0.000000 0.000000 0.000000
-0.001267 -0.006392 0.000000
-0.006392 -0.006242 0.000000
0.000000 0.000000 0.000000
-0.001083 0.003701 0.000000
0.003701 0.010034 0.000000
0.000000 0.000000 0.000000
-0.005757 -0.009528 0.000000
-0.009528 0.001079 0.000000
0.000000 0.000000 0.000000
0.007062 -0.003797 0.000000
-0.003797 -0.010170 0.000000
0.000000 0.000000 0.000000
0.008024 0.018682 0.000000
0.018682 0.016441 0.000000
0.000000 0.000000 0.000000
0.001487 0.020436 0.000000
0.020436 0.013599 0.000000
0.000000 0.000000 0.000000
0.012382 0.001611 0.000000
0.001611 0.007687 0.000000
0.000000 0.000000 0.000000
0.007415 -0.003417 0.000000
-0.003417 0.001770 0.000000
0.000000 0.000000 0.000000
0.003880 0.000150 0.000000
0.000150 -0.004542 0.000000
0.000000 0.000000 0.000000
0.007922 0.009021 0.000000
0.009021 0.010476 0.000000
0.000000 0.000000 0.000000
0.007445 -0.001534 0.000000
-0.001534 -0.010417 0.000000
0.000000 0.000000 0.000000
0.020405 0.006106 0.000000
0.006106 0.001741 0.000000
0.000000 0.000000 0.000000
0.009242 -0.002563 0.000000
-0.002563 -0.017708 0.000000
0.000000 0.000000 0.000000
-0.001524 0.007257 0.000000
0.007257 0.002661 0.000000
0.000000 0.000000 0.000000
0.001174 -0.008832 0.000000
-0.008832 -0.000172 0.000000
0.000000 0.000000 0.000000
0.006958 0.015343 0.000000
0.015343 0.014033 0.000000
0.000000 0.000000 0.000000
0.002754 -0.000206 0.000000
-0.000206 0.013909 0.000000
0.000000 0.000000 0.000000
0.000111 -0.002863 0.000000
-0.002863 -0.013741 0.000000
0.000000 0.000000 0.000000
0.020599 -0.009756 0.000000
-0.009756 0.016381 0.000000
0.000000 0.000000 0.000000
0.022327 -0.007695 0.000000
-0.007695 0.023501 0.000000
0.000000 0.000000 0.000000
-0.007163 -0.004707 0.000000
-0.004707 -0.026830 0.000000
0.000000 0.000000 0.000000
0.020107 -0.008565 0.000000
-0.008565 0.016756 0.000000
0.000000 0.000000 0.000000
0.042239 0.011740 0.000000
0.011740 0.028522 0.000000
0.000000 0.000000 0.000000
0.002168 -0.005365 0.000000
-0.005365 0.006175 0.000000
0.000000 0.000000 0.000000
0.015202 0.008658 0.000000
0.008658 0.012725 0.000000
0.000000 0.000000 0.000000
0.006696 -0.005465 0.000000
-0.005465 -0.018450 0.000000
0.000000 0.000000 0.000000
-0.007597 -0.015538 0.000000
-0.015538 0.011461 0.000000
0.000000 0.000000 0.000000
0.026300 -0.009612 0.000000
-0.009612 -0.011159 0.000000
0.000000 0.000000 0.000000
-0.024468 0.019637 0.000000
0.019637 -0.056594 0.000000
0.000000 0.000000 0.000000
0.012287 -0.021227 0.000000
-0.021227 -0.062224 0.000000
0.000000 0.000000 0.000000
0.005356 -0.003715 0.000000
-0.003715 0.008986 0.000000
0.000000 0.000000 0.000000
0.029065 -0.001480 0.000000
-0.001480 -0.003923 0.000000
0.000000 0.000000 0.000000
-0.010435 -0.001715 0.000000
-0.001715 0.004189 0.000000
0.000000 0.000000 0.000000
-0.016631 0.001450 0.000000
0.001450 0.004353 0.000000
0.000000 0.000000 0.000000
-0.014288 0.004023 0.000000
0.004023 -0.007555 0.000000
0.000000 0.000000 0.000000
-0.010173 -0.012275 0.000000
-0.012275 0.001929 0.000000
0.000000 0.000000 0.000000
0.005089 -0.005911 0.000000
-0.005911 0.003711 0.000000
0.000000 0.000000 0.000000
-0.005079 -0.004465 0.000000
-0.004465 -0.009957 0.000000
0.000000 0.000000 0.000000
0.008137 0.004490 0.000000
0.004490 0.005788 0.000000
0.000000 0.000000 0.000000
-0.005888 -0.002757 0.000000
-0.002757 -0.003134 0.000000
0.000000 0.000000 0.000000
-0.007599 -0.010632 0.000000
-0.010632 -0.002157 0.000000
0.000000 0.000000 0.000000
0.003670 0.001808 0.000000
0.001808 0.011464 0.000000
0.000000 0.000000 0.000000
0.006825 0.002246 0.000000
0.002246 0.000096 0.000000
0.000000 0.000000 0.000000
0.014084 0.000000 0.000000
0.000000 0.003045 0.000000
0.000000 0.000000 0.000000
-0.004413 -0.006073 0.000000
-0.006073 -0.010767 0.000000
0.000000 0.000000 0.000000
-0.003862 -0.002039 0.000000
-0.002039 -0.020186 0.000000
0.000000 0.000000 0.000000
0.021173 0.001578 0.000000
0.001578 0.012191 0.000000
0.000000 0.000000 0.000000
0.015950 0.014289 0.000000
0.014289 0.012950 0.000000
0.000000 0.000000 0.000000
-0.008557 -0.002355 0.000000
-0.002355 -0.020957 0.000000
0.000000 0.000000 0.000000
0.008449 -0.009350 0.000000
-0.009350 -0.017275 0.000000
0.000000 0.000000 0.000000
-0.001998 -0.008961 0.000000
-0.008961 -0.005098 0.000000
0.000000 0.000000 0.000000
0.015370 -0.005160 0.000000
-0.005160 -0.009305 0.000000
0.000000 0.000000 0.000000
-0.000665 -0.000302 0.000000
-0.000302 0.016709 0.000000
0.000000 0.000000 0.000000
0.002949 -0.001493 0.000000
-0.001493 0.004367 0.000000
0.000000 0.000000 0.000000
0.003297 -0.005271 0.000000
-0.005271 0.003940 0.000000
0.000000 0.000000 0.000000
-0.005097 0.003115 0.000000
0.003115 0.011101 0.000000
0.000000 0.000000 0.000000
-0.007482 0.001791 0.000000
0.001791 0.010365 0.000000
0.000000 0.000000 0.000000
0.003543 0.005000 0.000000
0.005000 0.012083 0.000000
0.000000 0.000000 0.000000
-0.004847 -0.003439 0.000000
-0.003439 0.002818 0.000000
0.000000 0.000000 0.000000
0.009477 0.009442 0.000000
0.009442 -0.019475 0.000000
0.000000 0.000000 0.000000
-0.002451 0.006978 0.000000
0.006978 0.007015 0.000000
0.000000 0.000000 0.000000
-0.009111 0.016627 0.000000
0.016627 -0.021716 0.000000
0.000000 0.000000 0.000000
-0.012968 0.001620 0.000000
0.001620 -0.007522 0.000000
0.000000 0.000000 0.000000
-0.003966 -0.023189 0.000000
-0.023189 -0.002823 0.000000
0.000000 0.000000 0.000000
0.001782 -0.002819 0.000000
-0.002819 -0.003866 0.000000
0.000000 0.000000 0.000000
0.014469 0.002215 0.000000
0.002215 0.019720 0.000000
0.000000 0.000000 0.000000
0.005050 -0.008583 0.000000
-0.008583 0.007193 0.000000
0.000000 0.000000 0.000000
0.008547 -0.014484 0.000000
-0.014484 0.009748 0.000000
0.000000 0.000000 0.000000
0.011620 -0.005724 0.000000
-0.005724 0.010258 0.000000
0.000000 0.000000 0.000000
-0.006447 -0.003908 0.000000
-0.003908 -0.012002 0.000000
0.000000 0.000000 0.000000
0.002662 0.001284 0.000000
0.001284 0.007970 0.000000
0.000000 0.000000 0.000000
-0.004106 0.001221 0.000000
0.001221 0.000043 0.000000
0.000000 0.000000 0.000000
0.017609 -0.001456 0.000000
-0.001456 0.015429 0.000000
0.000000 0.000000 0.000000
-0.002794 0.005046 0.000000
0.005046 -0.003226 0.000000
0.000000 0.000000 0.000000
0.008259 -0.007470 0.000000
-0.007470 0.008171 0.000000
0.000000 0.000000 0.000000
-0.009569 -0.002844 0.000000
-0.002844 -0.007182 0.000000
0.000000 0.000000 0.000000
-0.007185 -0.011191 0.000000
-0.011191 0.001683 0.000000
0.000000 0.000000 0.000000
0.002042 -0.004985 0.000000
-0.004985 -0.010538 0.000000
0.000000 0.000000 0.000000
-0.002300 0.000852 0.000000
0.000852 0.001091 0.000000
0.000000 0.000000 0.000000
0.002007 0.001802 0.000000
0.001802 0.000663 0.000000
0.000000 0.000000 0.000000
0.001727 0.004819 0.000000
0.004819 -0.001841 0.000000
0.000000 0.000000 0.000000
-0.001106 -0.002536 0.000000
-0.002536 0.002897 0.000000
0.000000 0.000000 0.000000
-0.003114 -0.008310 0.000000
-0.008310 0.022101 0.000000
0.000000 0.000000 0.000000
-0.002247 -0.010910 0.000000
-0.010910 0.018638 0.000000
0.000000 0.000000 0.000000
-0.006226 0.003515 0.000000
0.003515 -0.024162 0.000000
0.000000 0.000000 0.000000
-0.009102 0.003136 0.000000
0.003136 -0.006454 0.000000
0.000000 0.000000 0.000000
0.003860 0.001324 0.000000
0.001324 0.012541 0.000000
0.000000 0.000000 0.000000
-0.000011 -0.005663 0.000000
-0.005663 0.000642 0.000000
0.000000 0.000000 0.000000
-0.001444 -0.005957 0.000000
-0.005957 -0.015055 0.000000
0.000000 0.000000 0.000000
0.006116 0.007271 0.000000
0.007271 0.007802 0.000000
0.000000 0.000000 0.000000
0.016916 -0.013574 0.000000
-0.013574 -0.006690 0.000000
0.000000 0.000000 0.000000
0.016945 -0.002136 0.000000
-0.002136 -0.012534 0.000000
0.000000 0.000000 0.000000
0.016777 0.002857 0.000000
0.002857 -0.011594 0.000000
0.000000 0.000000 0.000000
0.011370 0.004197 0.000000
0.004197 -0.019097 0.000000
0.000000 0.000000 0.000000
-0.010855 -0.004022 0.000000
-0.004022 -0.002836 0.000000
0.000000 0.000000 0.000000
0.005097 -0.014657 0.000000
-0.014657 -0.016684 0.000000
0.000000 0.000000 0.000000
-0.000266 -0.000899 0.000000
-0.000899 0.007351 0.000000
0.000000 0.000000 0.000000
-0.011421 0.004409 0.000000
0.004409 0.005544 0.000000
0.000000 0.000000 0.000000
0.002042 -0.004714 0.000000
-0.004714 0.025094 0.000000
0.000000 0.000000 0.000000
0.003495 -0.011392 0.000000
-0.011392 -0.008949 0.000000
0.000000 0.000000 0.000000
0.018118 -0.007889 0.000000
-0.007889 -0.005975 0.000000
0.000000 0.000000 0.000000
-0.004612 0.002891 0.000000
0.002891 0.000728 0.000000
0.000000 0.000000 0.000000
-0.001784 -0.001142 0.000000
-0.001142 0.006122 0.000000
0.000000 0.000000 0.000000
0.011087 -0.000899 0.000000
-0.000899 0.028661 0.000000
0.000000 0.000000 0.000000
0.007164 -0.010243 0.000000
-0.010243 -0.000820 0.000000
0.000000 0.000000 0.000000
-0.002557 0.001227 0.000000
0.001227 0.003462 0.000000
0.000000 0.000000 0.000000
-0.007241 0.001552 0.000000
0.001552 -0.026438 0.000000
0.000000 0.000000 0.000000
-0.012091 -0.000126 0.000000
-0.000126 -0.020710 0.000000
0.000000 0.000000 0.000000
-0.010839 -0.005231 0.000000
-0.005231 -0.008916 0.000000
0.000000 0.000000 0.000000
0.005490 -0.038381 0.000000
-0.038381 0.009571 0.000000
0.000000 0.000000 0.000000
0.002173 -0.003252 0.000000
-0.003252 0.010403 0.000000
0.000000 0.000000 0.000000
0.014387 -0.011348 0.000000
-0.011348 0.030313 0.000000
0.000000 0.000000 0.000000
0.006627 -0.024908 0.000000
-0.024908 0.017503 0.000000
0.000000 0.000000 0.000000
0.005049 -0.002418 0.000000
-0.002418 0.004619 0.000000
0.000000 0.000000 0.000000
0.003789 0.002367 0.000000
0.002367 -0.002860 0.000000
0.000000 0.000000 0.000000
0.003522 -0.012562 0.000000
-0.012562 -0.011864 0.000000
0.000000 0.000000 0.000000
-0.008941 -0.001856 0.000000
-0.001856 0.000328 0.000000
0.000000 0.000000 0.000000
0.004682 -0.003219 0.000000
-0.003219 0.002301 0.000000
0.000000 0.000000 0.000000
-0.013834 0.007234 0.000000
0.007234 0.032103 0.000000
0.000000 0.000000 0.000000
-0.001294 -0.006107 0.000000
-0.006107 0.025489 0.000000
0.000000 0.000000 0.000000
-0.010109 0.002901 0.000000
0.002901 -0.020240 0.000000
0.000000 0.000000 0.000000
0.001918 -0.004704 0.000000
-0.004704 -0.000667 0.000000
0.000000 0.000000 0.000000
-0.001347 -0.001415 0.000000
-0.001415 0.002649 0.000000
0.000000 0.000000 0.000000
-0.001605 -0.004399 0.000000
-0.004399 -0.003026 0.000000
0.000000 0.000000 0.000000
0.002063 -0.001133 0.000000
-0.001133 0.003037 0.000000
0.000000 0.000000 0.000000
-0.007976 -0.007914 0.000000
-0.007914 0.007714 0.000000
0.000000 0.000000 0.000000
0.009490 -0.006005 0.000000
-0.006005 -0.009643 0.000000
0.000000 0.000000 0.000000
0.021709 0.005800 0.000000
0.005800 -0.021919 0.000000
0.000000 0.000000 0.000000
0.009260 -0.010117 0.000000
-0.010117 -0.006768 0.000000
0.000000 0.000000 0.000000
0.002373 -0.006423 0.000000
-0.006423 0.011162 0.000000
0.000000 0.000000 0.000000
0.012790 -0.006301 0.000000
-0.006301 0.006491 0.000000
0.000000 0.000000 0.000000
-0.003889 0.006121 0.000000
0.006121 -0.012173 0.000000
0.000000 0.000000 0.000000
0.008509 0.001705 0.000000
0.001705 -0.001766 0.000000
0.000000 0.000000 0.000000
0.004422 0.001903 0.000000
0.001903 -0.003002 0.000000
0.000000 0.000000 0.000000
0.007655 0.007289 0.000000
0.007289 0.005313 0.000000
0.000000 0.000000 0.000000
-0.004086 -0.002012 0.000000
-0.002012 0.002248 0.000000
0.000000 0.000000 0.000000
0.001347 -0.000657 0.000000
-0.000657 0.001391 0.000000
0.000000 0.000000 0.000000
-0.009027 0.000629 0.000000
0.000629 0.010421 0.000000
0.000000 0.000000 0.000000
-0.007627 0.002211 0.000000
0.002211 0.014205 0.000000
0.000000 0.000000 0.000000
0.003197 -0.000554 0.000000
-0.000554 0.000354 0.000000
0.000000 0.000000 0.000000
0.008183 0.000234 0.000000
0.000234 -0.004481 0.000000
0.000000 0.000000 0.000000
-0.005164 0.013957 0.000000
0.013957 0.009074 0.000000
0.000000 0.000000 0.000000
0.005283 0.010925 0.000000
0.010925 0.006984 0.000000
0.000000 0.000000 0.000000
0.005488 0.006159 0.000000
0.006159 -0.000669 0.000000
0.000000 0.000000 0.000000
-0.028352 0.009765 0.000000
0.009765 0.029418 0.000000
0.000000 0.000000 0.000000
-0.027796 0.004064 0.000000
0.004064 0.022475 0.000000
0.000000 0.000000 0.000000
-0.008334 0.000026 0.000000
0.000026 -0.006871 0.000000
0.000000 0.000000 0.000000
0.000000 0.000604 0.000000
0.000604 0.011159 0.000000
0.000000 0.000000 0.000000
0.012256 0.007913 0.000000
0.007913 0.017373 0.000000
0.000000 0.000000 0.000000
-0.005036 -0.001747 0.000000
-0.001747 -0.004240 0.000000
0.000000 0.000000 0.000000
-0.005568 0.002115 0.000000
0.002115 0.006754 0.000000
0.000000 0.000000 0.000000
0.000118 -0.001054 0.000000
-0.001054 0.005629 0.000000
0.000000 0.000000 0.000000
-0.004738 0.002188 0.000000
0.002188 0.010484 0.000000
0.000000 0.000000 0.000000
0.002088 0.005503 0.000000
0.005503 -0.011839 0.000000
0.000000 0.000000 0.000000
0.011367 -0.004945 0.000000
-0.004945 0.012061 0.000000
0.000000 0.000000 0.000000
0.002020 -0.007192 0.000000
-0.007192 0.009180 0.000000
0.000000 0.000000 0.000000
0.024065 0.005518 0.000000
0.005518 -0.011398 0.000000
0.000000 0.000000 0.000000
0.009894 -0.030784 0.000000
-0.030784 -0.007259 0.000000
0.000000 0.000000 0.000000
0.031932 0.011968 0.000000
0.011968 -0.001823 0.000000
0.000000 0.000000 0.000000
0.016785 -0.000571 0.000000
-0.000571 0.001507 0.000000
0.000000 0.000000 0.000000
0.017924 -0.001282 0.000000
-0.001282 -0.007518 0.000000
0.000000 0.000000 0.000000
0.016303 0.002436 0.000000
0.002436 -0.007689 0.000000
0.000000 0.000000 0.000000
0.008300 -0.000240 0.000000
-0.000240 0.003431 0.000000
0.000000 0.000000 0.000000
-0.023129 0.002251 0.000000
0.002251 -0.011303 0.000000
0.000000 0.000000 0.000000
0.005405 -0.008381 0.000000
-0.008381 -0.007447 0.000000
0.000000 0.000000 0.000000
-0.011815 0.001184 0.000000
0.001184 -0.003964 0.000000
0.000000 0.000000 0.000000
-0.010362 0.004015 0.000000
0.004015 -0.010158 0.000000
0.000000 0.000000 0.000000
-0.010522 0.004708 0.000000
0.004708 -0.014716 0.000000
0.000000 0.000000 0.000000
-0.000105 0.005828 0.000000
0.005828 -0.007237 0.000000
0.000000 0.000000 0.000000
0.004348 0.012969 0.000000
0.012969 0.006613 0.000000
0.000000 0.000000 0.000000
0.001068 -0.000214 0.000000
-0.000214 -0.002511 0.000000
0.000000 0.000000 0.000000
0.003691 -0.003861 0.000000
-0.003861 -0.014487 0.000000
0.000000 0.000000 0.000000
-0.038216 0.006997 0.000000
0.006997 0.003074 0.000000
0.000000 0.000000 0.000000
-0.011058 0.004175 0.000000
0.004175 -0.013943 0.000000
0.000000 0.000000 0.000000
-0.024654 -0.007065 0.000000
-0.007065 -0.025840 0.000000
0.000000 0.000000 0.000000
-0.024382 0.018201 0.000000
0.018201 0.016700 0.000000
0.000000 0.000000 0.000000
0.001112 -0.000794 0.000000
-0.000794 0.001212 0.000000
0.000000 0.000000 0.000000
-0.003860 0.002351 0.000000
0.002351 -0.010839 0.000000
0.000000 0.000000 0.000000
0.003655 0.003744 0.000000
0.003744 -0.005309 0.000000
0.000000 0.000000 0.000000
-0.004536 0.003910 0.000000
0.003910 -0.003107 0.000000
0.000000 0.000000 0.000000
-0.013768 0.004681 0.000000
0.004681 0.001972 0.000000
0.000000 0.000000 0.000000
-0.012024 0.009646 0.000000
0.009646 -0.012389 0.000000
0.000000 0.000000 0.000000
-0.009276 -0.003292 0.000000
-0.003292 -0.014581 0.000000
0.000000 0.000000 0.000000
-0.005108 -0.002462 0.000000
-0.002462 0.008896 0.000000
0.000000 0.000000 0.000000
-0.002570 0.006658 0.000000
0.006658 -0.008422 0.000000
0.000000 0.000000 0.000000
-0.000060 -0.000766 0.000000
-0.000766 -0.003032 0.000000
0.000000 0.000000 0.000000
0.011726 -0.012434 0.000000
-0.012434 -0.025089 0.000000
0.000000 0.000000 0.000000
-0.002696 0.010962 0.000000
0.010962 -0.008363 0.000000
0.000000 0.000000 0.000000
-0.010421 0.004554 0.000000
0.004554 -0.006484 0.000000
0.000000 0.000000 0.000000
-0.006386 -0.005271 0.000000
-0.005271 -0.013176 0.000000
0.000000 0.000000 0.000000
0.002815 0.001035 0.000000
0.001035 -0.009548 0.000000
0.000000 0.000000 0.000000
-0.009653 0.000281 0.000000
0.000281 -0.007771 0.000000
0.000000 0.000000 0.000000
0.000843 -0.005156 0.000000
-0.005156 0.007218 0.000000
0.000000 0.000000 0.000000
0.016230 0.012111 0.000000
0.012111 -0.002843 0.000000
0.000000 0.000000 0.000000
-0.000645 0.001547 0.000000
0.001547 0.001384 0.000000
0.000000 0.000000 0.000000
0.005468 -0.000361 0.000000
-0.000361 0.024769 0.000000
0.000000 0.000000 0.000000
0.020041 0.003780 0.000000
0.003780 -0.003629 0.000000
0.000000 0.000000 0.000000
-0.001466 0.000981 0.000000
0.000981 -0.011516 0.000000
0.000000 0.000000 0.000000
0.019214 -0.002206 0.000000
-0.002206 -0.006724 0.000000
0.000000 0.000000 0.000000
0.002490 0.003924 0.000000
0.003924 0.000458 0.000000
0.000000 0.000000 0.000000
-0.001985 0.002039 0.000000
0.002039 -0.011120 0.000000
0.000000 0.000000 0.000000
0.006298 0.001245 0.000000
0.001245 -0.015535 0.000000
0.000000 0.000000 0.000000
0.002106 -0.002726 0.000000
-0.002726 0.002769 0.000000
0.000000 0.000000 0.000000
-0.002182 -0.009000 0.000000
-0.009000 -0.001573 0.000000
0.000000 0.000000 0.000000
-0.005114 0.003011 0.000000
0.003011 -0.010822 0.000000
0.000000 0.000000 0.000000
0.008682 0.002348 0.000000
0.002348 -0.007041 0.000000
0.000000 0.000000 0.000000
-0.005020 0.005065 0.000000
0.005065 -0.003155 0.000000
0.000000 0.000000 0.000000
-0.003364 0.007022 0.000000
0.007022 -0.000814 0.000000
0.000000 0.000000 0.000000
0.003359 -0.000853 0.000000
-0.000853 0.025395 0.000000
0.000000 0.000000 0.000000
0.009012 0.002926 0.000000
0.002926 0.035501 0.000000
0.000000 0.000000 0.000000
-0.031184 0.005379 0.000000
0.005379 -0.005253 0.000000
0.000000 0.000000 0.000000
0.005489 -0.002946 0.000000
-0.002946 0.006053 0.000000
0.000000 0.000000 0.000000
-0.032892 -0.004648 0.000000
-0.004648 -0.020291 0.000000
0.000000 0.000000 0.000000
-0.010809 -0.007573 0.000000
-0.007573 -0.011958 0.000000
0.000000 0.000000 0.000000
-0.007759 -0.009590 0.000000
-0.009590 -0.006326 0.000000
0.000000 0.000000 0.000000
-0.006191 -0.004376 0.000000
-0.004376 -0.006047 0.000000
0.000000 0.000000 0.000000
0.004738 0.004142 0.000000
0.004142 0.006618 0.000000
0.000000 0.000000 0.000000
-0.004677 -0.004808 0.000000
-0.004808 0.002818 0.000000
0.000000 0.000000 0.000000
0.000840 -0.002244 0.000000
-0.002244 0.006510 0.000000
0.000000 0.000000 0.000000
0.001929 -0.010007 0.000000
-0.010007 0.001293 0.000000
0.000000 0.000000 0.000000
-0.003231 -0.007216 0.000000
-0.007216 -0.006721 0.000000
0.000000 0.000000 0.000000
0.003962 -0.012283 0.000000
-0.012283 -0.012120 0.000000
0.000000 0.000000 0.000000
0.000015 -0.000197 0.000000
-0.000197 -0.009356 0.000000
0.000000 0.000000 0.000000
0.002016 0.001946 0.000000
0.001946 0.014724 0.000000
0.000000 0.000000 0.000000
0.015595 0.000660 0.000000
0.000660 -0.009841 0.000000
0.000000 0.000000 0.000000
0.013933 0.002948 0.000000
0.002948 -0.013282 0.000000
0.000000 0.000000 0.000000
-0.014374 -0.003464 0.000000
-0.003464 -0.000048 0.000000
0.000000 0.000000 0.000000
0.005396 0.003805 0.000000
0.003805 0.005587 0.000000
0.000000 0.000000 0.000000
-0.015978 0.003463 0.000000
0.003463 0.012279 0.000000
0.000000 0.000000 0.000000
-0.001683 0.004006 0.000000
0.004006 0.019054 0.000000
0.000000 0.000000 0.000000
-0.010065 0.000507 0.000000
0.000507 0.013582 0.000000
0.000000 0.000000 0.000000
0.000503 -0.016836 0.000000
-0.016836 0.026712 0.000000
0.000000 0.000000 0.000000
-0.001917 -0.000902 0.000000
-0.000902 -0.009124 0.000000
0.000000 0.000000 0.000000
0.002556 0.006182 0.000000
0.006182 0.016098 0.000000
0.000000 0.000000 0.000000
0.012080 0.002465 0.000000
0.002465 0.005608 0.000000
0.000000 0.000000 0.000000
0.014770 0.003748 0.000000
0.003748 0.007523 0.000000
0.000000 0.000000 0.000000
0.003010 -0.005419 0.000000
-0.005419 0.013637 0.000000
0.000000 0.000000 0.000000
-0.000334 -0.004594 0.000000
-0.004594 -0.000031 0.000000
0.000000 0.000000 0.000000
0.003726 -0.001796 0.000000
-0.001796 0.006992 0.000000
0.000000 0.000000 0.000000
0.008736 -0.001648 0.000000
-0.001648 0.003124 0.000000
0.000000 0.000000 0.000000
-0.003567 -0.004517 0.000000
-0.004517 0.005028 0.000000
0.000000 0.000000 0.000000
-0.011325 -0.006183 0.000000
-0.006183 0.013961 0.000000
0.000000 0.000000 0.000000
-0.002837 -0.000358 0.000000
-0.000358 -0.007515 0.000000
0.000000 0.000000 0.000000
0.019787 0.002721 0.000000
0.002721 0.019715 0.000000
0.000000 0.000000 0.000000
0.003667 0.003953 0.000000
0.003953 0.008727 0.000000
0.000000 0.000000 0.000000
-0.008167 -0.004300 0.000000
-0.004300 0.015019 0.000000
0.000000 0.000000 0.000000
-0.011392 -0.007627 0.000000
-0.007627 -0.013168 0.000000
0.000000 0.000000 0.000000
-0.008453 -0.010446 0.000000
-0.010446 -0.019202 0.000000
0.000000 0.000000 0.000000
-0.007304 -0.008069 0.000000
-0.008069 -0.003243 0.000000
0.000000 0.000000 0.000000
-0.008229 -0.005112 0.000000
-0.005112 -0.005510 0.000000
0.000000 0.000000 0.000000
0.001857 -0.006790 0.000000
-0.006790 -0.004803 0.000000
0.000000 0.000000 0.000000
-0.002213 -0.013772 0.000000
-0.013772 -0.022258 0.000000
0.000000 0.000000 0.000000
-0.007979 -0.012754 0.000000
-0.012754 -0.024328 0.000000
0.000000 0.000000 0.000000
0.000178 0.007256 0.000000
0.007256 -0.009755 0.000000
0.000000 0.000000 0.000000
0.010163 0.005556 0.000000
0.005556 -0.010662 0.000000
0.000000 0.000000 0.000000
0.010504 -0.003577 0.000000
-0.003577 -0.007576 0.000000
0.000000 0.000000 0.000000
0.008617 -0.006903 0.000000
-0.006903 -0.009040 0.000000
0.000000 0.000000 0.000000
0.011661 0.004544 0.000000
0.004544 -0.004555 0.000000
0.000000 0.000000 0.000000
-0.004671 -0.008590 0.000000
-0.008590 -0.003286 0.000000
0.000000 0.000000 0.000000
0.012296 -0.002407 0.000000
-0.002407 -0.001974 0.000000
0.000000 0.000000 0.000000
-0.007991 -0.007833 0.000000
-0.007833 -0.014279 0.000000
0.000000 0.000000 0.000000
-0.005881 -0.006460 0.000000
-0.006460 -0.007078 0.000000
0.000000 0.000000 0.000000
0.005446 0.015561 0.000000
0.015561 -0.004593 0.000000
0.000000 0.000000 0.000000
0.003512 0.005914 0.000000
0.005914 0.008527 0.000000
0.000000 0.000000 0.000000
-0.015365 0.009329 0.000000
0.009329 0.003366 0.000000
0.000000 0.000000 0.000000
0.004641 0.012455 0.000000
0.012455 0.007651 0.000000
0.000000 0.000000 0.000000
-0.005019 -0.000122 0.000000
-0.000122 -0.016221 0.000000
0.000000 0.000000 0.000000
-0.002194 -0.002489 0.000000
-0.002489 -0.005856 0.000000
0.000000 0.000000 0.000000
-0.006226 -0.002220 0.000000
-0.002220 -0.019267 0.000000
0.000000 0.000000 0.000000
-0.012618 -0.008004 0.000000
-0.008004 -0.009179 0.000000
0.000000 0.000000 0.000000
-0.002523 -0.006015 0.000000
-0.006015 -0.006793 0.000000
0.000000 0.000000 0.000000
-0.011906 -0.007745 0.000000
-0.007745 -0.004647 0.000000
0.000000 0.000000 0.000000
-0.008792 0.007946 0.000000
0.007946 0.000303 0.000000
0.000000 0.000000 0.000000
-0.011104 0.003500 0.000000
0.003500 -0.001007 0.000000
0.000000 0.000000 0.000000
-0.012459 -0.004591 0.000000
-0.004591 -0.008720 0.000000
0.000000 0.000000 0.000000
-0.003651 -0.003636 0.000000
-0.003636 0.015452 0.000000
0.000000 0.000000 0.000000
0.002942 -0.005942 0.000000
-0.005942 0.000840 0.000000
0.000000 0.000000 0.000000
-0.001658 -0.011881 0.000000
-0.011881 -0.005476 0.000000
0.000000 0.000000 0.000000
-0.008263 -0.001792 0.000000
-0.001792 0.010065 0.000000
0.000000 0.000000 0.000000
0.012320 -0.006879 0.000000
-0.006879 0.000876 0.000000
0.000000 0.000000 0.000000
-0.004665 -0.002122 0.000000
-0.002122 0.006770 0.000000
0.000000 0.000000 0.000000
0.017873 -0.003911 0.000000
-0.003911 0.004944 0.000000
0.000000 0.000000 0.000000
0.002953 0.005669 0.000000
0.005669 -0.012553 0.000000
0.000000 0.000000 0.000000
-0.029058 -0.005950 0.000000
-0.005950 0.028539 0.000000
0.000000 0.000000 0.000000
0.001857 -0.005361 0.000000
-0.005361 -0.002593 0.000000
0.000000 0.000000 0.000000
0.002082 0.000743 0.000000
0.000743 -0.004467 0.000000
0.000000 0.000000 0.000000
-0.021427 0.013248 0.000000
0.013248 -0.017382 0.000000
0.000000 0.000000 0.000000
-0.016368 0.003118 0.000000
0.003118 -0.008081 0.000000
0.000000 0.000000 0.000000
-0.011703 0.002084 0.000000
0.002084 0.009097 0.000000
0.000000 0.000000 0.000000
-0.009972 0.027701 0.000000
0.027701 0.010614 0.000000
0.000000 0.000000 0.000000
-0.023824 0.019461 0.000000
0.019461 0.018290 0.000000
0.000000 0.000000 0.000000
0.012307 0.007127 0.000000
0.007127 0.007281 0.000000
0.000000 0.000000 0.000000
0.006225 0.001026 0.000000
0.001026 0.001011 0.000000
0.000000 0.000000 0.000000
0.006214 0.001575 0.000000
0.001575 0.011354 0.000000
0.000000 0.000000 0.000000
0.004832 0.003976 0.000000
0.003976 -0.012767 0.000000
0.000000 0.000000 0.000000
0.002957 0.001685 0.000000
0.001685 0.000021 0.000000
0.000000 0.000000 0.000000
-0.000191 0.004041 0.000000
0.004041 -0.001535 0.000000
0.000000 0.000000 0.000000
0.001610 -0.011352 0.000000
-0.011352 -0.004707 0.000000
0.000000 0.000000 0.000000
-0.016943 -0.000223 0.000000
-0.000223 -0.003647 0.000000
0.000000 0.000000 0.000000
-0.004305 -0.004690 0.000000
-0.004690 0.001870 0.000000
0.000000 0.000000 0.000000
-0.018206 0.006553 0.000000
0.006553 -0.038170 0.000000
0.000000 0.000000 0.000000
-0.001650 -0.003025 0.000000
-0.003025 -0.016174 0.000000
0.000000 0.000000 0.000000
-0.011233 0.002357 0.000000
0.002357 0.007239 0.000000
0.000000 0.000000 0.000000
-0.012883 -0.004417 0.000000
-0.004417 0.008167 0.000000
0.000000 0.000000 0.000000
-0.004303 0.001446 0.000000
0.001446 -0.006842 0.000000
0.000000 0.000000 0.000000
0.000432 -0.002658 0.000000
-0.002658 -0.005905 0.000000
0.000000 0.000000 0.000000
-0.003844 -0.003515 0.000000
-0.003515 -0.022659 0.000000
0.000000 0.000000 0.000000
0.006472 -0.000700 0.000000
-0.000700 -0.004175 0.000000
0.000000 0.000000 0.000000
-0.015700 -0.010796 0.000000
-0.010796 0.015195 0.000000
0.000000 0.000000 0.000000
-0.006669 -0.008320 0.000000
-0.008320 0.011887 0.000000
0.000000 0.000000 0.000000
-0.010897 -0.003559 0.000000
-0.003559 -0.007307 0.000000
0.000000 0.000000 0.000000
0.000660 0.007385 0.000000
0.007385 -0.007667 0.000000
0.000000 0.000000 0.000000
-0.013539 0.004973 0.000000
0.004973 0.002605 0.000000
0.000000 0.000000 0.000000
0.002440 -0.001277 0.000000
-0.001277 -0.003884 0.000000
0.000000 0.000000 0.000000
0.002165 -0.003091 0.000000
-0.003091 -0.005118 0.000000
0.000000 0.000000 0.000000
-0.003528 -0.001881 0.000000
-0.001881 -0.008289 0.000000
0.000000 0.000000 0.000000
0.005843 -0.026896 0.000000
-0.026896 0.023951 0.000000
0.000000 0.000000 0.000000
-0.003500 -0.004672 0.000000
-0.004672 0.020670 0.000000
0.000000 0.000000 0.000000
0.011926 -0.002790 0.000000
-0.002790 -0.002119 0.000000
0.000000 0.000000 0.000000
0.040813 -0.020899 0.000000
-0.020899 -0.007405 0.000000
0.000000 0.000000 0.000000
0.039201 -0.009037 0.000000
-0.009037 0.023143 0.000000
0.000000 0.000000 0.000000
0.007290 0.012216 0.000000
0.012216 -0.000380 0.000000
0.000000 0.000000 0.000000
0.034783 -0.020890 0.000000
-0.020890 -0.002486 0.000000
0.000000 0.000000 0.000000
0.004316 0.008642 0.000000
0.008642 -0.001166 0.000000
0.000000 0.000000 0.000000
0.009618 -0.011143 0.000000
-0.011143 0.020203 0.000000
0.000000 0.000000 0.000000
0.000388 -0.008623 0.000000
-0.008623 -0.017052 0.000000
0.000000 0.000000 0.000000
-0.006125 -0.010064 0.000000
-0.010064 -0.019601 0.000000
0.000000 0.000000 0.000000
0.022802 -0.001936 0.000000
-0.001936 -0.006072 0.000000
0.000000 0.000000 0.000000
0.021898 -0.002037 0.000000
-0.002037 -0.012674 0.000000
0.000000 0.000000 0.000000
0.002742 0.010008 0.000000
0.010008 -0.001578 0.000000
0.000000 0.000000 0.000000
0.005542 -0.003144 0.000000
-0.003144 -0.011356 0.000000
0.000000 0.000000 0.000000
-0.001457 -0.005892 0.000000
-0.005892 0.018121 0.000000
0.000000 0.000000 0.000000
-0.003548 0.003564 0.000000
0.003564 0.000362 0.000000
0.000000 0.000000 0.000000
-0.009948 0.000209 0.000000
0.000209 0.007425 0.000000
0.000000 0.000000 0.000000
0.008819 -0.001546 0.000000
-0.001546 0.005982 0.000000
0.000000 0.000000 0.000000
-0.005012 -0.004919 0.000000
-0.004919 0.012603 0.000000
0.000000 0.000000 0.000000
-0.003411 0.010767 0.000000
0.010767 -0.019414 0.000000
0.000000 0.000000 0.000000
-0.000724 0.000172 0.000000
0.000172 0.005938 0.000000
0.000000 0.000000 0.000000
-0.008509 0.005824 0.000000
0.005824 -0.009618 0.000000
0.000000 0.000000 0.000000
-0.012009 0.010341 0.000000
0.010341 0.009099 0.000000
0.000000 0.000000 0.000000
-0.003644 -0.001659 0.000000
-0.001659 0.004004 0.000000
0.000000 0.000000 0.000000
-0.015043 0.000556 0.000000
0.000556 0.021052 0.000000
0.000000 0.000000 0.000000
-0.002624 -0.002479 0.000000
-0.002479 0.013285 0.000000
0.000000 0.000000 0.000000
0.001740 -0.004277 0.000000
-0.004277 0.004453 0.000000
0.000000 0.000000 0.000000
0.000550 -0.003985 0.000000
-0.003985 0.010848 0.000000
0.000000 0.000000 0.000000
-0.001265 -0.003334 0.000000
-0.003334 0.007440 0.000000
0.000000 0.000000 0.000000
0.012164 -0.000552 0.000000
-0.000552 0.016043 0.000000
0.000000 0.000000 0.000000
0.011651 -0.001206 0.000000
-0.001206 0.004933 0.000000
0.000000 0.000000 0.000000
-0.002531 0.001433 0.000000
0.001433 0.007503 0.000000
0.000000 0.000000 0.000000
-0.007472 -0.003570 0.000000
-0.003570 0.003079 0.000000
0.000000 0.000000 0.000000
-0.002458 0.020348 0.000000
0.020348 -0.012181 0.000000
0.000000 0.000000 0.000000
0.017720 0.002171 0.000000
0.002171 0.021725 0.000000
0.000000 0.000000 0.000000
0.011619 0.002003 0.000000
0.002003 -0.008854 0.000000
0.000000 0.000000 0.000000
0.003311 0.000718 0.000000
0.000718 -0.008245 0.000000
0.000000 0.000000 0.000000
0.010883 0.003534 0.000000
0.003534 -0.014204 0.000000
0.000000 0.000000 0.000000
-0.010616 0.002382 0.000000
0.002382 0.001737 0.000000
0.000000 0.000000 0.000000
0.006392 0.000801 0.000000
0.000801 0.000014 0.000000
0.000000 0.000000 0.000000
0.009848 0.011828 0.000000
0.011828 0.005911 0.000000
0.000000 0.000000 0.000000
-0.008657 -0.013532 0.000000
-0.013532 0.002521 0.000000
0.000000 0.000000 0.000000
0.006423 -0.024679 0.000000
-0.024679 0.011319 0.000000
0.000000 0.000000 0.000000
-0.016994 -0.003393 0.000000
-0.003393 -0.002471 0.000000
0.000000 0.000000 0.000000
-0.003242 0.000282 0.000000
0.000282 -0.017250 0.000000
0.000000 0.000000 0.000000
-0.004493 0.004706 0.000000
0.004706 0.006571 0.000000
0.000000 0.000000 0.000000
-0.006536 0.004104 0.000000
0.004104 -0.015743 0.000000
0.000000 0.000000 0.000000
-0.001746 0.001763 0.000000
0.001763 0.013942 0.000000
0.000000 0.000000 0.000000
-0.014333 -0.003399 0.000000
-0.003399 0.015877 0.000000
0.000000 0.000000 0.000000
0.010673 -0.000743 0.000000
-0.000743 -0.017702 0.000000
0.000000 0.000000 0.000000
-0.020132 -0.005547 0.000000
-0.005547 0.014645 0.000000
0.000000 0.000000 0.000000
0.011754 0.002522 0.000000
0.002522 0.006582 0.000000
0.000000 0.000000 0.000000
0.001976 0.000894 0.000000
0.000894 0.004759 0.000000
0.000000 0.000000 0.000000
0.000327 -0.004780 0.000000
-0.004780 0.011978 0.000000
0.000000 0.000000 0.000000
-0.017965 -0.008936 0.000000
-0.008936 -0.011790 0.000000
0.000000 0.000000 0.000000
-0.010835 -0.002489 0.000000
-0.002489 -0.000735 0.000000
0.000000 0.000000 0.000000
0.013091 0.007200 0.000000
0.007200 -0.002880 0.000000
0.000000 0.000000 0.000000
0.007476 0.003267 0.000000
0.003267 0.000136 0.000000
0.000000 0.000000 0.000000
0.005356 0.003942 0.000000
0.003942 0.002624 0.000000
0.000000 0.000000 0.000000
0.005845 0.005899 0.000000
0.005899 0.007347 0.000000
0.000000 0.000000 0.000000
-0.008983 -0.002217 0.000000
-0.002217 0.009992 0.000000
0.000000 0.000000 0.000000
0.009752 -0.002260 0.000000
-0.002260 -0.000802 0.000000
0.000000 0.000000 0.000000
-0.013209 0.011779 0.000000
0.011779 -0.005578 0.000000
0.000000 0.000000 0.000000
-0.001013 -0.000408 0.000000
-0.000408 0.011747 0.000000
0.000000 0.000000 0.000000
-0.003183 -0.007850 0.000000
-0.007850 -0.001784 0.000000
0.000000 0.000000 0.000000
0.003704 0.006565 0.000000
0.006565 -0.014212 0.000000
0.000000 0.000000 0.000000
-0.001876 -0.001895 0.000000
-0.001895 -0.013434 0.000000
0.000000 0.000000 0.000000
0.001032 -0.003380 0.000000
-0.003380 -0.008294 0.000000
0.000000 0.000000 0.000000
0.010678 -0.009716 0.000000
-0.009716 -0.007623 0.000000
0.000000 0.000000 0.000000
0.002549 -0.000466 0.000000
-0.000466 -0.004731 0.000000
0.000000 0.000000 0.000000
0.001728 -0.002632 0.000000
-0.002632 -0.014136 0.000000
0.000000 0.000000 0.000000
0.001229 0.000002 0.000000
0.000002 -0.005449 0.000000
0.000000 0.000000 0.000000
-0.000927 -0.002570 0.000000
-0.002570 -0.012889 0.000000
0.000000 0.000000 0.000000
0.002269 -0.002762 0.000000
-0.002762 -0.001720 0.000000
0.000000 0.000000 0.000000
-0.013554 0.005553 0.000000
0.005553 0.007835 0.000000
0.000000 0.000000 0.000000
0.007454 -0.007820 0.000000
-0.007820 -0.006593 0.000000
0.000000 0.000000 0.000000
0.009702 0.000333 0.000000
0.000333 0.000608 0.000000
0.000000 0.000000 0.000000
-0.008945 0.007478 0.000000
0.007478 0.012099 0.000000
0.000000 0.000000 0.000000
-0.002154 0.001360 0.000000
0.001360 0.010222 0.000000
0.000000 0.000000 0.000000
0.003075 0.008994 0.000000
0.008994 -0.009855 0.000000
0.000000 0.000000 0.000000
0.001435 -0.005920 0.000000
-0.005920 -0.006053 0.000000
0.000000 0.000000 0.000000
0.007376 0.002415 0.000000
0.002415 -0.011842 0.000000
0.000000 0.000000 0.000000
-0.012077 0.003671 0.000000
0.003671 -0.002341 0.000000
0.000000 0.000000 0.000000
-0.007330 0.002623 0.000000
0.002623 -0.008094 0.000000
0.000000 0.000000 0.000000
-0.006221 0.007022 0.000000
0.007022 0.003406 0.000000
0.000000 0.000000 0.000000
0.002189 0.002900 0.000000
0.002900 0.016136 0.000000
0.000000 0.000000 0.000000
-0.000327 0.007934 0.000000
0.007934 0.011552 0.000000
0.000000 0.000000 0.000000
-0.000333 0.001623 0.000000
0.001623 0.010477 0.000000
0.000000 0.000000 0.000000
0.003732 -0.001741 0.000000
-0.001741 -0.014141 0.000000
0.000000 0.000000 0.000000
0.005342 0.007247 0.000000
0.007247 0.017684 0.000000
0.000000 0.000000 0.000000
-0.011801 0.002168 0.000000
0.002168 0.004386 0.000000
0.000000 0.000000 0.000000
0.001953 0.005930 0.000000
0.005930 0.018362 0.000000
0.000000 0.000000 0.000000
0.003291 -0.008046 0.000000
-0.008046 -0.016699 0.000000
0.000000 0.000000 0.000000
0.006397 0.004277 0.000000
0.004277 0.000460 0.000000
0.000000 0.000000 0.000000
-0.000970 -0.007166 0.000000
-0.007166 0.000284 0.000000
0.000000 0.000000 0.000000
-0.006443 -0.010858 0.000000
-0.010858 -0.003076 0.000000
0.000000 0.000000 0.000000
-0.002328 -0.001036 0.000000
-0.001036 -0.007154 0.000000
0.000000 0.000000 0.000000
-0.000343 0.000435 0.000000
0.000435 -0.007290 0.000000
0.000000 0.000000 0.000000
0.005321 0.000543 0.000000
0.000543 0.011180 0.000000
0.000000 0.000000 0.000000
0.001139 0.001163 0.000000
0.001163 -0.006811 0.000000
0.000000 0.000000 0.000000
0.004373 0.002688 0.000000
0.002688 0.005294 0.000000
0.000000 0.000000 0.000000
0.009515 -0.001220 0.000000
-0.001220 0.000542 0.000000
0.000000 0.000000 0.000000
-0.032550 0.010956 0.000000
0.010956 0.027506 0.000000
0.000000 0.000000 0.000000
-0.001450 0.007435 0.000000
0.007435 0.001375 0.000000
0.000000 0.000000 0.000000
-0.000379 0.002278 0.000000
0.002278 -0.014574 0.000000
0.000000 0.000000 0.000000
-0.011872 0.017982 0.000000
0.017982 -0.003671 0.000000
0.000000 0.000000 0.000000
0.009008 -0.016337 0.000000
-0.016337 -0.001880 0.000000
0.000000 0.000000 0.000000
0.006898 -0.002893 0.000000
-0.002893 -0.004163 0.000000
0.000000 0.000000 0.000000
-0.008422 0.000505 0.000000
0.000505 0.004609 0.000000
0.000000 0.000000 0.000000
0.008078 -0.004882 0.000000
-0.004882 0.005199 0.000000
0.000000 0.000000 0.000000
-0.006457 0.001403 0.000000
0.001403 0.002211 0.000000
0.000000 0.000000 0.000000
0.004835 -0.003022 0.000000
-0.003022 -0.003684 0.000000
0.000000 0.000000 0.000000
-0.001723 -0.007857 0.000000
-0.007857 -0.005384 0.000000
0.000000 0.000000 0.000000
-0.002280 0.005062 0.000000
0.005062 -0.002381 0.000000
0.000000 0.000000 0.000000
-0.002620 0.001050 0.000000
0.001050 -0.003000 0.000000
0.000000 0.000000 0.000000
-0.015345 0.003338 0.000000
0.003338 0.003569 0.000000
0.000000 0.000000 0.000000
0.004018 -0.001874 0.000000
-0.001874 0.003316 0.000000
0.000000 0.000000 0.000000
-0.011805 0.001090 0.000000
0.001090 0.001836 0.000000
0.000000 0.000000 0.000000
0.014623 -0.007546 0.000000
-0.007546 0.010688 0.000000
0.000000 0.000000 0.000000
-0.004960 0.001122 0.000000
0.001122 0.014431 0.000000
0.000000 0.000000 0.000000
-0.022073 -0.001509 0.000000
-0.001509 -0.009812 0.000000
0.000000 0.000000 0.000000
-0.013681 0.000463 0.000000
0.000463 0.000857 0.000000
0.000000 0.000000 0.000000
-0.015358 0.002517 0.000000
0.002517 0.001511 0.000000
0.000000 0.000000 0.000000
-0.009986 0.005391 0.000000
0.005391 -0.000157 0.000000
0.000000 0.000000 0.000000
-0.017205 0.000951 0.000000
0.000951 -0.018120 0.000000
0.000000 0.000000 0.000000
-0.012399 0.004972 0.000000
0.004972 -0.000160 0.000000
0.000000 0.000000 0.000000
0.005739 -0.000711 0.000000
-0.000711 0.010607 0.000000
0.000000 0.000000 0.000000
-0.015162 -0.009108 0.000000
-0.009108 0.019274 0.000000
0.000000 0.000000 0.000000
-0.000608 -0.002146 0.000000
-0.002146 0.008473 0.000000
0.000000 0.000000 0.000000
-0.010034 -0.012375 0.000000
-0.012375 0.011785 0.000000
0.000000 0.000000 0.000000
-0.008178 -0.005205 0.000000
-0.005205 -0.000918 0.000000
0.000000 0.000000 0.000000
-0.008910 -0.012559 0.000000
-0.012559 0.020226 0.000000
0.000000 0.000000 0.000000
0.015060 0.005049 0.000000
0.005049 0.022017 0.000000
0.000000 0.000000 0.000000
0.023160 -0.008970 0.000000
-0.008970 0.006863 0.000000
0.000000 0.000000 0.000000
0.039871 -0.011616 0.000000
-0.011616 0.011020 0.000000
0.000000 0.000000 0.000000
0.015358 0.003850 0.000000
0.003850 0.036530 0.000000
0.000000 0.000000 0.000000
0.008173 0.002129 0.000000
0.002129 0.017800 0.000000
0.000000 0.000000 0.000000
0.009826 0.003543 0.000000
0.003543 0.035985 0.000000
0.000000 0.000000 0.000000
-0.012360 -0.010169 0.000000
-0.010169 -0.007271 0.000000
0.000000 0.000000 0.000000
0.007539 -0.020528 0.000000
-0.020528 -0.001888 0.000000
0.000000 0.000000 0.000000
0.005352 -0.004388 0.000000
-0.004388 -0.017641 0.000000
0.000000 0.000000 0.000000
0.003546 -0.012428 0.000000
-0.012428 -0.013101 0.000000
0.000000 0.000000 0.000000
-0.013325 -0.013377 0.000000
-0.013377 -0.013038 0.000000
0.000000 0.000000 0.000000
-0.009829 -0.002228 0.000000
-0.002228 -0.004420 0.000000
0.000000 0.000000 0.000000
0.012405 -0.004574 0.000000
-0.004574 0.016188 0.000000
0.000000 0.000000 0.000000
0.007627 -0.007568 0.000000
-0.007568 0.001705 0.000000
0.000000 0.000000 0.000000
-0.013230 -0.000049 0.000000
-0.000049 -0.010092 0.000000
0.000000 0.000000 0.000000
-0.018556 0.002878 0.000000
0.002878 0.009058 0.000000
0.000000 0.000000 0.000000
-0.003936 0.006661 0.000000
0.006661 0.001059 0.000000
0.000000 0.000000 0.000000
-0.020820 0.004908 0.000000
0.004908 -0.017010 0.000000
0.000000 0.000000 0.000000
-0.004481 0.000900 0.000000
0.000900 -0.008745 0.000000
0.000000 0.000000 0.000000
-0.000641 0.005603 0.000000
0.005603 0.003484 0.000000
0.000000 0.000000 0.000000
-0.020388 0.007388 0.000000
0.007388 -0.015962 0.000000
0.000000 0.000000 0.000000
-0.008746 -0.004454 0.000000
-0.004454 0.009037 0.000000
0.000000 0.000000 0.000000
-0.000933 0.003599 0.000000
0.003599 0.005517 0.000000
0.000000 0.000000 0.000000
-0.009414 -0.000579 0.000000
-0.000579 -0.002503 0.000000
0.000000 0.000000 0.000000
0.001948 0.008701 0.000000
0.008701 0.009043 0.000000
0.000000 0.000000 0.000000
0.000637 -0.009060 0.000000
-0.009060 -0.004102 0.000000
0.000000 0.000000 0.000000
-0.000630 -0.002845 0.000000
-0.002845 -0.018209 0.000000
0.000000 0.000000 0.000000
-0.003079 -0.017389 0.000000
-0.017389 -0.018824 0.000000
0.000000 0.000000 0.000000
0.013990 -0.003671 0.000000
-0.003671 -0.016561 0.000000
0.000000 0.000000 0.000000
-0.001188 -0.004224 0.000000
-0.004224 -0.013194 0.000000
0.000000 0.000000 0.000000
0.012874 0.000048 0.000000
0.000048 0.002378 0.000000
0.000000 0.000000 0.000000
0.009851 0.001268 0.000000
0.001268 -0.004539 0.000000
0.000000 0.000000 0.000000
-0.001726 0.012020 0.000000
0.012020 -0.005014 0.000000
0.000000 0.000000 0.000000
0.012770 0.002065 0.000000
0.002065 -0.003458 0.000000
0.000000 0.000000 0.000000
0.006959 0.008701 0.000000
0.008701 -0.003027 0.000000
0.000000 0.000000 0.000000
0.016982 -0.006856 0.000000
-0.006856 -0.001933 0.000000
0.000000 0.000000 0.000000
0.002176 -0.008539 0.000000
-0.008539 0.005211 0.000000
0.000000 0.000000 0.000000
0.017468 0.002188 0.000000
0.002188 0.006211 0.000000
0.000000 0.000000 0.000000
0.005702 0.006415 0.000000
0.006415 -0.000666 0.000000
0.000000 0.000000 0.000000
0.004796 0.005674 0.000000
0.005674 -0.002434 0.000000
0.000000 0.000000 0.000000
-0.001532 0.001647 0.000000
0.001647 0.001707 0.000000
0.000000 0.000000 0.000000
-0.002671 0.010528 0.000000
0.010528 0.009497 0.000000
0.000000 0.000000 0.000000
-0.012063 0.010510 0.000000
0.010510 -0.006038 0.000000
0.000000 0.000000 0.000000
-0.006427 0.007836 0.000000
0.007836 0.005949 0.000000
0.000000 0.000000 0.000000
-0.017425 -0.000110 0.000000
-0.000110 -0.008441 0.000000
0.000000 0.000000 0.000000
0.013852 0.004403 0.000000
0.004403 0.018985 0.000000
0.000000 0.000000 0.000000
-0.006585 0.003970 0.000000
0.003970 -0.025046 0.000000
0.000000 0.000000 0.000000
-0.013920 0.012322 0.000000
0.012322 -0.027009 0.000000
0.000000 0.000000 0.000000
-0.025613 0.019503 0.000000
0.019503 -0.049362 0.000000
0.000000 0.000000 0.000000
0.005426 0.008758 0.000000
0.008758 -0.001697 0.000000
0.000000 0.000000 0.000000
0.009069 0.002233 0.000000
0.002233 -0.020716 0.000000
0.000000 0.000000 0.000000
0.004005 0.005950 0.000000
0.005950 -0.015784 0.000000
0.000000 0.000000 0.000000
-0.007537 0.015050 0.000000
0.015050 -0.007855 0.000000
0.000000 0.000000 0.000000
-0.009441 0.004461 0.000000
0.004461 0.003972 0.000000
0.000000 0.000000 0.000000
0.012236 0.004040 0.000000
0.004040 -0.002036 0.000000
0.000000 0.000000 0.000000
0.010196 0.002015 0.000000
0.002015 -0.012653 0.000000
0.000000 0.000000 0.000000
0.006820 -0.000616 0.000000
-0.000616 0.000520 0.000000
0.000000 0.000000 0.000000
-0.003338 -0.015054 0.000000
-0.015054 0.008600 0.000000
0.000000 0.000000 0.000000
0.001567 -0.006063 0.000000
-0.006063 0.006135 0.000000
0.000000 0.000000 0.000000
-0.000064 -0.007256 0.000000
-0.007256 0.008450 0.000000
0.000000 0.000000 0.000000
0.001642 -0.011222 0.000000
-0.011222 0.000654 0.000000
0.000000 0.000000 0.000000
0.022363 0.007338 0.000000
0.007338 -0.013778 0.000000
0.000000 0.000000 0.000000
-0.009912 -0.005702 0.000000
-0.005702 -0.008584 0.000000
0.000000 0.000000 0.000000
0.037497 0.001571 0.000000
0.001571 -0.004752 0.000000
0.000000 0.000000 0.000000
-0.012324 -0.015297 0.000000
-0.015297 -0.006936 0.000000
0.000000 0.000000 0.000000
-0.028387 -0.002753 0.000000
-0.002753 0.031465 0.000000
0.000000 0.000000 0.000000
-0.027817 0.004223 0.000000
0.004223 0.032256 0.000000
0.000000 0.000000 0.000000
0.007869 0.000916 0.000000
0.000916 -0.004846 0.000000
0.000000 0.000000 0.000000
-0.004607 -0.001963 0.000000
-0.001963 -0.007912 0.000000
0.000000 0.000000 0.000000
0.018588 0.007963 0.000000
0.007963 0.003725 0.000000
0.000000 0.000000 0.000000
0.010603 -0.005180 0.000000
-0.005180 0.004686 0.000000
0.000000 0.000000 0.000000
-0.004332 -0.002441 0.000000
-0.002441 0.018564 0.000000
0.000000 0.000000 0.000000
-0.002731 -0.013800 0.000000
-0.013800 0.002382 0.000000
0.000000 0.000000 0.000000
0.024211 0.006101 0.000000
0.006101 0.022730 0.000000
0.000000 0.000000 0.000000
0.015538 0.001768 0.000000
0.001768 -0.001041 0.000000
0.000000 0.000000 0.000000
0.007007 -0.007310 0.000000
-0.007310 0.022870 0.000000
0.000000 0.000000 0.000000
-0.004846 -0.000071 0.000000
-0.000071 -0.006249 0.000000
0.000000 0.000000 0.000000
0.002072 0.002094 0.000000
0.002094 -0.000699 0.000000
0.000000 0.000000 0.000000
0.004191 -0.006881 0.000000
-0.006881 -0.002778 0.000000
0.000000 0.000000 0.000000
0.010078 -0.008396 0.000000
-0.008396 -0.008379 0.000000
0.000000 0.000000 0.000000
0.004000 0.005267 0.000000
0.005267 -0.004449 0.000000
0.000000 0.000000 0.000000
0.017039 0.001311 0.000000
0.001311 -0.029634 0.000000
0.000000 0.000000 0.000000
0.005677 0.005502 0.000000
0.005502 0.002323 0.000000
0.000000 0.000000 0.000000
-0.000622 0.003596 0.000000
0.003596 -0.013628 0.000000
0.000000 0.000000 0.000000
-0.004338 0.003089 0.000000
0.003089 0.007457 0.000000
0.000000 0.000000 0.000000
-0.008897 -0.003012 0.000000
-0.003012 0.003116 0.000000
0.000000 0.000000 0.000000
-0.029478 0.003709 0.000000
0.003709 0.017771 0.000000
0.000000 0.000000 0.000000
0.017793 -0.001474 0.000000
-0.001474 -0.004787 0.000000
0.000000 0.000000 0.000000
0.015616 0.001028 0.000000
0.001028 -0.002317 0.000000
0.000000 0.000000 0.000000
0.013306 -0.000312 0.000000
-0.000312 -0.009664 0.000000
0.000000 0.000000 0.000000
-0.017371 -0.002201 0.000000
-0.002201 -0.023150 0.000000
0.000000 0.000000 0.000000
-0.023335 0.007329 0.000000
0.007329 0.018119 0.000000
0.000000 0.000000 0.000000
-0.026415 0.005898 0.000000
0.005898 0.007547 0.000000
0.000000 0.000000 0.000000
0.017547 0.008049 0.000000
0.008049 0.015670 0.000000
0.000000 0.000000 0.000000
0.018667 0.008553 0.000000
0.008553 0.016074 0.000000
0.000000 0.000000 0.000000
0.019998 0.010849 0.000000
0.010849 0.011954 0.000000
0.000000 0.000000 0.000000
0.004916 0.004119 0.000000
0.004119 0.002815 0.000000
0.000000 0.000000 0.000000
0.003083 -0.002811 0.000000
-0.002811 0.003382 0.000000
0.000000 0.000000 0.000000
0.024376 0.009656 0.000000
0.009656 0.011714 0.000000
0.000000 0.000000 0.000000
0.005003 -0.002246 0.000000
-0.002246 0.006507 0.000000
0.000000 0.000000 0.000000
-0.019952 0.004795 0.000000
0.004795 0.020737 0.000000
0.000000 0.000000 0.000000
0.003143 0.003611 0.000000
0.003611 0.004639 0.000000
0.000000 0.000000 0.000000
-0.005105 -0.001770 0.000000
-0.001770 0.000187 0.000000
0.000000 0.000000 0.000000
-0.007491 -0.009712 0.000000
-0.009712 0.004094 0.000000
0.000000 0.000000 0.000000
0.002947 0.007156 0.000000
0.007156 -0.032908 0.000000
0.000000 0.000000 0.000000
-0.024869 -0.017363 0.000000
-0.017363 0.006190 0.000000
0.000000 0.000000 0.000000
0.003186 -0.002305 0.000000
-0.002305 -0.003697 0.000000
0.000000 0.000000 0.000000
0.004265 0.002405 0.000000
0.002405 0.000355 0.000000
0.000000 0.000000 0.000000
-0.005893 0.006649 0.000000
0.006649 0.005399 0.000000
0.000000 0.000000 0.000000
0.000567 -0.004703 0.000000
-0.004703 -0.006407 0.000000
0.000000 0.000000 0.000000
0.000689 -0.008077 0.000000
-0.008077 0.012794 0.000000
0.000000 0.000000 0.000000
0.001036 -0.006461 0.000000
-0.006461 0.012379 0.000000
0.000000 0.000000 0.000000
-0.006264 0.004151 0.000000
0.004151 -0.000120 0.000000
0.000000 0.000000 0.000000
-0.004181 0.007239 0.000000
0.007239 0.005425 0.000000
0.000000 0.000000 0.000000
-0.000899 -0.004366 0.000000
-0.004366 -0.007570 0.000000
0.000000 0.000000 0.000000
-0.002888 -0.003759 0.000000
-0.003759 -0.008443 0.000000
0.000000 0.000000 0.000000
-0.011621 0.009256 0.000000
0.009256 -0.007617 0.000000
0.000000 0.000000 0.000000
-0.025310 -0.004235 0.000000
-0.004235 -0.002843 0.000000
0.000000 0.000000 0.000000
-0.018264 0.005604 0.000000
0.005604 -0.007188 0.000000
0.000000 0.000000 0.000000
0.017120 -0.000083 0.000000
-0.000083 0.007143 0.000000
0.000000 0.000000 0.000000
0.025524 -0.002851 0.000000
-0.002851 -0.002284 0.000000
0.000000 0.000000 0.000000
0.013778 -0.008958 0.000000
-0.008958 -0.002540 0.000000
0.000000 0.000000 0.000000
-0.003202 -0.008860 0.000000
-0.008860 -0.006595 0.000000
0.000000 0.000000 0.000000
-0.002743 -0.014875 0.000000
-0.014875 -0.020966 0.000000
0.000000 0.000000 0.000000
-0.011373 -0.000893 0.000000
-0.000893 -0.004673 0.000000
0.000000 0.000000 0.000000
0.011466 0.005592 0.000000
0.005592 -0.006928 0.000000
0.000000 0.000000 0.000000
0.002798 0.006825 0.000000
0.006825 -0.000120 0.000000
0.000000 0.000000 0.000000
0.005357 -0.000150 0.000000
-0.000150 0.001493 0.000000
0.000000 0.000000 0.000000
0.024581 -0.009110 0.000000
-0.009110 -0.006751 0.000000
0.000000 0.000000 0.000000
-0.002965 0.001304 0.000000
0.001304 -0.006640 0.000000
0.000000 0.000000 0.000000
0.020680 -0.009142 0.000000
-0.009142 0.013833 0.000000
0.000000 0.000000 0.000000
0.000003 -0.001517 0.000000
-0.001517 0.010350 0.000000
0.000000 0.000000 0.000000
-0.000418 -0.000726 0.000000
-0.000726 0.001237 0.000000
0.000000 0.000000 0.000000
-0.009954 0.002182 0.000000
0.002182 -0.002587 0.000000
0.000000 0.000000 0.000000
-0.002621 0.004011 0.000000
0.004011 -0.026247 0.000000
0.000000 0.000000 0.000000
0.002515 0.003828 0.000000
0.003828 -0.000102 0.000000
0.000000 0.000000 0.000000
0.006018 -0.005205 0.000000
-0.005205 0.001360 0.000000
0.000000 0.000000 0.000000
-0.003038 -0.000904 0.000000
-0.000904 -0.002582 0.000000
0.000000 0.000000 0.000000
-0.001395 0.000923 0.000000
0.000923 0.026884 0.000000
0.000000 0.000000 0.000000
-0.018395 0.005924 0.000000
0.005924 -0.002011 0.000000
0.000000 0.000000 0.000000
-0.000648 0.010437 0.000000
0.010437 0.003598 0.000000
0.000000 0.000000 0.000000
-0.007694 -0.006920 0.000000
-0.006920 -0.018755 0.000000
0.000000 0.000000 0.000000
-0.015239 -0.003010 0.000000
-0.003010 -0.014914 0.000000
0.000000 0.000000 0.000000
0.002782 -0.010087 0.000000
-0.010087 -0.003045 0.000000
0.000000 0.000000 0.000000
-0.016258 -0.005835 0.000000
-0.005835 -0.021207 0.000000
0.000000 0.000000 0.000000
-0.016223 0.002143 0.000000
0.002143 -0.016022 0.000000
0.000000 0.000000 0.000000
0.007232 0.000059 0.000000
0.000059 0.006125 0.000000
0.000000 0.000000 0.000000
0.017603 -0.001005 0.000000
-0.001005 0.009023 0.000000
0.000000 0.000000 0.000000
-0.003861 -0.005665 0.000000
-0.005665 0.009462 0.000000
0.000000 0.000000 0.000000
-0.003793 -0.001386 0.000000
-0.001386 0.018010 0.000000
0.000000 0.000000 0.000000
-0.014838 0.003252 0.000000
0.003252 0.002314 0.000000
0.000000 0.000000 0.000000
-0.001012 0.003736 0.000000
0.003736 0.000358 0.000000
0.000000 0.000000 0.000000
-0.001274 -0.000975 0.000000
-0.000975 -0.000784 0.000000
0.000000 0.000000 0.000000
-0.002560 0.002715 0.000000
0.002715 -0.002496 0.000000
0.000000 0.000000 0.000000
-0.006398 -0.003568 0.000000
-0.003568 0.010667 0.000000
0.000000 0.000000 0.000000
0.005005 0.006029 0.000000
0.006029 0.000942 0.000000
0.000000 0.000000 0.000000
-0.000870 -0.004423 0.000000
-0.004423 0.007852 0.000000
0.000000 0.000000 0.000000
-0.008684 0.003629 0.000000
0.003629 0.007801 0.000000
0.000000 0.000000 0.000000
0.002988 0.003375 0.000000
0.003375 0.004489 0.000000
0.000000 0.000000 0.000000
-0.008433 0.000542 0.000000
0.000542 0.003079 0.000000
0.000000 0.000000 0.000000
0.001802 -0.001799 0.000000
-0.001799 0.019163 0.000000
0.000000 0.000000 0.000000
0.000661 -0.009000 0.000000
-0.009000 -0.008033 0.000000
0.000000 0.000000 0.000000
-0.000714 0.000294 0.000000
0.000294 -0.001328 0.000000
0.000000 0.000000 0.000000
-0.002406 -0.011371 0.000000
-0.011371 0.009506 0.000000
0.000000 0.000000 0.000000
0.012836 -0.009280 0.000000
-0.009280 0.001389 0.000000
0.000000 0.000000 0.000000
0.017995 -0.014274 0.000000
-0.014274 -0.005230 0.000000
0.000000 0.000000 0.000000
0.007021 -0.002413 0.000000
-0.002413 -0.000340 0.000000
0.000000 0.000000 0.000000
0.003758 0.012361 0.000000
0.012361 0.018185 0.000000
0.000000 0.000000 0.000000
-0.006688 0.002613 0.000000
0.002613 -0.003863 0.000000
0.000000 0.000000 0.000000
-0.013943 -0.002888 0.000000
-0.002888 0.009796 0.000000
0.000000 0.000000 0.000000
0.003212 0.007408 0.000000
0.007408 -0.016337 0.000000
0.000000 0.000000 0.000000
-0.005063 -0.002227 0.000000
-0.002227 -0.003380 0.000000
0.000000 0.000000 0.000000
0.004202 -0.010133 0.000000
-0.010133 0.012376 0.000000
0.000000 0.000000 0.000000
0.002848 0.003266 0.000000
0.003266 -0.006312 0.000000
0.000000 0.000000 0.000000
0.004217 0.002044 0.000000
0.002044 -0.004373 0.000000
0.000000 0.000000 0.000000
0.021855 0.012972 0.000000
0.012972 -0.040783 0.000000
0.000000 0.000000 0.000000
0.019434 0.008130 0.000000
0.008130 -0.003135 0.000000
0.000000 0.000000 0.000000
-0.012844 0.027664 0.000000
0.027664 -0.035802 0.000000
0.000000 0.000000 0.000000
0.017432 0.006688 0.000000
0.006688 -0.000213 0.000000
0.000000 0.000000 0.000000
-0.010603 -0.008269 0.000000
-0.008269 -0.009729 0.000000
0.000000 0.000000 0.000000
-0.004962 -0.001560 0.000000
-0.001560 0.000389 0.000000
0.000000 0.000000 0.000000
-0.003110 0.002646 0.000000
0.002646 -0.002342 0.000000
0.000000 0.000000 0.000000
-0.010127 -0.008202 0.000000
-0.008202 -0.012938 0.000000
0.000000 0.000000 0.000000
-0.010761 -0.009309 0.000000
-0.009309 0.004851 0.000000
0.000000 0.000000 0.000000
-0.007724 -0.001622 0.000000
-0.001622 0.010566 0.000000
0.000000 0.000000 0.000000
0.004520 -0.002249 0.000000
-0.002249 -0.002361 0.000000
0.000000 0.000000 0.000000
0.005143 -0.008785 0.000000
-0.008785 0.005267 0.000000
0.000000 0.000000 0.000000
0.005395 -0.005584 0.000000
-0.005584 0.000402 0.000000
0.000000 0.000000 0.000000
-0.005314 -0.002681 0.000000
-0.002681 -0.003162 0.000000
0.000000 0.000000 0.000000
-0.005233 -0.002327 0.000000
-0.002327 -0.002656 0.000000
0.000000 0.000000 0.000000
0.005228 -0.002216 0.000000
-0.002216 0.011157 0.000000
0.000000 0.000000 0.000000
0.001149 -0.002506 0.000000
-0.002506 -0.002391 0.000000
0.000000 0.000000 0.000000
-0.003818 -0.003057 0.000000
-0.003057 -0.003980 0.000000
0.000000 0.000000 0.000000
-0.001317 0.005278 0.000000
0.005278 -0.008667 0.000000
0.000000 0.000000 0.000000
-0.022592 0.005678 0.000000
0.005678 0.021585 0.000000
0.000000 0.000000 0.000000
-0.011262 0.000382 0.000000
0.000382 0.020218 0.000000
0.000000 0.000000 0.000000
0.004441 -0.013127 0.000000
-0.013127 -0.001620 0.000000
0.000000 0.000000 0.000000
0.013198 -0.006024 0.000000
-0.006024 0.007637 0.000000
0.000000 0.000000 0.000000
0.007083 -0.004262 0.000000
-0.004262 0.005391 0.000000
0.000000 0.000000 0.000000
0.006911 -0.006113 0.000000
-0.006113 0.000161 0.000000
0.000000 0.000000 0.000000
0.004872 0.000106 0.000000
0.000106 0.001183 0.000000
0.000000 0.000000 0.000000
-0.006545 -0.000712 0.000000
-0.000712 0.003309 0.000000
0.000000 0.000000 0.000000
0.002181 0.006572 0.000000
0.006572 -0.000767 0.000000
0.000000 0.000000 0.000000
0.004198 0.000447 0.000000
0.000447 0.016261 0.000000
0.000000 0.000000 0.000000
-0.017259 -0.005523 0.000000
-0.005523 -0.007444 0.000000
0.000000 0.000000 0.000000
0.003009 0.000016 0.000000
0.000016 -0.009202 0.000000
0.000000 0.000000 0.000000
-0.012304 -0.010892 0.000000
-0.010892 0.010716 0.000000
0.000000 0.000000 0.000000
-0.003062 0.012911 0.000000
0.012911 0.010730 0.000000
0.000000 0.000000 0.000000
-0.018818 -0.004675 0.000000
-0.004675 0.014477 0.000000
0.000000 0.000000 0.000000
0.014748 0.005434 0.000000
0.005434 0.020508 0.000000
0.000000 0.000000 0.000000
-0.016004 -0.004484 0.000000
-0.004484 0.025307 0.000000
0.000000 0.000000 0.000000
-0.000172 -0.000045 0.000000
-0.000045 -0.005845 0.000000
0.000000 0.000000 0.000000
0.004599 0.000126 0.000000
0.000126 0.010543 0.000000
0.000000 0.000000 0.000000
-0.010296 0.009785 0.000000
0.009785 0.005943 0.000000
0.000000 0.000000 0.000000
0.016150 -0.005544 0.000000
-0.005544 0.022481 0.000000
0.000000 0.000000 0.000000
-0.007955 -0.006801 0.000000
-0.006801 0.002440 0.000000
0.000000 0.000000 0.000000
-0.017139 -0.004768 0.000000
-0.004768 0.003303 0.000000
0.000000 0.000000 0.000000
0.006028 0.006299 0.000000
0.006299 -0.005258 0.000000
0.000000 0.000000 0.000000
-0.002297 -0.002427 0.000000
-0.002427 0.000943 0.000000
0.000000 0.000000 0.000000
0.010306 0.000178 0.000000
0.000178 -0.001031 0.000000
0.000000 0.000000 0.000000
0.005362 -0.006351 0.000000
-0.006351 0.023539 0.000000
0.000000 0.000000 0.000000
-0.013192 -0.016924 0.000000
-0.016924 0.003375 0.000000
0.000000 0.000000 0.000000
-0.000543 -0.002752 0.000000
-0.002752 0.002146 0.000000
0.000000 0.000000 0.000000
0.013957 0.001036 0.000000
0.001036 0.004349 0.000000
0.000000 0.000000 0.000000
-0.008759 0.002709 0.000000
0.002709 -0.009060 0.000000
0.000000 0.000000 0.000000
-0.003368 0.004935 0.000000
0.004935 0.007163 0.000000
0.000000 0.000000 0.000000
-0.008703 0.002519 0.000000
0.002519 -0.015243 0.000000
0.000000 0.000000 0.000000
0.012177 0.001739 0.000000
0.001739 0.003870 0.000000
0.000000 0.000000 0.000000
0.003667 0.003004 0.000000
0.003004 0.002755 0.000000
0.000000 0.000000 0.000000
-0.000240 0.002472 0.000000
0.002472 0.002302 0.000000
0.000000 0.000000 0.000000
-0.002326 0.001972 0.000000
0.001972 0.020618 0.000000
0.000000 0.000000 0.000000
0.003515 -0.007323 0.000000
-0.007323 -0.005805 0.000000
0.000000 0.000000 0.000000
-0.014029 -0.000930 0.000000
-0.000930 -0.014481 0.000000
0.000000 0.000000 0.000000
0.005051 0.001743 0.000000
0.001743 -0.016979 0.000000
0.000000 0.000000 0.000000
0.022100 -0.004289 0.000000
-0.004289 0.029036 0.000000
0.000000 0.000000 0.000000
0.023099 0.011920 0.000000
0.011920 0.013357 0.000000
0.000000 0.000000 0.000000
-0.002389 0.002688 0.000000
0.002688 -0.008220 0.000000
0.000000 0.000000 0.000000
-0.004868 0.001866 0.000000
0.001866 -0.014628 0.000000
0.000000 0.000000 0.000000
-0.001548 0.000937 0.000000
0.000937 -0.004249 0.000000
0.000000 0.000000 0.000000
0.024594 -0.000653 0.000000
-0.000653 0.013718 0.000000
0.000000 0.000000 0.000000
0.004759 0.005099 0.000000
0.005099 0.016115 0.000000
0.000000 0.000000 0.000000
-0.001913 0.004886 0.000000
0.004886 0.018568 0.000000
0.000000 0.000000 0.000000
0.005335 -0.000114 0.000000
-0.000114 0.022483 0.000000
0.000000 0.000000 0.000000
-0.001503 0.009946 0.000000
0.009946 0.011645 0.000000
0.000000 0.000000 0.000000
-0.008355 -0.005766 0.000000
-0.005766 0.000528 0.000000
0.000000 0.000000 0.000000
-0.000509 -0.003942 0.000000
-0.003942 0.003372 0.000000
0.000000 0.000000 0.000000
-0.012198 -0.003721 0.000000
-0.003721 0.000969 0.000000
0.000000 0.000000 0.000000
-0.001038 0.022389 0.000000
0.022389 -0.028692 0.000000
0.000000 0.000000 0.000000
0.011223 0.006324 0.000000
0.006324 0.010804 0.000000
0.000000 0.000000 0.000000
0.006968 -0.015275 0.000000
-0.015275 0.046150 0.000000
0.000000 0.000000 0.000000
0.036420 0.010683 0.000000
0.010683 0.010551 0.000000
0.000000 0.000000 0.000000
0.003427 0.019005 0.000000
0.019005 -0.003476 0.000000
0.000000 0.000000 0.000000
0.004386 0.000147 0.000000
0.000147 -0.001230 0.000000
0.000000 0.000000 0.000000
0.022037 -0.003039 0.000000
-0.003039 0.020560 0.000000
0.000000 0.000000 0.000000
0.012894 0.000918 0.000000
0.000918 0.000138 0.000000
0.000000 0.000000 0.000000
-0.000317 -0.005850 0.000000
-0.005850 0.018344 0.000000
0.000000 0.000000 0.000000
0.001334 0.002290 0.000000
0.002290 0.012636 0.000000
0.000000 0.000000 0.000000
0.000083 -0.005696 0.000000
-0.005696 0.006959 0.000000
0.000000 0.000000 0.000000
0.003916 -0.004064 0.000000
-0.004064 -0.004772 0.000000
0.000000 0.000000 0.000000
0.003771 0.001706 0.000000
0.001706 -0.018415 0.000000
0.000000 0.000000 0.000000
0.004347 -0.001923 0.000000
-0.001923 0.002827 0.000000
0.000000 0.000000 0.000000
-0.016763 -0.003859 0.000000
-0.003859 0.016732 0.000000
0.000000 0.000000 0.000000
0.003793 -0.002858 0.000000
-0.002858 0.013693 0.000000
0.000000 0.000000 0.000000
-0.020613 -0.008677 0.000000
-0.008677 -0.000176 0.000000
0.000000 0.000000 0.000000
0.003448 -0.000778 0.000000
-0.000778 0.004597 0.000000
0.000000 0.000000 0.000000
0.026604 0.012154 0.000000
0.012154 0.018516 0.000000
0.000000 0.000000 0.000000
-0.002558 0.006126 0.000000
0.006126 -0.022813 0.000000
0.000000 0.000000 0.000000
0.001659 0.001821 0.000000
0.001821 0.003876 0.000000
0.000000 0.000000 0.000000
-0.002557 0.007194 0.000000
0.007194 -0.009559 0.000000
0.000000 0.000000 0.000000
-0.014024 -0.007118 0.000000
-0.007118 0.012688 0.000000
0.000000 0.000000 0.000000
-0.006411 0.000436 0.000000
0.000436 -0.001044 0.000000
0.000000 0.000000 0.000000
-0.010439 -0.004427 0.000000
-0.004427 0.017788 0.000000
0.000000 0.000000 0.000000
-0.009946 0.015495 0.000000
0.015495 0.002952 0.000000
0.000000 0.000000 0.000000
-0.006227 -0.008051 0.000000
-0.008051 0.002348 0.000000
0.000000 0.000000 0.000000
0.007951 0.014649 0.000000
0.014649 -0.006440 0.000000
0.000000 0.000000 0.000000
0.003285 0.001071 0.000000
0.001071 -0.013127 0.000000
0.000000 0.000000 0.000000
-0.000104 0.007628 0.000000
0.007628 -0.016700 0.000000
0.000000 0.000000 0.000000
-0.009537 -0.003796 0.000000
-0.003796 -0.030098 0.000000
0.000000 0.000000 0.000000
-0.009520 -0.003572 0.000000
-0.003572 0.003432 0.000000
0.000000 0.000000 0.000000
-0.002114 0.005950 0.000000
0.005950 -0.021266 0.000000
0.000000 0.000000 0.000000
0.019022 0.006090 0.000000
0.006090 0.009081 0.000000
0.000000 0.000000 0.000000
-0.003370 -0.000263 0.000000
-0.000263 -0.028575 0.000000
0.000000 0.000000 0.000000
-0.001128 0.002353 0.000000
0.002353 -0.016653 0.000000
0.000000 0.000000 0.000000
-0.013402 0.005674 0.000000
0.005674 -0.001870 0.000000
0.000000 0.000000 0.000000
-0.003484 -0.001000 0.000000
-0.001000 0.002570 0.000000
0.000000 0.000000 0.000000
0.006053 0.003517 0.000000
0.003517 -0.010902 0.000000
0.000000 0.000000 0.000000
0.005227 0.003915 0.000000
0.003915 0.010390 0.000000
0.000000 0.000000 0.000000
0.014902 0.024984 0.000000
0.024984 0.009877 0.000000
0.000000 0.000000 0.000000
0.000825 -0.003182 0.000000
-0.003182 -0.003110 0.000000
0.000000 0.000000 0.000000
-0.004120 -0.000797 0.000000
-0.000797 -0.006425 0.000000
0.000000 0.000000 0.000000
0.021766 0.007289 0.000000
0.007289 -0.007657 0.000000
0.000000 0.000000 0.000000
0.004266 0.008245 0.000000
0.008245 0.026886 0.000000
0.000000 0.000000 0.000000
0.000244 0.006166 0.000000
0.006166 -0.003363 0.000000
0.000000 0.000000 0.000000
-0.008529 -0.001558 0.000000
-0.001558 0.029294 0.000000
0.000000 0.000000 0.000000
-0.009019 -0.000940 0.000000
-0.000940 0.022867 0.000000
0.000000 0.000000 0.000000
0.027591 0.000048 0.000000
0.000048 -0.018893 0.000000
0.000000 0.000000 0.000000
-0.025440 0.009494 0.000000
0.009494 0.001597 0.000000
0.000000 0.000000 0.000000
-0.024312 -0.012989 0.000000
-0.012989 -0.014254 0.000000
0.000000 0.000000 0.000000
0.005195 -0.004661 0.000000
-0.004661 0.003737 0.000000
0.000000 0.000000 0.000000
0.009661 0.001315 0.000000
0.001315 0.015639 0.000000
0.000000 0.000000 0.000000
-0.007472 -0.005892 0.000000
-0.005892 -0.006484 0.000000
0.000000 0.000000 0.000000
0.006993 -0.011422 0.000000
-0.011422 -0.007177 0.000000
0.000000 0.000000 0.000000
0.007797 0.000225 0.000000
0.000225 -0.006140 0.000000
0.000000 0.000000 0.000000
-0.005592 -0.008656 0.000000
-0.008656 0.006364 0.000000
0.000000 0.000000 0.000000
0.008884 -0.010334 0.000000
-0.010334 -0.014552 0.000000
0.000000 0.000000 0.000000
-0.008833 -0.009855 0.000000
-0.009855 0.012122 0.000000
0.000000 0.000000 0.000000
0.009418 0.005186 0.000000
0.005186 0.014036 0.000000
0.000000 0.000000 0.000000
0.002881 0.004776 0.000000
0.004776 -0.003372 0.000000
0.000000 0.000000 0.000000
-0.005489 0.004736 0.000000
0.004736 0.005392 0.000000
0.000000 0.000000 0.000000
0.002426 0.000149 0.000000
0.000149 -0.000155 0.000000
0.000000 0.000000 0.000000
-0.004317 0.006248 0.000000
0.006248 0.003126 0.000000
0.000000 0.000000 0.000000
0.017803 0.008467 0.000000
0.008467 0.005202 0.000000
0.000000 0.000000 0.000000
0.014632 -0.006483 0.000000
-0.006483 -0.005969 0.000000
0.000000 0.000000 0.000000
0.002100 -0.001406 0.000000
-0.001406 0.014710 0.000000
0.000000 0.000000 0.000000
0.014766 -0.010418 0.000000
-0.010418 0.005534 0.000000
0.000000 0.000000 0.000000
0.002879 -0.005571 0.000000
-0.005571 -0.001634 0.000000
0.000000 0.000000 0.000000
-0.009526 0.005828 0.000000
0.005828 -0.001907 0.000000
0.000000 0.000000 0.000000
0.011765 -0.013283 0.000000
-0.013283 -0.018234 0.000000
0.000000 0.000000 0.000000
-0.000449 -0.002988 0.000000
-0.002988 -0.006500 0.000000
0.000000 0.000000 0.000000
0.011725 0.005028 0.000000
0.005028 -0.022882 0.000000
0.000000 0.000000 0.000000
0.016603 -0.011603 0.000000
-0.011603 0.016062 0.000000
0.000000 0.000000 0.000000
-0.002799 0.007387 0.000000
0.007387 -0.006824 0.000000
0.000000 0.000000 0.000000
-0.003399 -0.000637 0.000000
-0.000637 -0.005320 0.000000
0.000000 0.000000 0.000000
0.014722 -0.007975 0.000000
-0.007975 -0.006211 0.000000
0.000000 0.000000 0.000000
-0.007480 -0.003872 0.000000
-0.003872 0.012423 0.000000
0.000000 0.000000 0.000000
-0.004059 -0.002216 0.000000
-0.002216 -0.000254 0.000000
0.000000 0.000000 0.000000
0.000182 -0.005794 0.000000
-0.005794 -0.001239 0.000000
0.000000 0.000000 0.000000
-0.000144 0.000349 0.000000
0.000349 -0.013230 0.000000
0.000000 0.000000 0.000000
-0.000920 -0.002946 0.000000
-0.002946 0.000056 0.000000
0.000000 0.000000 0.000000
-0.022525 -0.004210 0.000000
-0.004210 -0.003183 0.000000
0.000000 0.000000 0.000000
0.003045 -0.000446 0.000000
-0.000446 0.002713 0.000000
0.000000 0.000000 0.000000
0.009591 -0.003257 0.000000
-0.003257 0.033758 0.000000
0.000000 0.000000 0.000000
0.004280 -0.002655 0.000000
-0.002655 0.023739 0.000000
0.000000 0.000000 0.000000
0.006244 -0.001152 0.000000
-0.001152 0.026317 0.000000
0.000000 0.000000 0.000000
0.007732 -0.004975 0.000000
-0.004975 0.030472 0.000000
0.000000 0.000000 0.000000
0.005606 -0.004227 0.000000
-0.004227 -0.004533 0.000000
0.000000 0.000000 0.000000
-0.020545 -0.005066 0.000000
-0.005066 -0.005225 0.000000
0.000000 0.000000 0.000000
0.003585 0.006513 0.000000
0.006513 -0.007846 0.000000
0.000000 0.000000 0.000000
0.010916 -0.006022 0.000000
-0.006022 -0.003002 0.000000
0.000000 0.000000 0.000000
0.010376 0.003683 0.000000
0.003683 0.011969 0.000000
0.000000 0.000000 0.000000
0.007578 -0.001074 0.000000
-0.001074 0.004511 0.000000
0.000000 0.000000 0.000000
0.000905 -0.002438 0.000000
-0.002438 0.001334 0.000000
0.000000 0.000000 0.000000
-0.008437 -0.000036 0.000000
-0.000036 -0.003656 0.000000
0.000000 0.000000 0.000000
0.008565 -0.001306 0.000000
-0.001306 0.007799 0.000000
0.000000 0.000000 0.000000
-0.007568 -0.006947 0.000000
-0.006947 -0.011291 0.000000
0.000000 0.000000 0.000000
-0.003963 -0.000522 0.000000
-0.000522 -0.003639 0.000000
0.000000 0.000000 0.000000
0.007958 -0.011096 0.000000
-0.011096 0.007586 0.000000
0.000000 0.000000 0.000000
0.012566 -0.004909 0.000000
-0.004909 -0.003266 0.000000
0.000000 0.000000 0.000000
-0.016752 -0.007524 0.000000
-0.007524 -0.017818 0.000000
0.000000 0.000000 0.000000
-0.004690 -0.001429 0.000000
-0.001429 -0.007113 0.000000
0.000000 0.000000 0.000000
-0.010373 -0.012476 0.000000
-0.012476 0.013759 0.000000
0.000000 0.000000 0.000000
-0.015563 -0.008205 0.000000
-0.008205 -0.016927 0.000000
0.000000 0.000000 0.000000
-0.004665 -0.001934 0.000000
-0.001934 0.007278 0.000000
0.000000 0.000000 0.000000
-0.011231 -0.006473 0.000000
-0.006473 -0.000784 0.000000
0.000000 0.000000 0.000000
-0.001505 0.000078 0.000000
0.000078 0.011066 0.000000
0.000000 0.000000 0.000000
0.002470 0.004768 0.000000
0.004768 -0.002134 0.000000
0.000000 0.000000 0.000000
-0.009407 0.007217 0.000000
0.007217 -0.003768 0.000000
0.000000 0.000000 0.000000
0.006971 -0.002464 0.000000
-0.002464 -0.003728 0.000000
0.000000 0.000000 0.000000
0.009445 -0.015234 0.000000
-0.015234 -0.000147 0.000000
0.000000 0.000000 0.000000
-0.000450 -0.000629 0.000000
-0.000629 0.009760 0.000000
0.000000 0.000000 0.000000
0.002732 -0.000174 0.000000
-0.000174 -0.007408 0.000000
0.000000 0.000000 0.000000
0.005534 -0.004057 0.000000
-0.004057 0.016240 0.000000
0.000000 0.000000 0.000000
0.009286 0.009223 0.000000
0.009223 -0.001547 0.000000
0.000000 0.000000 0.000000
-0.002658 0.005461 0.000000
0.005461 0.004169 0.000000
0.000000 0.000000 0.000000
0.007916 -0.009010 0.000000
-0.009010 -0.008989 0.000000
0.000000 0.000000 0.000000
-0.015190 0.004868 0.000000
0.004868 0.015936 0.000000
0.000000 0.000000 0.000000
-0.000753 0.001624 0.000000
0.001624 0.013532 0.000000
0.000000 0.000000 0.000000
0.002619 0.000628 0.000000
0.000628 0.014248 0.000000
0.000000 0.000000 0.000000
-0.010928 -0.002407 0.000000
-0.002407 0.010179 0.000000
0.000000 0.000000 0.000000
-0.033281 0.005594 0.000000
0.005594 -0.010679 0.000000
0.000000 0.000000 0.000000
-0.013132 0.006672 0.000000
0.006672 -0.007188 0.000000
0.000000 0.000000 0.000000
-0.012968 -0.006615 0.000000
-0.006615 -0.018897 0.000000
0.000000 0.000000 0.000000
0.004765 0.000909 0.000000
0.000909 0.004270 0.000000
0.000000 0.000000 0.000000
0.006539 -0.004935 0.000000
-0.004935 0.006250 0.000000
0.000000 0.000000 0.000000
0.005213 0.007122 0.000000
0.007122 -0.006400 0.000000
0.000000 0.000000 0.000000
0.006092 0.001651 0.000000
0.001651 0.004397 0.000000
0.000000 0.000000 0.000000
0.006765 0.000200 0.000000
0.000200 0.003110 0.000000
0.000000 0.000000 0.000000
0.010221 -0.002527 0.000000
-0.002527 0.012512 0.000000
0.000000 0.000000 0.000000
0.009106 -0.009174 0.000000
-0.009174 0.003478 0.000000
0.000000 0.000000 0.000000
0.001636 -0.000910 0.000000
-0.000910 -0.000738 0.000000
0.000000 0.000000 0.000000
-0.016557 0.002717 0.000000
0.002717 -0.011801 0.000000
0.000000 0.000000 0.000000
0.024558 0.006137 0.000000
0.006137 -0.029569 0.000000
0.000000 0.000000 0.000000
0.017682 0.004412 0.000000
0.004412 0.007150 0.000000
0.000000 0.000000 0.000000
0.006121 0.003607 0.000000
0.003607 0.016044 0.000000
0.000000 0.000000 0.000000
0.009944 0.005334 0.000000
0.005334 0.006744 0.000000
0.000000 0.000000 0.000000
0.002671 0.002386 0.000000
0.002386 0.009688 0.000000
0.000000 0.000000 0.000000
-0.000159 -0.003176 0.000000
-0.003176 -0.000342 0.000000
0.000000 0.000000 0.000000
0.013620 0.006887 0.000000
0.006887 0.020234 0.000000
0.000000 0.000000 0.000000
0.013059 0.006844 0.000000
0.006844 0.015008 0.000000
0.000000 0.000000 0.000000
0.029317 0.005573 0.000000
0.005573 0.004157 0.000000
0.000000 0.000000 0.000000
-0.017607 -0.001530 0.000000
-0.001530 0.004067 0.000000
0.000000 0.000000 0.000000
0.010231 -0.006623 0.000000
-0.006623 0.002709 0.000000
0.000000 0.000000 0.000000
-0.000684 -0.000497 0.000000
-0.000497 -0.013773 0.000000
0.000000 0.000000 0.000000
-0.001898 -0.002336 0.000000
-0.002336 -0.005594 0.000000
0.000000 0.000000 0.000000
0.004486 0.008265 0.000000
0.008265 0.014681 0.000000
0.000000 0.000000 0.000000
-0.002997 0.001537 0.000000
0.001537 0.000631 0.000000
0.000000 0.000000 0.000000
0.001292 0.002938 0.000000
0.002938 0.002504 0.000000
0.000000 0.000000 0.000000
-0.007397 0.008769 0.000000
0.008769 0.007712 0.000000
0.000000 0.000000 0.000000
-0.000895 0.004309 0.000000
0.004309 -0.002375 0.000000
0.000000 0.000000 0.000000
0.017709 -0.007778 0.000000
-0.007778 0.001635 0.000000
0.000000 0.000000 0.000000
0.006912 -0.008588 0.000000
-0.008588 0.009679 0.000000
0.000000 0.000000 0.000000
0.004349 -0.001077 0.000000
-0.001077 0.008510 0.000000
0.000000 0.000000 0.000000
0.015735 -0.006535 0.000000
-0.006535 0.001197 0.000000
0.000000 0.000000 0.000000
0.011984 -0.003697 0.000000
-0.003697 -0.004720 0.000000
0.000000 0.000000 0.000000
-0.014765 -0.013290 0.000000
-0.013290 -0.010871 0.000000
0.000000 0.000000 0.000000
-0.015062 -0.011505 0.000000
-0.011505 -0.011566 0.000000
0.000000 0.000000 0.000000
-0.017441 -0.012168 0.000000
-0.012168 -0.009771 0.000000
0.000000 0.000000 0.000000
0.005892 -0.004240 0.000000
-0.004240 -0.004872 0.000000
0.000000 0.000000 0.000000
0.001725 -0.004552 0.000000
-0.004552 0.001651 0.000000
0.000000 0.000000 0.000000
-0.000828 -0.007759 0.000000
-0.007759 -0.004069 0.000000
0.000000 0.000000 0.000000
0.000150 -0.006045 0.000000
-0.006045 -0.003145 0.000000
0.000000 0.000000 0.000000
-0.001531 -0.005058 0.000000
-0.005058 -0.005166 0.000000
0.000000 0.000000 0.000000
-0.013442 -0.001014 0.000000
-0.001014 -0.003075 0.000000
0.000000 0.000000 0.000000
-0.004211 -0.001198 0.000000
-0.001198 -0.004876 0.000000
0.000000 0.000000 0.000000
0.018636 -0.021568 0.000000
-0.021568 -0.015241 0.000000
0.000000 0.000000 0.000000
-0.007263 -0.001523 0.000000
-0.001523 -0.004789 0.000000
0.000000 0.000000 0.000000
0.001115 -0.009101 0.000000
-0.009101 -0.000140 0.000000
0.000000 0.000000 0.000000
0.003456 -0.003321 0.000000
-0.003321 -0.011709 0.000000
0.000000 0.000000 0.000000
0.000466 -0.007285 0.000000
-0.007285 -0.003342 0.000000
0.000000 0.000000 0.000000
0.010456 -0.000941 0.000000
-0.000941 0.008389 0.000000
0.000000 0.000000 0.000000
0.002129 -0.001529 0.000000
-0.001529 0.004307 0.000000
0.000000 0.000000 0.000000
-0.015119 0.007066 0.000000
0.007066 -0.004617 0.000000
0.000000 0.000000 0.000000
0.007189 -0.003482 0.000000
-0.003482 -0.007049 0.000000
0.000000 0.000000 0.000000
0.003237 -0.004156 0.000000
-0.004156 -0.007648 0.000000
0.000000 0.000000 0.000000
0.003067 -0.002505 0.000000
-0.002505 -0.005352 0.000000
0.000000 0.000000 0.000000
0.019913 -0.008203 0.000000
-0.008203 0.002795 0.000000
0.000000 0.000000 0.000000
-0.004898 -0.009218 0.000000
-0.009218 -0.021242 0.000000
0.000000 0.000000 0.000000
-0.002860 0.005998 0.000000
0.005998 -0.014362 0.000000
0.000000 0.000000 0.000000
-0.009122 -0.006318 0.000000
-0.006318 -0.015596 0.000000
0.000000 0.000000 0.000000
-0.014185 0.001499 0.000000
0.001499 0.009895 0.000000
0.000000 0.000000 0.000000
-0.009334 -0.002510 0.000000
-0.002510 -0.005476 0.000000
0.000000 0.000000 0.000000
-0.017007 -0.007476 0.000000
-0.007476 -0.006151 0.000000
0.000000 0.000000 0.000000
-0.008693 0.001648 0.000000
0.001648 -0.000895 0.000000
0.000000 0.000000 0.000000
0.010135 -0.001007 0.000000
-0.001007 -0.005014 0.000000
0.000000 0.000000 0.000000
0.035773 0.005182 0.000000
0.005182 -0.010865 0.000000
0.000000 0.000000 0.000000
-0.019477 0.008151 0.000000
0.008151 -0.008369 0.000000
0.000000 0.000000 0.000000
0.001420 0.001397 0.000000
0.001397 -0.003574 0.000000
0.000000 0.000000 0.000000
-0.006970 0.016702 0.000000
0.016702 -0.026844 0.000000
0.000000 0.000000 0.000000
0.000566 0.001159 0.000000
0.001159 -0.003960 0.000000
0.000000 0.000000 0.000000
0.004791 0.005781 0.000000
0.005781 -0.005118 0.000000
0.000000 0.000000 0.000000
0.008020 0.003677 0.000000
0.003677 0.002790 0.000000
0.000000 0.000000 0.000000
-0.007484 0.013254 0.000000
0.013254 -0.011649 0.000000
0.000000 0.000000 0.000000
0.007610 -0.004807 0.000000
-0.004807 -0.005256 0.000000
0.000000 0.000000 0.000000
-0.016234 -0.007495 0.000000
-0.007495 -0.013054 0.000000
0.000000 0.000000 0.000000
0.008289 0.001738 0.000000
0.001738 0.007525 0.000000
0.000000 0.000000 0.000000
0.001466 -0.004245 0.000000
-0.004245 -0.008843 0.000000
0.000000 0.000000 0.000000
0.002379 0.005720 0.000000
0.005720 0.010358 0.000000
0.000000 0.000000 0.000000
0.005719 -0.001177 0.000000
-0.001177 -0.001829 0.000000
0.000000 0.000000 0.000000
-0.002860 0.000022 0.000000
0.000022 0.005581 0.000000
0.000000 0.000000 0.000000
0.001988 -0.005803 0.000000
-0.005803 -0.002949 0.000000
0.000000 0.000000 0.000000
0.011469 0.000448 0.000000
0.000448 -0.000835 0.000000
0.000000 0.000000 0.000000
-0.001901 0.006112 0.000000
0.006112 -0.004086 0.000000
0.000000 0.000000 0.000000
-0.000006 0.001664 0.000000
0.001664 0.005257 0.000000
0.000000 0.000000 0.000000
0.003398 -0.000685 0.000000
-0.000685 0.001603 0.000000
0.000000 0.000000 0.000000
0.002051 0.001304 0.000000
0.001304 0.004437 0.000000
0.000000 0.000000 0.000000
0.005741 0.004316 0.000000
0.004316 0.000118 0.000000
0.000000 0.000000 0.000000
-0.023636 -0.003183 0.000000
-0.003183 -0.003706 0.000000
0.000000 0.000000 0.000000
-0.008244 -0.001593 0.000000
-0.001593 0.004790 0.000000
0.000000 0.000000 0.000000
0.006688 0.000817 0.000000
0.000817 -0.010461 0.000000
0.000000 0.000000 0.000000
-0.010108 0.004013 0.000000
0.004013 -0.000542 0.000000
0.000000 0.000000 0.000000
-0.012029 0.004171 0.000000
0.004171 0.014186 0.000000
0.000000 0.000000 0.000000
-0.003229 0.002995 0.000000
0.002995 -0.008245 0.000000
0.000000 0.000000 0.000000
0.003647 0.007375 0.000000
0.007375 0.009678 0.000000
0.000000 0.000000 0.000000
-0.013309 -0.002180 0.000000
-0.002180 -0.006462 0.000000
0.000000 0.000000 0.000000
-0.004007 0.000954 0.000000
0.000954 -0.000797 0.000000
0.000000 0.000000 0.000000
-0.005065 0.001323 0.000000
0.001323 0.018446 0.000000
0.000000 0.000000 0.000000
0.008241 0.003741 0.000000
0.003741 0.002555 0.000000
0.000000 0.000000 0.000000
-0.018513 0.008765 0.000000
0.008765 -0.008002 0.000000
0.000000 0.000000 0.000000
-0.011471 0.008076 0.000000
0.008076 -0.011275 0.000000
0.000000 0.000000 0.000000
0.015260 0.005906 0.000000
0.005906 0.004944 0.000000
0.000000 0.000000 0.000000
0.000040 0.006926 0.000000
0.006926 0.001990 0.000000
0.000000 0.000000 0.000000
0.011609 0.007188 0.000000
0.007188 0.014369 0.000000
0.000000 0.000000 0.000000
0.014306 0.013615 0.000000
0.013615 0.018194 0.000000
0.000000 0.000000 0.000000
0.012465 0.012901 0.000000
0.012901 0.017804 0.000000
0.000000 0.000000 0.000000
0.003213 0.001626 0.000000
0.001626 -0.016997 0.000000
0.000000 0.000000 0.000000
0.004395 -0.002113 0.000000
-0.002113 0.009615 0.000000
0.000000 0.000000 0.000000
-0.002640 -0.006959 0.000000
-0.006959 -0.002816 0.000000
0.000000 0.000000 0.000000
-0.004137 0.000421 0.000000
0.000421 -0.021615 0.000000
0.000000 0.000000 0.000000
0.006865 -0.000225 0.000000
-0.000225 0.011482 0.000000
0.000000 0.000000 0.000000
0.006588 0.017225 0.000000
0.017225 0.004431 0.000000
0.000000 0.000000 0.000000
0.011428 -0.000667 0.000000
-0.000667 0.034003 0.000000
0.000000 0.000000 0.000000
-0.018230 -0.000664 0.000000
-0.000664 0.001462 0.000000
0.000000 0.000000 0.000000
-0.011723 -0.008082 0.000000
-0.008082 -0.010191 0.000000
0.000000 0.000000 0.000000
-0.006067 0.001002 0.000000
0.001002 -0.019863 0.000000
0.000000 0.000000 0.000000
-0.009627 -0.010525 0.000000
-0.010525 -0.006854 0.000000
0.000000 0.000000 0.000000
0.007918 0.014889 0.000000
0.014889 0.002709 0.000000
0.000000 0.000000 0.000000
-0.010671 -0.004273 0.000000
-0.004273 -0.015628 0.000000
0.000000 0.000000 0.000000
0.006066 0.004269 0.000000
0.004269 -0.024402 0.000000
0.000000 0.000000 0.000000
-0.010515 0.007565 0.000000
0.007565 -0.003804 0.000000
0.000000 0.000000 0.000000
0.004764 0.007755 0.000000
0.007755 0.007030 0.000000
0.000000 0.000000 0.000000
-0.003604 -0.001303 0.000000
-0.001303 -0.014539 0.000000
0.000000 0.000000 0.000000
0.002117 -0.002164 0.000000
-0.002164 -0.005904 0.000000
0.000000 0.000000 0.000000
-0.013037 -0.004271 0.000000
-0.004271 -0.016297 0.000000
0.000000 0.000000 0.000000
-0.005124 0.001435 0.000000
0.001435 -0.011456 0.000000
0.000000 0.000000 0.000000
-0.015601 -0.002650 0.000000
-0.002650 0.000798 0.000000
0.000000 0.000000 0.000000
-0.005572 0.008239 0.000000
0.008239 -0.004474 0.000000
0.000000 0.000000 0.000000
0.012377 0.014189 0.000000
0.014189 -0.015863 0.000000
0.000000 0.000000 0.000000
0.011646 0.008157 0.000000
0.008157 -0.009244 0.000000
0.000000 0.000000 0.000000
0.008325 0.003329 0.000000
0.003329 0.010642 0.000000
0.000000 0.000000 0.000000
-0.010844 0.001551 0.000000
0.001551 -0.020414 0.000000
0.000000 0.000000 0.000000
-0.000720 0.001770 0.000000
0.001770 0.008810 0.000000
0.000000 0.000000 0.000000
-0.001219 -0.003709 0.000000
-0.003709 -0.015937 0.000000
0.000000 0.000000 0.000000
0.001015 0.002467 0.000000
0.002467 0.001322 0.000000
0.000000 0.000000 0.000000
0.002395 -0.000066 0.000000
-0.000066 0.004365 0.000000
0.000000 0.000000 0.000000
-0.020393 0.004678 0.000000
0.004678 0.013306 0.000000
0.000000 0.000000 0.000000
-0.014328 0.012419 0.000000
0.012419 0.024730 0.000000
0.000000 0.000000 0.000000
-0.002194 0.004743 0.000000
0.004743 -0.003958 0.000000
0.000000 0.000000 0.000000
0.009250 -0.000218 0.000000
-0.000218 -0.000703 0.000000
0.000000 0.000000 0.000000
-0.007169 0.003714 0.000000
0.003714 0.014543 0.000000
0.000000 0.000000 0.000000
-0.003640 -0.000321 0.000000
-0.000321 -0.007276 0.000000
0.000000 0.000000 0.000000
-0.003758 -0.005489 0.000000
-0.005489 0.000399 0.000000
0.000000 0.000000 0.000000
0.005876 -0.001420 0.000000
-0.001420 0.016134 0.000000
0.000000 0.000000 0.000000
0.000425 0.001800 0.000000
0.001800 0.009406 0.000000
0.000000 0.000000 0.000000
-0.017974 0.000736 0.000000
0.000736 0.003459 0.000000
0.000000 0.000000 0.000000
0.013685 0.008244 0.000000
0.008244 -0.019270 0.000000
0.000000 0.000000 0.000000
0.010507 0.004702 0.000000
0.004702 -0.012406 0.000000
0.000000 0.000000 0.000000
0.016665 0.004977 0.000000
0.004977 -0.008924 0.000000
0.000000 0.000000 0.000000
-0.009622 -0.003997 0.000000
-0.003997 -0.002612 0.000000
0.000000 0.000000 0.000000
0.015183 0.003579 0.000000
0.003579 -0.014210 0.000000
0.000000 0.000000 0.000000
0.017556 -0.003567 0.000000
-0.003567 0.011506 0.000000
0.000000 0.000000 0.000000
0.000402 -0.000352 0.000000
-0.000352 0.000630 0.000000
0.000000 0.000000 0.000000
-0.020051 0.000028 0.000000
0.000028 -0.004069 0.000000
0.000000 0.000000 0.000000
0.009128 -0.003352 0.000000
-0.003352 0.005272 0.000000
0.000000 0.000000 0.000000
-0.004069 0.001182 0.000000
0.001182 0.008435 0.000000
0.000000 0.000000 0.000000
-0.000288 -0.001725 0.000000
-0.001725 0.006387 0.000000
0.000000 0.000000 0.000000
0.020708 0.012939 0.000000
0.012939 -0.002277 0.000000
0.000000 0.000000 0.000000
0.011281 0.005371 0.000000
0.005371 -0.004032 0.000000
0.000000 0.000000 0.000000
-0.006241 -0.006406 0.000000
-0.006406 0.002050 0.000000
0.000000 0.000000 0.000000
-0.007350 -0.009910 0.000000
-0.009910 -0.039537 0.000000
0.000000 0.000000 0.000000
-0.005021 -0.004822 0.000000
-0.004822 -0.023363 0.000000
0.000000 0.000000 0.000000
-0.008625 -0.009914 0.000000
-0.009914 -0.039182 0.000000
0.000000 0.000000 0.000000
-0.003460 -0.003476 0.000000
-0.003476 -0.008562 0.000000
0.000000 0.000000 0.000000
0.004481 -0.004765 0.000000
-0.004765 -0.003671 0.000000
0.000000 0.000000 0.000000
-0.006342 -0.000715 0.000000
-0.000715 0.000504 0.000000
0.000000 0.000000 0.000000
-0.014074 0.002401 0.000000
0.002401 -0.004535 0.000000
0.000000 0.000000 0.000000
-0.004094 -0.001276 0.000000
-0.001276 -0.004392 0.000000
0.000000 0.000000 0.000000
-0.006447 -0.000041 0.000000
-0.000041 0.005978 0.000000
0.000000 0.000000 0.000000
0.006860 0.006092 0.000000
0.006092 0.015563 0.000000
0.000000 0.000000 0.000000
-0.018396 -0.005086 0.000000
-0.005086 0.017741 0.000000
0.000000 0.000000 0.000000
-0.004747 -0.003021 0.000000
-0.003021 -0.005664 0.000000
0.000000 0.000000 0.000000
0.008332 0.004257 0.000000
0.004257 0.000558 0.000000
0.000000 0.000000 0.000000
-0.002747 0.005786 0.000000
0.005786 -0.000723 0.000000
0.000000 0.000000 0.000000
-0.006276 0.003113 0.000000
0.003113 -0.003961 0.000000
0.000000 0.000000 0.000000
0.000809 0.003261 0.000000
0.003261 0.002780 0.000000
0.000000 0.000000 0.000000
0.006844 -0.004657 0.000000
-0.004657 0.007208 0.000000
0.000000 0.000000 0.000000
0.007195 -0.001739 0.000000
-0.001739 0.006788 0.000000
0.000000 0.000000 0.000000
-0.002182 0.005379 0.000000
0.005379 0.007105 0.000000
0.000000 0.000000 0.000000
-0.000520 -0.006620 0.000000
-0.006620 0.011242 0.000000
0.000000 0.000000 0.000000
-0.000517 0.002183 0.000000
0.002183 -0.011571 0.000000
0.000000 0.000000 0.000000
0.001535 0.003505 0.000000
0.003505 0.000854 0.000000
0.000000 0.000000 0.000000
0.007894 0.012827 0.000000
0.012827 -0.001501 0.000000
0.000000 0.000000 0.000000
-0.010250 0.007474 0.000000
0.007474 -0.009982 0.000000
0.000000 0.000000 0.000000
0.024051 -0.003076 0.000000
-0.003076 -0.018612 0.000000
0.000000 0.000000 0.000000
0.017885 -0.003388 0.000000
-0.003388 -0.015625 0.000000
0.000000 0.000000 0.000000
0.004932 -0.004995 0.000000
-0.004995 0.011802 0.000000
0.000000 0.000000 0.000000
0.003944 -0.000528 0.000000
-0.000528 -0.005398 0.000000
0.000000 0.000000 0.000000
0.004969 -0.000647 0.000000
-0.000647 -0.000921 0.000000
0.000000 0.000000 0.000000
0.017887 -0.005976 0.000000
-0.005976 -0.018092 0.000000
0.000000 0.000000 0.000000
-0.002323 0.000804 0.000000
0.000804 0.006290 0.000000
0.000000 0.000000 0.000000
-0.000207 0.003485 0.000000
0.003485 0.001775 0.000000
0.000000 0.000000 0.000000
-0.001198 0.002550 0.000000
0.002550 0.008934 0.000000
0.000000 0.000000 0.000000
0.012420 -0.003963 0.000000
-0.003963 0.017610 0.000000
0.000000 0.000000 0.000000
0.002450 -0.003839 0.000000
-0.003839 -0.008764 0.000000
0.000000 0.000000 0.000000
-0.006719 -0.003551 0.000000
-0.003551 -0.006985 0.000000
0.000000 0.000000 0.000000
-0.005117 0.002523 0.000000
0.002523 -0.009781 0.000000
0.000000 0.000000 0.000000
-0.009212 0.002091 0.000000
0.002091 0.003760 0.000000
0.000000 0.000000 0.000000
0.004853 0.001900 0.000000
0.001900 0.009330 0.000000
0.000000 0.000000 0.000000
0.003800 0.004008 0.000000
0.004008 -0.006643 0.000000
0.000000 0.000000 0.000000
0.000452 0.002430 0.000000
0.002430 -0.001547 0.000000
0.000000 0.000000 0.000000
-0.002782 0.004484 0.000000
0.004484 -0.003567 0.000000
0.000000 0.000000 0.000000
0.002327 0.004275 0.000000
0.004275 0.003921 0.000000
0.000000 0.000000 0.000000
-0.001387 -0.003749 0.000000
-0.003749 -0.006724 0.000000
0.000000 0.000000 0.000000
-0.006172 -0.000841 0.000000
-0.000841 0.012654 0.000000
0.000000 0.000000 0.000000
-0.007380 0.005767 0.000000
0.005767 0.001711 0.000000
0.000000 0.000000 0.000000
-0.004835 0.003353 0.000000
0.003353 0.004986 0.000000
0.000000 0.000000 0.000000
-0.000343 -0.000953 0.000000
-0.000953 -0.000882 0.000000
0.000000 0.000000 0.000000
-0.015641 -0.003095 0.000000
-0.003095 -0.001782 0.000000
0.000000 0.000000 0.000000
-0.007108 -0.003250 0.000000
-0.003250 -0.001455 0.000000
0.000000 0.000000 0.000000
0.000295 -0.001751 0.000000
-0.001751 -0.003941 0.000000
0.000000 0.000000 0.000000
0.002002 0.001672 0.000000
0.001672 0.003050 0.000000
0.000000 0.000000 0.000000
0.019659 0.012358 0.000000
0.012358 0.003805 0.000000
0.000000 0.000000 0.000000
-0.024172 -0.010455 0.000000
-0.010455 -0.019120 0.000000
0.000000 0.000000 0.000000
0.009076 0.009855 0.000000
0.009855 -0.000590 0.000000
0.000000 0.000000 0.000000
0.005517 0.015698 0.000000
0.015698 0.012790 0.000000
0.000000 0.000000 0.000000
0.015798 0.016418 0.000000
0.016418 -0.007512 0.000000
0.000000 0.000000 0.000000
0.011014 0.014100 0.000000
0.014100 0.010798 0.000000
0.000000 0.000000 0.000000
-0.002386 0.000141 0.000000
0.000141 -0.015834 0.000000
0.000000 0.000000 0.000000
0.008217 0.002052 0.000000
0.002052 -0.023102 0.000000
0.000000 0.000000 0.000000
0.002513 -0.010484 0.000000
-0.010484 0.017565 0.000000
0.000000 0.000000 0.000000
0.007831 -0.010196 0.000000
-0.010196 0.012449 0.000000
0.000000 0.000000 0.000000
-0.001532 0.008314 0.000000
0.008314 0.008410 0.000000
0.000000 0.000000 0.000000
-0.002560 0.003700 0.000000
0.003700 0.012349 0.000000
0.000000 0.000000 0.000000
0.022539 -0.000333 0.000000
-0.000333 0.009505 0.000000
0.000000 0.000000 0.000000
0.023734 -0.003209 0.000000
-0.003209 -0.018379 0.000000
0.000000 0.000000 0.000000
0.016752 -0.004878 0.000000
-0.004878 -0.003161 0.000000
0.000000 0.000000 0.000000
0.011109 -0.013477 0.000000
-0.013477 0.015330 0.000000
0.000000 0.000000 0.000000
-0.009673 0.005092 0.000000
0.005092 -0.008166 0.000000
0.000000 0.000000 0.000000
0.000642 -0.004957 0.000000
-0.004957 0.005563 0.000000
0.000000 0.000000 0.000000
0.011823 -0.001962 0.000000
-0.001962 0.010315 0.000000
0.000000 0.000000 0.000000
-0.003089 0.000754 0.000000
0.000754 -0.008934 0.000000
0.000000 0.000000 0.000000
-0.002554 0.001495 0.000000
0.001495 -0.008566 0.000000
0.000000 0.000000 0.000000
-0.001841 -0.013406 0.000000
-0.013406 -0.013181 0.000000
0.000000 0.000000 0.000000
-0.004916 -0.005098 0.000000
-0.005098 0.006101 0.000000
0.000000 0.000000 0.000000
-0.005638 -0.003190 0.000000
-0.003190 0.000541 0.000000
0.000000 0.000000 0.000000
0.002280 -0.003314 0.000000
-0.003314 -0.003846 0.000000
0.000000 0.000000 0.000000
0.002040 0.000943 0.000000
0.000943 0.013442 0.000000
0.000000 0.000000 0.000000
0.008481 -0.004976 0.000000
-0.004976 0.001748 0.000000
0.000000 0.000000 0.000000
0.004465 0.000136 0.000000
0.000136 0.005702 0.000000
0.000000 0.000000 0.000000
-0.005806 0.004911 0.000000
0.004911 0.009726 0.000000
0.000000 0.000000 0.000000
0.011314 -0.001477 0.000000
-0.001477 0.011802 0.000000
0.000000 0.000000 0.000000
0.012535 -0.001532 0.000000
-0.001532 0.006837 0.000000
0.000000 0.000000 0.000000
0.005227 -0.002488 0.000000
-0.002488 0.005616 0.000000
0.000000 0.000000 0.000000
0.006978 0.001982 0.000000
0.001982 0.004154 0.000000
0.000000 0.000000 0.000000
0.005329 -0.004290 0.000000
-0.004290 -0.011671 0.000000
0.000000 0.000000 0.000000
-0.014579 -0.004794 0.000000
-0.004794 -0.010536 0.000000
0.000000 0.000000 0.000000
-0.026851 -0.002818 0.000000
-0.002818 -0.006662 0.000000
0.000000 0.000000 0.000000
-0.002970 0.004960 0.000000
0.004960 0.012041 0.000000
0.000000 0.000000 0.000000
-0.001177 -0.004000 0.000000
-0.004000 0.009609 0.000000
0.000000 0.000000 0.000000
0.000931 -0.003317 0.000000
-0.003317 0.000819 0.000000
0.000000 0.000000 0.000000
-0.002529 0.002265 0.000000
0.002265 -0.003366 0.000000
0.000000 0.000000 0.000000
0.016658 -0.003802 0.000000
-0.003802 -0.007195 0.000000
0.000000 0.000000 0.000000
0.003638 -0.001083 0.000000
-0.001083 0.002883 0.000000
0.000000 0.000000 0.000000
-0.005858 0.008179 0.000000
0.008179 -0.021426 0.000000
0.000000 0.000000 0.000000
0.001166 0.001215 0.000000
0.001215 0.006623 0.000000
0.000000 0.000000 0.000000
-0.003321 -0.007526 0.000000
-0.007526 -0.013467 0.000000
0.000000 0.000000 0.000000
-0.002746 -0.001994 0.000000
-0.001994 -0.001624 0.000000
0.000000 0.000000 0.000000
-0.011249 -0.005129 0.000000
-0.005129 -0.017231 0.000000
0.000000 0.000000 0.000000
-0.004437 0.002929 0.000000
0.002929 -0.000528 0.000000
0.000000 0.000000 0.000000
-0.008220 0.006730 0.000000
0.006730 0.000737 0.000000
0.000000 0.000000 0.000000
-0.004074 0.003245 0.000000
0.003245 -0.004635 0.000000
0.000000 0.000000 0.000000
0.009787 -0.004432 0.000000
-0.004432 0.005361 0.000000
0.000000 0.000000 0.000000
-0.006360 0.003690 0.000000
0.003690 0.004764 0.000000
0.000000 0.000000 0.000000
-0.002220 0.000953 0.000000
0.000953 -0.001347 0.000000
0.000000 0.000000 0.000000
0.010241 -0.003656 0.000000
-0.003656 -0.006702 0.000000
0.000000 0.000000 0.000000
0.003023 -0.005111 0.000000
-0.005111 -0.009521 0.000000
0.000000 0.000000 0.000000
-0.004618 -0.001623 0.000000
-0.001623 0.004838 0.000000
0.000000 0.000000 0.000000
0.011898 -0.005033 0.000000
-0.005033 -0.008057 0.000000
0.000000 0.000000 0.000000
0.011945 0.008732 0.000000
0.008732 -0.017227 0.000000
0.000000 0.000000 0.000000
-0.004847 -0.007720 0.000000
-0.007720 -0.012956 0.000000
0.000000 0.000000 0.000000
0.001709 0.001323 0.000000
0.001323 0.004034 0.000000
0.000000 0.000000 0.000000
0.003264 -0.001354 0.000000
-0.001354 0.014049 0.000000
0.000000 0.000000 0.000000
0.007575 0.009154 0.000000
0.009154 -0.000161 0.000000
0.000000 0.000000 0.000000
-0.016818 0.000710 0.000000
0.000710 0.048524 0.000000
0.000000 0.000000 0.000000
-0.002893 0.006832 0.000000
0.006832 -0.000329 0.000000
0.000000 0.000000 0.000000
0.006523 0.004465 0.000000
0.004465 0.012672 0.000000
0.000000 0.000000 0.000000
0.009633 0.002902 0.000000
0.002902 0.007366 0.000000
0.000000 0.000000 0.000000
0.009448 0.002985 0.000000
0.002985 0.015073 0.000000
0.000000 0.000000 0.000000
-0.008677 0.002185 0.000000
0.002185 -0.012097 0.000000
0.000000 0.000000 0.000000
0.002577 0.007990 0.000000
0.007990 -0.002441 0.000000
0.000000 0.000000 0.000000
-0.002804 -0.002375 0.000000
-0.002375 -0.003561 0.000000
0.000000 0.000000 0.000000
-0.005563 0.000514 0.000000
0.000514 -0.009844 0.000000
0.000000 0.000000 0.000000
-0.006750 0.004204 0.000000
0.004204 0.003308 0.000000
0.000000 0.000000 0.000000
-0.002818 0.004963 0.000000
0.004963 -0.007494 0.000000
0.000000 0.000000 0.000000
-0.011324 -0.000265 0.000000
-0.000265 0.013612 0.000000
0.000000 0.000000 0.000000
0.008592 0.008391 0.000000
0.008391 0.007146 0.000000
0.000000 0.000000 0.000000
-0.006592 0.000151 0.000000
0.000151 0.000634 0.000000
0.000000 0.000000 0.000000
0.003250 -0.009451 0.000000
-0.009451 -0.002013 0.000000
0.000000 0.000000 0.000000
-0.015091 0.001523 0.000000
0.001523 0.024461 0.000000
0.000000 0.000000 0.000000
-0.008541 -0.010108 0.000000
-0.010108 -0.008078 0.000000
0.000000 0.000000 0.000000
0.001582 0.002475 0.000000
0.002475 -0.002600 0.000000
0.000000 0.000000 0.000000
-0.023633 0.010070 0.000000
0.010070 0.007458 0.000000
0.000000 0.000000 0.000000
-0.013420 0.003115 0.000000
0.003115 -0.016138 0.000000
0.000000 0.000000 0.000000
0.002361 0.003312 0.000000
0.003312 0.004516 0.000000
0.000000 0.000000 0.000000
0.010113 0.002935 0.000000
0.002935 0.008483 0.000000
0.000000 0.000000 0.000000
-0.001494 -0.004086 0.000000
-0.004086 -0.005944 0.000000
0.000000 0.000000 0.000000
-0.009706 -0.016782 0.000000
-0.016782 0.012467 0.000000
0.000000 0.000000 0.000000
0.006080 -0.009388 0.000000
-0.009388 0.024517 0.000000
0.000000 0.000000 0.000000
0.004850 0.006195 0.000000
0.006195 0.005623 0.000000
0.000000 0.000000 0.000000
-0.001874 -0.000990 0.000000
-0.000990 -0.005419 0.000000
0.000000 0.000000 0.000000
-0.006762 -0.000172 0.000000
-0.000172 -0.017069 0.000000
0.000000 0.000000 0.000000
0.007484 0.004846 0.000000
0.004846 0.014685 0.000000
0.000000 0.000000 0.000000
-0.004585 -0.003104 0.000000
-0.003104 -0.015226 0.000000
0.000000 0.000000 0.000000
0.010161 0.006918 0.000000
0.006918 0.014246 0.000000
0.000000 0.000000 0.000000
-0.006721 -0.001472 0.000000
-0.001472 -0.021246 0.000000
0.000000 0.000000 0.000000
-0.000216 -0.006261 0.000000
-0.006261 0.016706 0.000000
0.000000 0.000000 0.000000
0.009510 -0.001083 0.000000
-0.001083 0.011491 0.000000
0.000000 0.000000 0.000000
-0.002264 0.012020 0.000000
0.012020 0.006873 0.000000
0.000000 0.000000 0.000000
-0.009914 0.028262 0.000000
0.028262 -0.004291 0.000000
0.000000 0.000000 0.000000
-0.002669 0.002999 0.000000
0.002999 -0.001883 0.000000
0.000000 0.000000 0.000000
-0.000489 0.005261 0.000000
0.005261 -0.010155 0.000000
0.000000 0.000000 0.000000
-0.003967 0.001588 0.000000
0.001588 -0.004951 0.000000
0.000000 0.000000 0.000000
-0.009921 -0.008567 0.000000
-0.008567 0.004636 0.000000
0.000000 0.000000 0.000000
0.003734 0.030566 0.000000
0.030566 -0.015955 0.000000
0.000000 0.000000 0.000000
0.019701 0.000300 0.000000
0.000300 0.013295 0.000000
0.000000 0.000000 0.000000
0.006019 0.001494 0.000000
0.001494 0.013234 0.000000
0.000000 0.000000 0.000000
-0.011353 0.003453 0.000000
0.003453 -0.001054 0.000000
0.000000 0.000000 0.000000
0.020799 -0.000015 0.000000
-0.000015 0.008514 0.000000
0.000000 0.000000 0.000000
0.006077 -0.003262 0.000000
-0.003262 0.007301 0.000000
0.000000 0.000000 0.000000
0.009688 -0.003200 0.000000
-0.003200 -0.000293 0.000000
0.000000 0.000000 0.000000
0.001406 -0.008149 0.000000
-0.008149 -0.002334 0.000000
0.000000 0.000000 0.000000
0.003000 0.003541 0.000000
0.003541 0.012439 0.000000
0.000000 0.000000 0.000000
0.012610 0.003772 0.000000
0.003772 0.003509 0.000000
0.000000 0.000000 0.000000
-0.018989 -0.008927 0.000000
-0.008927 0.003582 0.000000
0.000000 0.000000 0.000000
0.023939 0.006938 0.000000
0.006938 0.017264 0.000000
0.000000 0.000000 0.000000
0.032059 0.015028 0.000000
0.015028 -0.010312 0.000000
0.000000 0.000000 0.000000
0.008268 -0.000702 0.000000
-0.000702 0.002411 0.000000
0.000000 0.000000 0.000000
0.005294 0.004127 0.000000
0.004127 0.013639 0.000000
0.000000 0.000000 0.000000
-0.007018 -0.003663 0.000000
-0.003663 -0.008638 0.000000
0.000000 0.000000 0.000000
-0.003895 0.002649 0.000000
0.002649 0.000047 0.000000
0.000000 0.000000 0.000000
-0.007229 -0.001281 0.000000
-0.001281 -0.020271 0.000000
0.000000 0.000000 0.000000
-0.006417 -0.002533 0.000000
-0.002533 -0.002156 0.000000
0.000000 0.000000 0.000000
0.002906 -0.003585 0.000000
-0.003585 0.017407 0.000000
0.000000 0.000000 0.000000
0.001536 0.001507 0.000000
0.001507 0.001138 0.000000
0.000000 0.000000 0.000000
0.001545 0.006636 0.000000
0.006636 0.002065 0.000000
0.000000 0.000000 0.000000
0.006465 0.003212 0.000000
0.003212 0.003768 0.000000
0.000000 0.000000 0.000000
-0.009545 -0.001536 0.000000
-0.001536 0.000956 0.000000
0.000000 0.000000 0.000000
0.001998 0.007110 0.000000
0.007110 -0.014578 0.000000
0.000000 0.000000 0.000000
-0.016408 0.003489 0.000000
0.003489 -0.013724 0.000000
0.000000 0.000000 0.000000
0.013705 0.009746 0.000000
0.009746 0.010143 0.000000
0.000000 0.000000 0.000000
-0.010595 0.001124 0.000000
0.001124 -0.003332 0.000000
0.000000 0.000000 0.000000
0.021710 -0.003375 0.000000
-0.003375 -0.013606 0.000000
0.000000 0.000000 0.000000
0.018600 0.005346 0.000000
0.005346 -0.012686 0.000000
0.000000 0.000000 0.000000
0.007076 -0.000939 0.000000
-0.000939 -0.017134 0.000000
0.000000 0.000000 0.000000
-0.005361 0.000408 0.000000
0.000408 -0.026506 0.000000
0.000000 0.000000 0.000000
-0.007994 0.000606 0.000000
0.000606 -0.027211 0.000000
0.000000 0.000000 0.000000
0.001936 0.005591 0.000000
0.005591 0.009727 0.000000
0.000000 0.000000 0.000000
-0.003174 0.000934 0.000000
0.000934 -0.027652 0.000000
0.000000 0.000000 0.000000
0.015411 -0.016516 0.000000
-0.016516 0.009014 0.000000
0.000000 0.000000 0.000000
0.007448 -0.001705 0.000000
-0.001705 -0.003080 0.000000
0.000000 0.000000 0.000000
-0.018446 -0.003036 0.000000
-0.003036 -0.017616 0.000000
0.000000 0.000000 0.000000
0.016462 -0.016635 0.000000
-0.016635 0.005536 0.000000
0.000000 0.000000 0.000000
0.013577 0.006116 0.000000
0.006116 0.014434 0.000000
0.000000 0.000000 0.000000
0.002169 -0.010854 0.000000
-0.010854 -0.006757 0.000000
0.000000 0.000000 0.000000
-0.004933 -0.006163 0.000000
-0.006163 -0.001693 0.000000
0.000000 0.000000 0.000000
-0.008450 -0.004833 0.000000
-0.004833 0.013844 0.000000
0.000000 0.000000 0.000000
0.010187 0.006919 0.000000
0.006919 0.015257 0.000000
0.000000 0.000000 0.000000
0.008184 0.013560 0.000000
0.013560 -0.001130 0.000000
0.000000 0.000000 0.000000
0.019150 -0.006516 0.000000
-0.006516 0.002557 0.000000
0.000000 0.000000 0.000000
0.012261 0.000789 0.000000
0.000789 0.008934 0.000000
0.000000 0.000000 0.000000
0.015231 0.014030 0.000000
0.014030 -0.012831 0.000000
0.000000 0.000000 0.000000
0.008819 -0.004438 0.000000
-0.004438 0.012223 0.000000
0.000000 0.000000 0.000000
0.010378 -0.014621 0.000000
-0.014621 -0.008026 0.000000
0.000000 0.000000 0.000000
-0.027095 0.001828 0.000000
0.001828 0.007750 0.000000
0.000000 0.000000 0.000000
-0.021886 -0.004745 0.000000
-0.004745 0.033459 0.000000
0.000000 0.000000 0.000000
-0.001777 -0.003344 0.000000
-0.003344 0.011606 0.000000
0.000000 0.000000 0.000000
-0.002957 0.003532 0.000000
0.003532 0.008770 0.000000
0.000000 0.000000 0.000000
0.002150 -0.001510 0.000000
-0.001510 -0.011324 0.000000
0.000000 0.000000 0.000000
0.020980 0.006586 0.000000
0.006586 0.016944 0.000000
0.000000 0.000000 0.000000
-0.002943 0.004967 0.000000
0.004967 0.010719 0.000000
0.000000 0.000000 0.000000
0.000916 -0.004958 0.000000
-0.004958 -0.027011 0.000000
0.000000 0.000000 0.000000
0.008966 0.002624 0.000000
0.002624 0.020021 0.000000
0.000000 0.000000 0.000000
0.005699 0.002624 0.000000
0.002624 0.005930 0.000000
0.000000 0.000000 0.000000
0.005470 0.000109 0.000000
0.000109 0.011451 0.000000
0.000000 0.000000 0.000000
0.004024 0.001793 0.000000
0.001793 0.003212 0.000000
0.000000 0.000000 0.000000
0.012576 0.007620 0.000000
0.007620 0.008902 0.000000
0.000000 0.000000 0.000000
0.008899 0.001808 0.000000
0.001808 0.003506 0.000000
0.000000 0.000000 0.000000
0.001981 0.000531 0.000000
0.000531 0.004101 0.000000
0.000000 0.000000 0.000000
0.008124 -0.000067 0.000000
-0.000067 0.018281 0.000000
0.000000 0.000000 0.000000
-0.016825 -0.002203 0.000000
-0.002203 -0.006690 0.000000
0.000000 0.000000 0.000000
0.003378 -0.006460 0.000000
-0.006460 0.001723 0.000000
0.000000 0.000000 0.000000
0.000352 -0.002304 0.000000
-0.002304 -0.002850 0.000000
0.000000 0.000000 0.000000
-0.001311 0.002117 0.000000
0.002117 -0.019542 0.000000
0.000000 0.000000 0.000000
0.009326 0.002355 0.000000
0.002355 -0.012502 0.000000
0.000000 0.000000 0.000000
-0.003977 -0.000379 0.000000
-0.000379 -0.002732 0.000000
0.000000 0.000000 0.000000
-0.005428 0.002893 0.000000
0.002893 -0.013636 0.000000
0.000000 0.000000 0.000000
-0.000824 0.000506 0.000000
0.000506 -0.000344 0.000000
0.000000 0.000000 0.000000
-0.001033 -0.001303 0.000000
-0.001303 -0.008465 0.000000
0.000000 0.000000 0.000000
-0.014158 0.001547 0.000000
0.001547 -0.006943 0.000000
0.000000 0.000000 0.000000
-0.014106 -0.004858 0.000000
-0.004858 0.013534 0.000000
0.000000 0.000000 0.000000
-0.015145 -0.003483 0.000000
-0.003483 0.004146 0.000000
0.000000 0.000000 0.000000
0.005018 0.001436 0.000000
0.001436 0.006988 0.000000
0.000000 0.000000 0.000000
-0.018235 -0.001622 0.000000
-0.001622 0.001108 0.000000
0.000000 0.000000 0.000000
0.008738 0.001567 0.000000
0.001567 -0.002671 0.000000
0.000000 0.000000 0.000000
0.007575 -0.016928 0.000000
-0.016928 0.016149 0.000000
0.000000 0.000000 0.000000
0.020116 -0.005182 0.000000
-0.005182 0.019491 0.000000
0.000000 0.000000 0.000000
-0.006870 -0.007792 0.000000
-0.007792 0.001630 0.000000
0.000000 0.000000 0.000000
-0.007287 0.003174 0.000000
0.003174 -0.010209 0.000000
0.000000 0.000000 0.000000
-0.001034 -0.002835 0.000000
-0.002835 -0.001300 0.000000
0.000000 0.000000 0.000000
-0.012937 -0.008966 0.000000
-0.008966 0.002245 0.000000
0.000000 0.000000 0.000000
0.003940 0.004770 0.000000
0.004770 0.004799 0.000000
0.000000 0.000000 0.000000
0.031771 -0.003792 0.000000
-0.003792 0.012590 0.000000
0.000000 0.000000 0.000000
0.003525 0.003285 0.000000
0.003285 -0.014390 0.000000
0.000000 0.000000 0.000000
0.024277 0.004301 0.000000
0.004301 -0.000563 0.000000
0.000000 0.000000 0.000000
0.012628 0.000460 0.000000
0.000460 -0.009995 0.000000
0.000000 0.000000 0.000000
0.012869 0.002676 0.000000
0.002676 0.007719 0.000000
0.000000 0.000000 0.000000
-0.021174 0.007101 0.000000
0.007101 -0.016401 0.000000
0.000000 0.000000 0.000000
-0.010663 0.004772 0.000000
0.004772 -0.020321 0.000000
0.000000 0.000000 0.000000
0.023282 0.016736 0.000000
0.016736 0.021980 0.000000
0.000000 0.000000 0.000000
0.006614 0.010990 0.000000
0.010990 0.019355 0.000000
0.000000 0.000000 0.000000
0.013122 -0.001689 0.000000
-0.001689 0.013068 0.000000
0.000000 0.000000 0.000000
0.012651 0.014938 0.000000
0.014938 0.020292 0.000000
0.000000 0.000000 0.000000
-0.000179 -0.000313 0.000000
-0.000313 -0.005827 0.000000
0.000000 0.000000 0.000000
-0.003024 -0.006998 0.000000
-0.006998 -0.000429 0.000000
0.000000 0.000000 0.000000
0.029943 -0.014980 0.000000
-0.014980 -0.020132 0.000000
0.000000 0.000000 0.000000
0.005254 0.009713 0.000000
0.009713 -0.002325 0.000000
0.000000 0.000000 0.000000
0.024825 -0.011424 0.000000
-0.011424 0.001895 0.000000
0.000000 0.000000 0.000000
0.002738 -0.002551 0.000000
-0.002551 0.005052 0.000000
0.000000 0.000000 0.000000
-0.012551 0.003437 0.000000
0.003437 -0.022664 0.000000
0.000000 0.000000 0.000000
0.004346 0.002467 0.000000
0.002467 0.009059 0.000000
0.000000 0.000000 0.000000
-0.008375 0.005308 0.000000
0.005308 -0.004349 0.000000
0.000000 0.000000 0.000000
-0.018799 -0.009550 0.000000
-0.009550 0.005650 0.000000
0.000000 0.000000 0.000000
-0.000786 -0.003447 0.000000
-0.003447 -0.000778 0.000000
0.000000 0.000000 0.000000
-0.003432 -0.003786 0.000000
-0.003786 0.000011 0.000000
0.000000 0.000000 0.000000
-0.003335 -0.002995 0.000000
-0.002995 0.001946 0.000000
0.000000 0.000000 0.000000
-0.000711 0.005113 0.000000
0.005113 0.000144 0.000000
0.000000 0.000000 0.000000
-0.004102 0.000139 0.000000
0.000139 0.006118 0.000000
0.000000 0.000000 0.000000
0.011913 -0.003823 0.000000
-0.003823 0.010685 0.000000
0.000000 0.000000 0.000000
-0.002790 -0.005308 0.000000
-0.005308 -0.012203 0.000000
0.000000 0.000000 0.000000
0.027873 0.014726 0.000000
0.014726 0.023990 0.000000
0.000000 0.000000 0.000000
-0.010980 0.004356 0.000000
0.004356 -0.012410 0.000000
0.000000 0.000000 0.000000
0.021776 0.010629 0.000000
0.010629 0.018085 0.000000
0.000000 0.000000 0.000000
-0.021364 0.006638 0.000000
0.006638 -0.008213 0.000000
0.000000 0.000000 0.000000
-0.012101 0.004755 0.000000
0.004755 -0.016331 0.000000
0.000000 0.000000 0.000000
-0.000620 0.001262 0.000000
0.001262 -0.007169 0.000000
0.000000 0.000000 0.000000
0.002923 -0.001247 0.000000
-0.001247 0.001562 0.000000
0.000000 0.000000 0.000000
-0.002213 0.003477 0.000000
0.003477 -0.018980 0.000000
0.000000 0.000000 0.000000
0.006398 -0.001382 0.000000
-0.001382 0.003057 0.000000
0.000000 0.000000 0.000000
0.003435 -0.003906 0.000000
-0.003906 -0.002643 0.000000
0.000000 0.000000 0.000000
-0.000542 -0.003970 0.000000
-0.003970 -0.001471 0.000000
0.000000 0.000000 0.000000
0.012663 -0.007463 0.000000
-0.007463 -0.009203 0.000000
0.000000 0.000000 0.000000
0.004564 -0.008113 0.000000
-0.008113 0.002542 0.000000
0.000000 0.000000 0.000000
-0.003613 -0.002898 0.000000
-0.002898 -0.003140 0.000000
0.000000 0.000000 0.000000
0.004476 -0.002669 0.000000
-0.002669 -0.004796 0.000000
0.000000 0.000000 0.000000
0.001940 -0.005539 0.000000
-0.005539 -0.005416 0.000000
0.000000 0.000000 0.000000
0.000483 0.004292 0.000000
0.004292 -0.001865 0.000000
0.000000 0.000000 0.000000
0.006426 -0.006495 0.000000
-0.006495 -0.004293 0.000000
0.000000 0.000000 0.000000
0.010032 -0.000508 0.000000
-0.000508 -0.019071 0.000000
0.000000 0.000000 0.000000
-0.011760 0.005702 0.000000
0.005702 -0.001841 0.000000
0.000000 0.000000 0.000000
0.005533 -0.002133 0.000000
-0.002133 0.008299 0.000000
0.000000 0.000000 0.000000
0.001398 -0.001930 0.000000
-0.001930 -0.005421 0.000000
0.000000 0.000000 0.000000
0.011487 0.000424 0.000000
0.000424 -0.011438 0.000000
0.000000 0.000000 0.000000
0.011369 0.004334 0.000000
0.004334 -0.008837 0.000000
0.000000 0.000000 0.000000
-0.000054 -0.008057 0.000000
-0.008057 -0.001319 0.000000
0.000000 0.000000 0.000000
-0.004178 0.001819 0.000000
0.001819 -0.005590 0.000000
0.000000 0.000000 0.000000
-0.038217 -0.001116 0.000000
-0.001116 -0.006492 0.000000
0.000000 0.000000 0.000000
0.001849 0.004431 0.000000
0.004431 -0.002654 0.000000
0.000000 0.000000 0.000000
-0.012742 0.003347 0.000000
0.003347 -0.010213 0.000000
0.000000 0.000000 0.000000
0.003299 0.006421 0.000000
0.006421 -0.004662 0.000000
0.000000 0.000000 0.000000
0.000663 0.017773 0.000000
0.017773 0.009893 0.000000
0.000000 0.000000 0.000000
-0.006632 -0.003291 0.000000
-0.003291 -0.025949 0.000000
0.000000 0.000000 0.000000
0.025026 0.003051 0.000000
0.003051 -0.009532 0.000000
0.000000 0.000000 0.000000
-0.004159 0.002706 0.000000
0.002706 -0.009149 0.000000
0.000000 0.000000 0.000000
-0.008628 0.001615 0.000000
0.001615 -0.007481 0.000000
0.000000 0.000000 0.000000
-0.010093 -0.001281 0.000000
-0.001281 -0.019841 0.000000
0.000000 0.000000 0.000000
0.002152 -0.002011 0.000000
-0.002011 0.003131 0.000000
0.000000 0.000000 0.000000
0.000109 -0.003227 0.000000
-0.003227 -0.008243 0.000000
0.000000 0.000000 0.000000
-0.012951 -0.003376 0.000000
-0.003376 -0.003935 0.000000
0.000000 0.000000 0.000000
0.001265 -0.002795 0.000000
-0.002795 -0.005956 0.000000
0.000000 0.000000 0.000000
0.006016 -0.000207 0.000000
-0.000207 -0.003529 0.000000
0.000000 0.000000 0.000000
-0.008277 -0.001671 0.000000
-0.001671 0.010871 0.000000
0.000000 0.000000 0.000000
0.008496 0.000829 0.000000
0.000829 -0.000962 0.000000
0.000000 0.000000 0.000000
-0.005564 -0.022859 0.000000
-0.022859 0.020107 0.000000
0.000000 0.000000 0.000000
0.008077 0.001291 0.000000
0.001291 0.003254 0.000000
0.000000 0.000000 0.000000
-0.006891 -0.008425 0.000000
-0.008425 0.011282 0.000000
0.000000 0.000000 0.000000
0.003325 -0.002712 0.000000
-0.002712 0.002183 0.000000
0.000000 0.000000 0.000000
0.006092 -0.005055 0.000000
-0.005055 -0.010066 0.000000
0.000000 0.000000 0.000000
0.006436 0.002738 0.000000
0.002738 -0.015242 0.000000
0.000000 0.000000 0.000000
-0.002162 -0.003963 0.000000
-0.003963 0.006249 0.000000
0.000000 0.000000 0.000000
0.003308 0.001944 0.000000
0.001944 0.003034 0.000000
0.000000 0.000000 0.000000
-0.003513 -0.005514 0.000000
-0.005514 0.018293 0.000000
0.000000 0.000000 0.000000
0.001907 -0.002242 0.000000
-0.002242 0.013324 0.000000
0.000000 0.000000 0.000000
-0.016288 -0.005989 0.000000
-0.005989 0.014439 0.000000
0.000000 0.000000 0.000000
0.004420 -0.000759 0.000000
-0.000759 0.005758 0.000000
0.000000 0.000000 0.000000
-0.006029 0.000086 0.000000
0.000086 0.006271 0.000000
0.000000 0.000000 0.000000
0.008349 -0.003190 0.000000
-0.003190 0.001796 0.000000
0.000000 0.000000 0.000000
0.009082 -0.001370 0.000000
-0.001370 0.002487 0.000000
0.000000 0.000000 0.000000
0.002653 0.012399 0.000000
0.012399 -0.020498 0.000000
0.000000 0.000000 0.000000
0.013037 0.004722 0.000000
0.004722 0.005245 0.000000
0.000000 0.000000 0.000000
-0.013480 -0.002660 0.000000
-0.002660 0.017560 0.000000
0.000000 0.000000 0.000000
0.014636 -0.009911 0.000000
-0.009911 0.002348 0.000000
0.000000 0.000000 0.000000
-0.000844 -0.001212 0.000000
-0.001212 -0.007231 0.000000
0.000000 0.000000 0.000000
0.008879 -0.014310 0.000000
-0.014310 -0.015720 0.000000
0.000000 0.000000 0.000000
0.002490 -0.000544 0.000000
-0.000544 -0.010753 0.000000
0.000000 0.000000 0.000000
0.002766 -0.006484 0.000000
-0.006484 0.007471 0.000000
0.000000 0.000000 0.000000
-0.004721 0.007512 0.000000
0.007512 0.007454 0.000000
0.000000 0.000000 0.000000
-0.001750 0.003967 0.000000
0.003967 0.016809 0.000000
0.000000 0.000000 0.000000
-0.011101 -0.001116 0.000000
-0.001116 -0.000959 0.000000
0.000000 0.000000 0.000000
0.014374 0.003730 0.000000
0.003730 -0.021268 0.000000
0.000000 0.000000 0.000000
0.007722 -0.006051 0.000000
-0.006051 -0.008629 0.000000
0.000000 0.000000 0.000000
0.002851 -0.000461 0.000000
-0.000461 -0.009078 0.000000
0.000000 0.000000 0.000000
-0.002696 -0.006790 0.000000
-0.006790 -0.010708 0.000000
0.000000 0.000000 0.000000
0.007961 0.002269 0.000000
0.002269 0.003203 0.000000
0.000000 0.000000 0.000000
0.010092 0.003528 0.000000
0.003528 0.005360 0.000000
0.000000 0.000000 0.000000
-0.003454 -0.003189 0.000000
-0.003189 -0.003800 0.000000
0.000000 0.000000 0.000000
-0.003225 0.000288 0.000000
0.000288 0.000235 0.000000
0.000000 0.000000 0.000000
-0.016585 -0.005068 0.000000
-0.005068 -0.003293 0.000000
0.000000 0.000000 0.000000
0.012511 0.000526 0.000000
0.000526 -0.002604 0.000000
0.000000 0.000000 0.000000
-0.000624 -0.009649 0.000000
-0.009649 0.010033 0.000000
0.000000 0.000000 0.000000
-0.005198 -0.004729 0.000000
-0.004729 -0.002226 0.000000
0.000000 0.000000 0.000000
-0.012722 -0.002357 0.000000
-0.002357 0.024263 0.000000
0.000000 0.000000 0.000000
0.015407 0.000750 0.000000
0.000750 -0.000987 0.000000
0.000000 0.000000 0.000000
0.014420 0.009154 0.000000
0.009154 0.008820 0.000000
0.000000 0.000000 0.000000
-0.004352 -0.006119 0.000000
-0.006119 0.018765 0.000000
0.000000 0.000000 0.000000
-0.006426 -0.002857 0.000000
-0.002857 -0.000973 0.000000
0.000000 0.000000 0.000000
-0.001572 -0.005070 0.000000
-0.005070 0.000209 0.000000
0.000000 0.000000 0.000000
0.012346 -0.012584 0.000000
-0.012584 0.015038 0.000000
0.000000 0.000000 0.000000
0.002789 0.001712 0.000000
0.001712 0.003426 0.000000
0.000000 0.000000 0.000000
-0.007454 -0.002367 0.000000
-0.002367 -0.002541 0.000000
0.000000 0.000000 0.000000
0.007473 -0.003562 0.000000
-0.003562 -0.000932 0.000000
0.000000 0.000000 0.000000
0.020841 -0.005896 0.000000
-0.005896 -0.013962 0.000000
0.000000 0.000000 0.000000
0.016878 -0.010252 0.000000
-0.010252 -0.016645 0.000000
0.000000 0.000000 0.000000
-0.020393 0.006218 0.000000
0.006218 0.017398 0.000000
0.000000 0.000000 0.000000
-0.010071 -0.003499 0.000000
-0.003499 0.019971 0.000000
0.000000 0.000000 0.000000
-0.007875 -0.009339 0.000000
-0.009339 -0.004253 0.000000
0.000000 0.000000 0.000000
-0.009943 0.011196 0.000000
0.011196 -0.010209 0.000000
0.000000 0.000000 0.000000
-0.003020 -0.000286 0.000000
-0.000286 -0.010834 0.000000
0.000000 0.000000 0.000000
-0.015358 -0.011215 0.000000
-0.011215 -0.001125 0.000000
0.000000 0.000000 0.000000
0.011322 0.007718 0.000000
0.007718 -0.004980 0.000000
0.000000 0.000000 0.000000
0.001143 0.003610 0.000000
0.003610 0.006409 0.000000
0.000000 0.000000 0.000000
0.002413 0.004029 0.000000
0.004029 -0.006334 0.000000
0.000000 0.000000 0.000000
0.000072 0.011765 0.000000
0.011765 -0.009381 0.000000
0.000000 0.000000 0.000000
-0.001511 0.001380 0.000000
0.001380 0.004843 0.000000
0.000000 0.000000 0.000000
0.010682 0.000615 0.000000
0.000615 -0.007750 0.000000
0.000000 0.000000 0.000000
0.011233 0.002877 0.000000
0.002877 -0.005787 0.000000
0.000000 0.000000 0.000000
0.015807 0.003927 0.000000
0.003927 -0.011513 0.000000
0.000000 0.000000 0.000000
0.006647 0.010389 0.000000
0.010389 0.006755 0.000000
0.000000 0.000000 0.000000
-0.002229 0.004411 0.000000
0.004411 -0.018030 0.000000
0.000000 0.000000 0.000000
0.006714 0.000553 0.000000
0.000553 -0.018576 0.000000
0.000000 0.000000 0.000000
0.004155 0.000319 0.000000
0.000319 0.001708 0.000000
0.000000 0.000000 0.000000
-0.001405 -0.000478 0.000000
-0.000478 -0.011346 0.000000
0.000000 0.000000 0.000000
-0.006332 0.009710 0.000000
0.009710 -0.008612 0.000000
0.000000 0.000000 0.000000
-0.000714 -0.000153 0.000000
-0.000153 -0.031737 0.000000
0.000000 0.000000 0.000000
0.024320 -0.003410 0.000000
-0.003410 0.012969 0.000000
0.000000 0.000000 0.000000
-0.011713 0.000390 0.000000
0.000390 0.009166 0.000000
0.000000 0.000000 0.000000
-0.009133 -0.003751 0.000000
-0.003751 0.007595 0.000000
0.000000 0.000000 0.000000
-0.012917 0.004779 0.000000
0.004779 0.000203 0.000000
0.000000 0.000000 0.000000
0.009608 -0.000090 0.000000
-0.000090 0.013346 0.000000
0.000000 0.000000 0.000000
-0.002915 0.000106 0.000000
0.000106 0.003461 0.000000
0.000000 0.000000 0.000000
0.007415 0.003435 0.000000
0.003435 -0.005998 0.000000
0.000000 0.000000 0.000000
0.003152 -0.003778 0.000000
-0.003778 0.012697 0.000000
0.000000 0.000000 0.000000
-0.007874 -0.006066 0.000000
-0.006066 -0.011645 0.000000
0.000000 0.000000 0.000000
0.000992 -0.000725 0.000000
-0.000725 0.010564 0.000000
0.000000 0.000000 0.000000
0.003943 -0.002518 0.000000
-0.002518 0.012811 0.000000
0.000000 0.000000 0.000000
0.008682 0.003542 0.000000
0.003542 -0.005647 0.000000
0.000000 0.000000 0.000000
-0.022259 0.003312 0.000000
0.003312 -0.012294 0.000000
0.000000 0.000000 0.000000
0.013496 -0.018180 0.000000
-0.018180 -0.022307 0.000000
0.000000 0.000000 0.000000
0.023674 -0.025977 0.000000
-0.025977 0.017825 0.000000
0.000000 0.000000 0.000000
0.009883 -0.003155 0.000000
-0.003155 -0.007373 0.000000
0.000000 0.000000 0.000000
-0.022524 0.020963 0.000000
0.020963 0.012610 0.000000
0.000000 0.000000 0.000000
-0.001457 0.009691 0.000000
0.009691 -0.005854 0.000000
0.000000 0.000000 0.000000
-0.001614 0.009043 0.000000
0.009043 -0.004896 0.000000
0.000000 0.000000 0.000000
0.003731 -0.001505 0.000000
-0.001505 0.005484 0.000000
0.000000 0.000000 0.000000
0.016656 -0.010491 0.000000
-0.010491 -0.015944 0.000000
0.000000 0.000000 0.000000
-0.015615 -0.000018 0.000000
-0.000018 0.012953 0.000000
0.000000 0.000000 0.000000
-0.001530 -0.000216 0.000000
-0.000216 0.011001 0.000000
0.000000 0.000000 0.000000
-0.001255 0.000072 0.000000
0.000072 -0.001143 0.000000
0.000000 0.000000 0.000000
-0.001180 -0.015807 0.000000
-0.015807 0.023318 0.000000
0.000000 0.000000 0.000000
0.010430 0.002992 0.000000
0.002992 0.009275 0.000000
0.000000 0.000000 0.000000
-0.008720 0.005626 0.000000
0.005626 0.000739 0.000000
0.000000 0.000000 0.000000
-0.001948 -0.001125 0.000000
-0.001125 0.014069 0.000000
0.000000 0.000000 0.000000
0.004713 0.010652 0.000000
0.010652 0.013060 0.000000
0.000000 0.000000 0.000000
0.020821 0.012796 0.000000
0.012796 0.012001 0.000000
0.000000 0.000000 0.000000
0.009024 -0.007741 0.000000
-0.007741 -0.021937 0.000000
0.000000 0.000000 0.000000
0.009086 0.001928 0.000000
0.001928 0.019960 0.000000
0.000000 0.000000 0.000000
0.005580 0.000544 0.000000
0.000544 0.022411 0.000000
0.000000 0.000000 0.000000
0.023187 0.003736 0.000000
0.003736 -0.006755 0.000000
0.000000 0.000000 0.000000
-0.007004 -0.000845 0.000000
-0.000845 -0.002001 0.000000
0.000000 0.000000 0.000000
0.000030 0.001557 0.000000
0.001557 -0.002770 0.000000
0.000000 0.000000 0.000000
0.008387 0.000917 0.000000
0.000917 0.000105 0.000000
0.000000 0.000000 0.000000
0.000493 0.001509 0.000000
0.001509 -0.001685 0.000000
0.000000 0.000000 0.000000
0.003117 -0.000067 0.000000
-0.000067 0.000014 0.000000
0.000000 0.000000 0.000000
-0.012123 -0.005903 0.000000
-0.005903 -0.015770 0.000000
0.000000 0.000000 0.000000
-0.017220 -0.012107 0.000000
-0.012107 0.001104 0.000000
0.000000 0.000000 0.000000
0.006354 0.005089 0.000000
0.005089 0.007466 0.000000
0.000000 0.000000 0.000000
0.000590 -0.002251 0.000000
-0.002251 -0.011206 0.000000
0.000000 0.000000 0.000000
0.019161 0.004269 0.000000
0.004269 0.002339 0.000000
0.000000 0.000000 0.000000
-0.010222 -0.008348 0.000000
-0.008348 -0.000981 0.000000
0.000000 0.000000 0.000000
0.000936 0.003430 0.000000
0.003430 0.000924 0.000000
0.000000 0.000000 0.000000
0.015040 -0.000056 0.000000
-0.000056 0.005695 0.000000
0.000000 0.000000 0.000000
-0.013608 0.006152 0.000000
0.006152 0.000742 0.000000
0.000000 0.000000 0.000000
-0.003355 0.002624 0.000000
0.002624 0.000619 0.000000
0.000000 0.000000 0.000000
-0.003542 0.005635 0.000000
0.005635 0.003331 0.000000
0.000000 0.000000 0.000000
-0.006400 0.003810 0.000000
0.003810 -0.001258 0.000000
0.000000 0.000000 0.000000
0.001156 0.007165 0.000000
0.007165 -0.002157 0.000000
0.000000 0.000000 0.000000
0.009228 -0.001738 0.000000
-0.001738 0.011797 0.000000
0.000000 0.000000 0.000000
-0.011422 -0.001893 0.000000
-0.001893 -0.014653 0.000000
0.000000 0.000000 0.000000
0.011945 0.002882 0.000000
0.002882 -0.011923 0.000000
0.000000 0.000000 0.000000
-0.008087 0.001637 0.000000
0.001637 0.008379 0.000000
0.000000 0.000000 0.000000
-0.007477 -0.007558 0.000000
-0.007558 0.011304 0.000000
0.000000 0.000000 0.000000
-0.002833 0.006894 0.000000
0.006894 -0.002517 0.000000
0.000000 0.000000 0.000000
-0.009274 -0.004634 0.000000
-0.004634 -0.007314 0.000000
0.000000 0.000000 0.000000
0.000804 -0.006005 0.000000
-0.006005 -0.007238 0.000000
0.000000 0.000000 0.000000
-0.012647 -0.000802 0.000000
-0.000802 -0.011788 0.000000
0.000000 0.000000 0.000000
-0.010228 -0.003420 0.000000
-0.003420 -0.017088 0.000000
0.000000 0.000000 0.000000
-0.014946 0.006545 0.000000
0.006545 -0.003042 0.000000
0.000000 0.000000 0.000000
-0.013143 -0.001384 0.000000
-0.001384 -0.014738 0.000000
0.000000 0.000000 0.000000
-0.004435 0.007379 0.000000
0.007379 -0.000370 0.000000
0.000000 0.000000 0.000000
-0.010920 -0.008795 0.000000
-0.008795 -0.014528 0.000000
0.000000 0.000000 0.000000
-0.008684 0.003848 0.000000
0.003848 -0.005819 0.000000
0.000000 0.000000 0.000000
-0.002187 0.010522 0.000000
0.010522 -0.000150 0.000000
0.000000 0.000000 0.000000
0.028024 -0.007248 0.000000
-0.007248 0.005002 0.000000
0.000000 0.000000 0.000000
0.006997 -0.001347 0.000000
-0.001347 0.000076 0.000000
0.000000 0.000000 0.000000
0.024465 -0.007695 0.000000
-0.007695 -0.013954 0.000000
0.000000 0.000000 0.000000
-0.004679 0.007007 0.000000
0.007007 -0.003723 0.000000
0.000000 0.000000 0.000000
-0.006928 -0.006757 0.000000
-0.006757 -0.029188 0.000000
0.000000 0.000000 0.000000
-0.015698 0.003680 0.000000
0.003680 0.004595 0.000000
0.000000 0.000000 0.000000
0.003905 0.006279 0.000000
0.006279 -0.001634 0.000000
0.000000 0.000000 0.000000
0.013428 -0.005764 0.000000
-0.005764 0.008212 0.000000
0.000000 0.000000 0.000000
0.018096 -0.002228 0.000000
-0.002228 0.011386 0.000000
0.000000 0.000000 0.000000
0.003993 -0.002435 0.000000
-0.002435 0.003133 0.000000
0.000000 0.000000 0.000000
0.001894 -0.009176 0.000000
-0.009176 0.019490 0.000000
0.000000 0.000000 0.000000
0.002696 0.003668 0.000000
0.003668 0.000304 0.000000
0.000000 0.000000 0.000000
-0.013402 0.002790 0.000000
0.002790 -0.012645 0.000000
0.000000 0.000000 0.000000
-0.015231 0.005482 0.000000
0.005482 -0.014103 0.000000
0.000000 0.000000 0.000000
0.011643 -0.002719 0.000000
-0.002719 0.005659 0.000000
0.000000 0.000000 0.000000
-0.024129 0.005521 0.000000
0.005521 -0.013501 0.000000
0.000000 0.000000 0.000000
-0.009255 0.015429 0.000000
0.015429 -0.015314 0.000000
0.000000 0.000000 0.000000
-0.007012 -0.009227 0.000000
-0.009227 -0.032337 0.000000
0.000000 0.000000 0.000000
0.001854 0.006320 0.000000
0.006320 -0.002292 0.000000
0.000000 0.000000 0.000000
-0.004538 0.006963 0.000000
0.006963 -0.000795 0.000000
0.000000 0.000000 0.000000
-0.002266 0.003519 0.000000
0.003519 -0.004582 0.000000
0.000000 0.000000 0.000000
-0.001805 0.000158 0.000000
0.000158 -0.003244 0.000000
0.000000 0.000000 0.000000
-0.021442 0.005103 0.000000
0.005103 -0.011800 0.000000
0.000000 0.000000 0.000000
0.002048 0.005629 0.000000
0.005629 -0.003763 0.000000
0.000000 0.000000 0.000000
0.007040 -0.007656 0.000000
-0.007656 -0.005015 0.000000
0.000000 0.000000 0.000000
-0.004498 0.002240 0.000000
0.002240 0.000100 0.000000
0.000000 0.000000 0.000000
0.012224 0.001043 0.000000
0.001043 0.005987 0.000000
0.000000 0.000000 0.000000
-0.023191 0.018238 0.000000
0.018238 0.019233 0.000000
0.000000 0.000000 0.000000
0.000269 -0.002948 0.000000
-0.002948 -0.006288 0.000000
0.000000 0.000000 0.000000
-0.002441 0.000379 0.000000
0.000379 -0.029320 0.000000
0.000000 0.000000 0.000000
0.006065 -0.005102 0.000000
-0.005102 0.007761 0.000000
0.000000 0.000000 0.000000
0.008063 -0.000398 0.000000
-0.000398 -0.000596 0.000000
0.000000 0.000000 0.000000
-0.004772 0.005222 0.000000
0.005222 -0.008615 0.000000
0.000000 0.000000 0.000000
-0.000333 0.002928 0.000000
0.002928 -0.013321 0.000000
0.000000 0.000000 0.000000
-0.008215 -0.001149 0.000000
-0.001149 -0.005451 0.000000
0.000000 0.000000 0.000000
-0.013233 -0.002013 0.000000
-0.002013 -0.006862 0.000000
0.000000 0.000000 0.000000
-0.007938 -0.003500 0.000000
-0.003500 0.003700 0.000000
0.000000 0.000000 0.000000
-0.019580 -0.004926 0.000000
-0.004926 0.001820 0.000000
0.000000 0.000000 0.000000
0.008223 0.002342 0.000000
0.002342 0.007711 0.000000
0.000000 0.000000 0.000000
0.011663 -0.006244 0.000000
-0.006244 0.006395 0.000000
0.000000 0.000000 0.000000
0.001825 -0.002716 0.000000
-0.002716 0.004294 0.000000
0.000000 0.000000 0.000000
-0.015899 -0.001020 0.000000
-0.001020 0.010319 0.000000
0.000000 0.000000 0.000000
-0.002089 0.001951 0.000000
0.001951 -0.014055 0.000000
0.000000 0.000000 0.000000
0.004715 -0.004320 0.000000
-0.004320 0.003578 0.000000
0.000000 0.000000 0.000000
-0.001763 -0.006035 0.000000
-0.006035 0.000086 0.000000
0.000000 0.000000 0.000000
-0.012653 -0.013115 0.000000
-0.013115 -0.000857 0.000000
0.000000 0.000000 0.000000
0.000184 -0.001682 0.000000
-0.001682 -0.001030 0.000000
0.000000 0.000000 0.000000
-0.007706 -0.006015 0.000000
-0.006015 0.004083 0.000000
0.000000 0.000000 0.000000
-0.001186 -0.010203 0.000000
-0.010203 -0.002935 0.000000
0.000000 0.000000 0.000000
-0.012429 -0.012639 0.000000
-0.012639 -0.005078 0.000000
0.000000 0.000000 0.000000
-0.014090 -0.009003 0.000000
-0.009003 0.005182 0.000000
0.000000 0.000000 0.000000
0.015557 -0.006329 0.000000
-0.006329 0.007984 0.000000
0.000000 0.000000 0.000000
-0.005129 0.008818 0.000000
0.008818 0.036112 0.000000
0.000000 0.000000 0.000000
0.010220 -0.006616 0.000000
-0.006616 -0.012128 0.000000
0.000000 0.000000 0.000000
-0.002640 0.003224 0.000000
0.003224 0.010502 0.000000
0.000000 0.000000 0.000000
0.002835 -0.000557 0.000000
-0.000557 -0.002373 0.000000
0.000000 0.000000 0.000000
-0.005884 0.001213 0.000000
0.001213 0.001096 0.000000
0.000000 0.000000 0.000000
0.002500 0.003442 0.000000
0.003442 -0.017160 0.000000
0.000000 0.000000 0.000000
0.019176 -0.012318 0.000000
-0.012318 0.018030 0.000000
0.000000 0.000000 0.000000
-0.025024 0.011417 0.000000
0.011417 -0.018371 0.000000
0.000000 0.000000 0.000000
-0.017325 -0.003631 0.000000
-0.003631 -0.015136 0.000000
0.000000 0.000000 0.000000
-0.012642 -0.017023 0.000000
-0.017023 -0.008327 0.000000
0.000000 0.000000 0.000000
-0.002005 0.002045 0.000000
0.002045 -0.018936 0.000000
0.000000 0.000000 0.000000
-0.011471 0.000894 0.000000
0.000894 -0.005448 0.000000
0.000000 0.000000 0.000000
0.004850 0.002172 0.000000
0.002172 0.009646 0.000000
0.000000 0.000000 0.000000
-0.006099 -0.001750 0.000000
-0.001750 -0.001187 0.000000
0.000000 0.000000 0.000000
-0.000474 -0.000217 0.000000
-0.000217 0.002960 0.000000
0.000000 0.000000 0.000000
0.002146 0.000552 0.000000
0.000552 0.012721 0.000000
0.000000 0.000000 0.000000
0.006029 0.000938 0.000000
0.000938 0.013669 0.000000
0.000000 0.000000 0.000000
0.013358 0.000965 0.000000
0.000965 -0.000515 0.000000
0.000000 0.000000 0.000000
0.000805 -0.003948 0.000000
-0.003948 -0.010904 0.000000
0.000000 0.000000 0.000000
0.004217 0.000218 0.000000
0.000218 0.003682 0.000000
0.000000 0.000000 0.000000
-0.000400 0.002851 0.000000
0.002851 0.007055 0.000000
0.000000 0.000000 0.000000
-0.005629 0.009983 0.000000
0.009983 0.004488 0.000000
0.000000 0.000000 0.000000
-0.006644 0.008623 0.000000
0.008623 -0.010267 0.000000
0.000000 0.000000 0.000000
0.002470 0.000470 0.000000
0.000470 0.013967 0.000000
0.000000 0.000000 0.000000
0.006441 0.004617 0.000000
0.004617 0.007627 0.000000
0.000000 0.000000 0.000000
0.000774 0.010460 0.000000
0.010460 -0.014437 0.000000
0.000000 0.000000 0.000000
0.001039 -0.012605 0.000000
-0.012605 -0.007097 0.000000
0.000000 0.000000 0.000000
0.012745 -0.000873 0.000000
-0.000873 0.012785 0.000000
0.000000 0.000000 0.000000
0.002033 0.000813 0.000000
0.000813 0.021347 0.000000
0.000000 0.000000 0.000000
-0.025688 -0.004829 0.000000
-0.004829 -0.013550 0.000000
0.000000 0.000000 0.000000
-0.005073 0.001785 0.000000
0.001785 0.004007 0.000000
0.000000 0.000000 0.000000
-0.007538 0.003100 0.000000
0.003100 -0.023164 0.000000
0.000000 0.000000 0.000000
0.003901 -0.004930 0.000000
-0.004930 0.006321 0.000000
0.000000 0.000000 0.000000
-0.014397 -0.001705 0.000000
-0.001705 -0.001000 0.000000
0.000000 0.000000 0.000000
-0.024028 -0.006875 0.000000
-0.006875 -0.010774 0.000000
0.000000 0.000000 0.000000
0.004904 -0.004819 0.000000
-0.004819 -0.002514 0.000000
0.000000 0.000000 0.000000
0.001708 -0.000551 0.000000
-0.000551 -0.003711 0.000000
0.000000 0.000000 0.000000
-0.022353 0.006900 0.000000
0.006900 -0.005942 0.000000
0.000000 0.000000 0.000000
-0.005661 -0.000226 0.000000
-0.000226 -0.005104 0.000000
0.000000 0.000000 0.000000
-0.022124 0.007650 0.000000
0.007650 -0.002456 0.000000
0.000000 0.000000 0.000000
0.005213 -0.013680 0.000000
-0.013680 -0.009628 0.000000
0.000000 0.000000 0.000000
0.022619 0.013519 0.000000
0.013519 0.000899 0.000000
0.000000 0.000000 0.000000
0.015547 -0.020935 0.000000
-0.020935 0.011475 0.000000
0.000000 0.000000 0.000000
-0.002227 -0.009961 0.000000
-0.009961 -0.002565 0.000000
0.000000 0.000000 0.000000
0.003503 -0.006343 0.000000
-0.006343 0.008531 0.000000
0.000000 0.000000 0.000000
0.000662 -0.002770 0.000000
-0.002770 0.001208 0.000000
0.000000 0.000000 0.000000
0.007051 0.002011 0.000000
0.002011 0.011216 0.000000
0.000000 0.000000 0.000000
-0.005674 -0.007527 0.000000
-0.007527 0.002636 0.000000
0.000000 0.000000 0.000000
0.014624 0.005828 0.000000
0.005828 0.007909 0.000000
0.000000 0.000000 0.000000
-0.037694 -0.022363 0.000000
-0.022363 -0.020676 0.000000
0.000000 0.000000 0.000000
-0.001173 0.002660 0.000000
0.002660 0.011732 0.000000
0.000000 0.000000 0.000000
-0.028314 -0.028454 0.000000
-0.028454 0.012496 0.000000
0.000000 0.000000 0.000000
0.003152 -0.000533 0.000000
-0.000533 -0.001611 0.000000
0.000000 0.000000 0.000000
-0.016262 0.003993 0.000000
0.003993 0.013363 0.000000
0.000000 0.000000 0.000000
0.013506 0.004364 0.000000
0.004364 0.003697 0.000000
0.000000 0.000000 0.000000
0.020071 0.007534 0.000000
0.007534 -0.005955 0.000000
0.000000 0.000000 0.000000
-0.005652 -0.007627 0.000000
-0.007627 -0.010827 0.000000
0.000000 0.000000 0.000000
0.005178 -0.007519 0.000000
-0.007519 -0.018477 0.000000
0.000000 0.000000 0.000000
-0.002902 0.000848 0.000000
0.000848 -0.002300 0.000000
0.000000 0.000000 0.000000
-0.001090 0.011135 0.000000
0.011135 -0.004790 0.000000
0.000000 0.000000 0.000000
0.000198 0.002182 0.000000
0.002182 -0.001408 0.000000
0.000000 0.000000 0.000000
-0.003584 0.007982 0.000000
0.007982 -0.002239 0.000000
0.000000 0.000000 0.000000
-0.010102 0.010986 0.000000
0.010986 0.003575 0.000000
0.000000 0.000000 0.000000
-0.004072 0.000627 0.000000
0.000627 -0.017235 0.000000
0.000000 0.000000 0.000000
0.001048 0.000450 0.000000
0.000450 -0.002971 0.000000
0.000000 0.000000 0.000000
-0.003855 0.002499 0.000000
0.002499 -0.019354 0.000000
0.000000 0.000000 0.000000
0.005459 0.002445 0.000000
0.002445 0.012246 0.000000
0.000000 0.000000 0.000000
-0.002403 0.001292 0.000000
0.001292 -0.024741 0.000000
0.000000 0.000000 0.000000
0.001940 -0.012177 0.000000
-0.012177 -0.001400 0.000000
0.000000 0.000000 0.000000
0.021196 -0.010893 0.000000
-0.010893 -0.005887 0.000000
0.000000 0.000000 0.000000
0.005439 0.003632 0.000000
0.003632 -0.000384 0.000000
0.000000 0.000000 0.000000
0.006731 0.000713 0.000000
0.000713 0.011583 0.000000
0.000000 0.000000 0.000000
0.003829 0.002629 0.000000
0.002629 0.005390 0.000000
0.000000 0.000000 0.000000
0.005173 0.001006 0.000000
0.001006 -0.008514 0.000000
0.000000 0.000000 0.000000
0.009756 -0.000194 0.000000
-0.000194 0.010073 0.000000
0.000000 0.000000 0.000000
0.007908 0.010787 0.000000
0.010787 0.005923 0.000000
0.000000 0.000000 0.000000
0.010756 -0.000243 0.000000
-0.000243 0.004533 0.000000
0.000000 0.000000 0.000000
0.000821 0.004520 0.000000
0.004520 0.000316 0.000000
0.000000 0.000000 0.000000
0.006069 -0.006718 0.000000
-0.006718 0.008244 0.000000
0.000000 0.000000 0.000000
0.009928 -0.012743 0.000000
-0.012743 0.002997 0.000000
0.000000 0.000000 0.000000
-0.009433 -0.012874 0.000000
-0.012874 0.006915 0.000000
0.000000 0.000000 0.000000
-0.011998 -0.005168 0.000000
-0.005168 -0.007012 0.000000
0.000000 0.000000 0.000000
-0.011947 0.004447 0.000000
0.004447 -0.005934 0.000000
0.000000 0.000000 0.000000
-0.009789 -0.002350 0.000000
-0.002350 0.018962 0.000000
0.000000 0.000000 0.000000
0.004186 -0.007109 0.000000
-0.007109 0.002113 0.000000
0.000000 0.000000 0.000000
0.026396 -0.001108 0.000000
-0.001108 0.002318 0.000000
0.000000 0.000000 0.000000
-0.003616 0.000286 0.000000
0.000286 -0.003142 0.000000
0.000000 0.000000 0.000000
-0.002922 -0.011838 0.000000
-0.011838 -0.000104 0.000000
0.000000 0.000000 0.000000
0.005158 -0.000784 0.000000
-0.000784 0.010425 0.000000
0.000000 0.000000 0.000000
0.004023 -0.002589 0.000000
-0.002589 0.004585 0.000000
0.000000 0.000000 0.000000
0.022460 0.010127 0.000000
0.010127 0.000594 0.000000
0.000000 0.000000 0.000000
0.021181 0.010697 0.000000
0.010697 -0.003222 0.000000
0.000000 0.000000 0.000000
-0.016208 0.016690 0.000000
0.016690 0.001954 0.000000
0.000000 0.000000 0.000000
-0.003635 -0.005684 0.000000
-0.005684 -0.014322 0.000000
0.000000 0.000000 0.000000
-0.019002 -0.000225 0.000000
-0.000225 -0.016951 0.000000
0.000000 0.000000 0.000000
-0.026637 -0.001725 0.000000
-0.001725 -0.015438 0.000000
0.000000 0.000000 0.000000
-0.021182 0.001151 0.000000
0.001151 -0.001402 0.000000
0.000000 0.000000 0.000000
-0.006748 -0.003963 0.000000
-0.003963 -0.000302 0.000000
0.000000 0.000000 0.000000
-0.001266 -0.003078 0.000000
-0.003078 0.002697 0.000000
0.000000 0.000000 0.000000
-0.010737 -0.000372 0.000000
-0.000372 0.006946 0.000000
0.000000 0.000000 0.000000
-0.005962 -0.007074 0.000000
-0.007074 0.006811 0.000000
0.000000 0.000000 0.000000
0.020613 0.001361 0.000000
0.001361 0.004041 0.000000
0.000000 0.000000 0.000000
0.002188 -0.006642 0.000000
-0.006642 0.003310 0.000000
0.000000 0.000000 0.000000
-0.005737 -0.005116 0.000000
-0.005116 -0.002374 0.000000
0.000000 0.000000 0.000000
0.003891 0.000958 0.000000
0.000958 0.001509 0.000000
0.000000 0.000000 0.000000
0.017152 -0.003688 0.000000
-0.003688 -0.004330 0.000000
0.000000 0.000000 0.000000
-0.013319 -0.002982 0.000000
-0.002982 -0.010220 0.000000
0.000000 0.000000 0.000000
-0.035648 0.005984 0.000000
0.005984 0.012504 0.000000
0.000000 0.000000 0.000000
-0.007957 -0.005067 0.000000
-0.005067 -0.012315 0.000000
0.000000 0.000000 0.000000
-0.009432 -0.000400 0.000000
-0.000400 -0.014450 0.000000
0.000000 0.000000 0.000000
-0.009286 0.005016 0.000000
0.005016 0.006156 0.000000
0.000000 0.000000 0.000000
0.002040 -0.000482 0.000000
-0.000482 0.009629 0.000000
0.000000 0.000000 0.000000
0.019392 -0.007475 0.000000
-0.007475 0.004287 0.000000
0.000000 0.000000 0.000000
-0.001667 -0.001335 0.000000
-0.001335 0.012537 0.000000
0.000000 0.000000 0.000000
0.000100 0.000691 0.000000
0.000691 -0.002083 0.000000
0.000000 0.000000 0.000000
0.028328 0.017986 0.000000
0.017986 -0.000840 0.000000
0.000000 0.000000 0.000000
0.004947 0.003498 0.000000
0.003498 0.005879 0.000000
0.000000 0.000000 0.000000
0.002910 0.008925 0.000000
0.008925 -0.020617 0.000000
0.000000 0.000000 0.000000
-0.006361 0.003906 0.000000
0.003906 0.009488 0.000000
0.000000 0.000000 0.000000
0.024509 -0.001002 0.000000
-0.001002 0.007991 0.000000
0.000000 0.000000 0.000000
0.004983 0.005645 0.000000
0.005645 0.009381 0.000000
0.000000 0.000000 0.000000
0.010547 0.002465 0.000000
0.002465 0.036540 0.000000
0.000000 0.000000 0.000000
0.008498 -0.004005 0.000000
-0.004005 0.022034 0.000000
0.000000 0.000000 0.000000
0.005204 0.007447 0.000000
0.007447 0.021567 0.000000
0.000000 0.000000 0.000000
-0.015826 0.002497 0.000000
0.002497 -0.004565 0.000000
0.000000 0.000000 0.000000
0.006479 -0.003767 0.000000
-0.003767 -0.005356 0.000000
0.000000 0.000000 0.000000
-0.007944 0.001966 0.000000
0.001966 -0.014145 0.000000
0.000000 0.000000 0.000000
0.008856 -0.001221 0.000000
-0.001221 0.006902 0.000000
0.000000 0.000000 0.000000
0.012563 -0.010806 0.000000
-0.010806 0.005569 0.000000
0.000000 0.000000 0.000000
0.002374 -0.000875 0.000000
-0.000875 0.004955 0.000000
0.000000 0.000000 0.000000
0.004145 -0.002641 0.000000
-0.002641 0.000215 0.000000
0.000000 0.000000 0.000000
-0.019437 0.008737 0.000000
0.008737 -0.003236 0.000000
0.000000 0.000000 0.000000
0.018167 -0.003001 0.000000
-0.003001 0.015312 0.000000
0.000000 0.000000 0.000000
0.004033 0.001728 0.000000
0.001728 0.006285 0.000000
0.000000 0.000000 0.000000
-0.009132 -0.006165 0.000000
-0.006165 -0.002458 0.000000
0.000000 0.000000 0.000000
-0.015613 0.006579 0.000000
0.006579 -0.007359 0.000000
0.000000 0.000000 0.000000
-0.012127 -0.002811 0.000000
-0.002811 0.016987 0.000000
0.000000 0.000000 0.000000
0.001118 0.000906 0.000000
0.000906 0.010615 0.000000
0.000000 0.000000 0.000000
0.002591 0.001981 0.000000
0.001981 0.013069 0.000000
0.000000 0.000000 0.000000
0.003964 0.001325 0.000000
0.001325 0.005577 0.000000
0.000000 0.000000 0.000000
-0.006588 -0.008599 0.000000
-0.008599 0.019241 0.000000
0.000000 0.000000 0.000000
-0.006055 -0.012202 0.000000
-0.012202 0.016155 0.000000
0.000000 0.000000 0.000000
-0.002639 -0.015368 0.000000
-0.015368 0.008722 0.000000
0.000000 0.000000 0.000000
0.000301 -0.001005 0.000000
-0.001005 0.007731 0.000000
0.000000 0.000000 0.000000
-0.004179 0.002860 0.000000
0.002860 0.000396 0.000000
0.000000 0.000000 0.000000
-0.002249 0.004026 0.000000
0.004026 0.006069 0.000000
0.000000 0.000000 0.000000
-0.002036 -0.003201 0.000000
-0.003201 -0.007040 0.000000
0.000000 0.000000 0.000000
-0.000122 -0.006958 0.000000
-0.006958 -0.004963 0.000000
0.000000 0.000000 0.000000
0.006434 0.000802 0.000000
0.000802 0.008995 0.000000
0.000000 0.000000 0.000000
-0.005725 0.003383 0.000000
0.003383 -0.023648 0.000000
0.000000 0.000000 0.000000
-0.010098 -0.008638 0.000000
-0.008638 -0.003978 0.000000
0.000000 0.000000 0.000000
-0.018270 -0.001846 0.000000
-0.001846 0.014456 0.000000
0.000000 0.000000 0.000000
0.003906 -0.001064 0.000000
-0.001064 0.020028 0.000000
0.000000 0.000000 0.000000
0.009769 0.004182 0.000000
0.004182 -0.003587 0.000000
0.000000 0.000000 0.000000
-0.005564 0.002290 0.000000
0.002290 -0.003066 0.000000
0.000000 0.000000 0.000000
-0.006880 0.002205 0.000000
0.002205 -0.007816 0.000000
0.000000 0.000000 0.000000
-0.001423 -0.002274 0.000000
-0.002274 -0.002620 0.000000
0.000000 0.000000 0.000000
0.000545 -0.010213 0.000000
-0.010213 0.005306 0.000000
0.000000 0.000000 0.000000
0.010268 0.004445 0.000000
0.004445 -0.006683 0.000000
0.000000 0.000000 0.000000
-0.012222 -0.002185 0.000000
-0.002185 -0.029512 0.000000
0.000000 0.000000 0.000000
-0.006653 0.001247 0.000000
0.001247 -0.009807 0.000000
0.000000 0.000000 0.000000
-0.001351 0.004076 0.000000
0.004076 0.004995 0.000000
0.000000 0.000000 0.000000
0.011900 0.005268 0.000000
0.005268 -0.005240 0.000000
0.000000 0.000000 0.000000
0.000907 0.002846 0.000000
0.002846 0.004639 0.000000
0.000000 0.000000 0.000000
0.004002 -0.003245 0.000000
-0.003245 0.007048 0.000000
0.000000 0.000000 0.000000
0.004234 -0.000794 0.000000
-0.000794 0.008579 0.000000
0.000000 0.000000 0.000000
0.005890 0.000289 0.000000
0.000289 0.033247 0.000000
0.000000 0.000000 0.000000
0.011002 0.002195 0.000000
0.002195 0.020695 0.000000
0.000000 0.000000 0.000000
0.010608 0.000130 0.000000
0.000130 0.030973 0.000000
0.000000 0.000000 0.000000
0.022036 -0.006902 0.000000
-0.006902 -0.023462 0.000000
0.000000 0.000000 0.000000
0.000764 0.001007 0.000000
0.001007 -0.009929 0.000000
0.000000 0.000000 0.000000
0.003276 -0.009312 0.000000
-0.009312 -0.007872 0.000000
0.000000 0.000000 0.000000
0.006540 -0.003867 0.000000
-0.003867 0.002271 0.000000
0.000000 0.000000 0.000000
0.005296 0.008676 0.000000
0.008676 0.005377 0.000000
0.000000 0.000000 0.000000
0.003918 -0.006790 0.000000
-0.006790 0.005865 0.000000
0.000000 0.000000 0.000000
-0.006477 -0.001100 0.000000
-0.001100 0.003403 0.000000
0.000000 0.000000 0.000000
0.009551 0.004152 0.000000
0.004152 -0.003283 0.000000
0.000000 0.000000 0.000000
-0.015600 0.009931 0.000000
0.009931 -0.015846 0.000000
0.000000 0.000000 0.000000
-0.005870 0.004025 0.000000
0.004025 0.008150 0.000000
0.000000 0.000000 0.000000
-0.001255 0.003009 0.000000
0.003009 -0.016363 0.000000
0.000000 0.000000 0.000000
0.004434 0.000382 0.000000
0.000382 0.000675 0.000000
0.000000 0.000000 0.000000
-0.000758 0.001559 0.000000
0.001559 -0.018897 0.000000
0.000000 0.000000 0.000000
0.008363 0.000860 0.000000
0.000860 -0.007947 0.000000
0.000000 0.000000 0.000000
-0.010814 -0.001961 0.000000
-0.001961 -0.001153 0.000000
0.000000 0.000000 0.000000
-0.004673 0.003625 0.000000
0.003625 -0.010204 0.000000
0.000000 0.000000 0.000000
-0.014155 0.005271 0.000000
0.005271 0.014773 0.000000
0.000000 0.000000 0.000000
-0.002295 0.003303 0.000000
0.003303 -0.010365 0.000000
0.000000 0.000000 0.000000
-0.004736 0.001399 0.000000
0.001399 -0.010746 0.000000
0.000000 0.000000 0.000000
-0.000381 0.000752 0.000000
0.000752 0.001682 0.000000
0.000000 0.000000 0.000000
-0.009837 0.007507 0.000000
0.007507 -0.014620 0.000000
0.000000 0.000000 0.000000
0.000212 -0.003148 0.000000
-0.003148 -0.001495 0.000000
0.000000 0.000000 0.000000
-0.002056 -0.000468 0.000000
-0.000468 0.000129 0.000000
0.000000 0.000000 0.000000
0.002223 -0.001870 0.000000
-0.001870 -0.000320 0.000000
0.000000 0.000000 0.000000
0.002477 0.007246 0.000000
0.007246 0.000341 0.000000
0.000000 0.000000 0.000000
-0.011209 -0.011514 0.000000
-0.011514 -0.012954 0.000000
0.000000 0.000000 0.000000
-0.016370 -0.004012 0.000000
-0.004012 -0.006458 0.000000
0.000000 0.000000 0.000000
0.010445 -0.005843 0.000000
-0.005843 -0.002612 0.000000
0.000000 0.000000 0.000000
0.000992 -0.000098 0.000000
-0.000098 0.001154 0.000000
0.000000 0.000000 0.000000
-0.000215 -0.002641 0.000000
-0.002641 0.002958 0.000000
0.000000 0.000000 0.000000
-0.002756 -0.007238 0.000000
-0.007238 0.021745 0.000000
0.000000 0.000000 0.000000
-0.010930 0.001470 0.000000
0.001470 -0.001214 0.000000
0.000000 0.000000 0.000000
0.008614 0.003067 0.000000
0.003067 -0.000064 0.000000
0.000000 0.000000 0.000000
-0.012137 -0.000780 0.000000
-0.000780 -0.000505 0.000000
0.000000 0.000000 0.000000
0.002256 0.000507 0.000000
0.000507 -0.000209 0.000000
0.000000 0.000000 0.000000
0.010764 -0.002588 0.000000
-0.002588 -0.016894 0.000000
0.000000 0.000000 0.000000
0.003695 0.001074 0.000000
0.001074 0.006932 0.000000
0.000000 0.000000 0.000000
0.010775 0.001846 0.000000
0.001846 0.005973 0.000000
0.000000 0.000000 0.000000
-0.000921 -0.001919 0.000000
-0.001919 0.000381 0.000000
0.000000 0.000000 0.000000
0.005152 -0.003569 0.000000
-0.003569 0.001599 0.000000
0.000000 0.000000 0.000000
0.028706 0.000832 0.000000
0.000832 0.010131 0.000000
0.000000 0.000000 0.000000
-0.004982 0.004761 0.000000
0.004761 0.009480 0.000000
0.000000 0.000000 0.000000
-0.003855 -0.006965 0.000000
-0.006965 0.008171 0.000000
0.000000 0.000000 0.000000
-0.011329 -0.000210 0.000000
-0.000210 0.032887 0.000000
0.000000 0.000000 0.000000
-0.013388 -0.013920 0.000000
-0.013920 0.011000 0.000000
0.000000 0.000000 0.000000
-0.012202 -0.005103 0.000000
-0.005103 0.008256 0.000000
0.000000 0.000000 0.000000
-0.004251 -0.001905 0.000000
-0.001905 0.003131 0.000000
0.000000 0.000000 0.000000
-0.008100 0.001682 0.000000
0.001682 -0.009374 0.000000
0.000000 0.000000 0.000000
-0.010135 0.001508 0.000000
0.001508 0.006065 0.000000
0.000000 0.000000 0.000000
-0.009345 0.000460 0.000000
0.000460 0.023136 0.000000
0.000000 0.000000 0.000000
-0.013249 -0.011228 0.000000
-0.011228 0.021863 0.000000
0.000000 0.000000 0.000000
-0.000420 0.000439 0.000000
0.000439 0.003546 0.000000
0.000000 0.000000 0.000000
-0.003711 -0.001127 0.000000
-0.001127 -0.000659 0.000000
0.000000 0.000000 0.000000
0.001964 0.006825 0.000000
0.006825 0.006294 0.000000
0.000000 0.000000 0.000000
0.006730 0.001568 0.000000
0.001568 0.018175 0.000000
0.000000 0.000000 0.000000
0.019628 0.001907 0.000000
0.001907 0.008803 0.000000
0.000000 0.000000 0.000000
0.007761 0.003382 0.000000
0.003382 0.003610 0.000000
0.000000 0.000000 0.000000
0.000572 0.006095 0.000000
0.006095 0.005306 0.000000
0.000000 0.000000 0.000000
-0.012907 0.006390 0.000000
0.006390 0.000902 0.000000
0.000000 0.000000 0.000000
-0.003563 0.015152 0.000000
0.015152 0.007447 0.000000
0.000000 0.000000 0.000000
0.016527 -0.004286 0.000000
-0.004286 0.009139 0.000000
0.000000 0.000000 0.000000
-0.007195 0.010521 0.000000
0.010521 0.000388 0.000000
0.000000 0.000000 0.000000
0.000409 0.004360 0.000000
0.004360 0.003320 0.000000
0.000000 0.000000 0.000000
-0.001754 0.013752 0.000000
0.013752 0.002051 0.000000
0.000000 0.000000 0.000000
0.004251 0.007536 0.000000
0.007536 -0.003903 0.000000
0.000000 0.000000 0.000000
0.010867 0.003980 0.000000
0.003980 0.008433 0.000000
0.000000 0.000000 0.000000
0.005374 0.005606 0.000000
0.005606 -0.009733 0.000000
0.000000 0.000000 0.000000
-0.006148 0.003093 0.000000
0.003093 0.006796 0.000000
0.000000 0.000000 0.000000
0.002106 0.000914 0.000000
0.000914 0.013855 0.000000
0.000000 0.000000 0.000000
0.020296 0.003789 0.000000
0.003789 -0.008148 0.000000
0.000000 0.000000 0.000000
0.009968 -0.001240 0.000000
-0.001240 -0.015737 0.000000
0.000000 0.000000 0.000000
0.002434 -0.005047 0.000000
-0.005047 0.012554 0.000000
0.000000 0.000000 0.000000
-0.002818 -0.001327 0.000000
-0.001327 0.003053 0.000000
0.000000 0.000000 0.000000
-0.003306 0.000613 0.000000
0.000613 0.001034 0.000000
0.000000 0.000000 0.000000
0.005078 -0.003634 0.000000
-0.003634 0.005785 0.000000
0.000000 0.000000 0.000000
-0.006956 -0.002995 0.000000
-0.002995 -0.003580 0.000000
0.000000 0.000000 0.000000
-0.030512 -0.015970 0.000000
-0.015970 -0.005793 0.000000
0.000000 0.000000 0.000000
-0.008744 -0.002782 0.000000
-0.002782 0.010324 0.000000
0.000000 0.000000 0.000000
0.002284 0.002353 0.000000
0.002353 0.018255 0.000000
0.000000 0.000000 0.000000
0.008792 0.000269 0.000000
0.000269 0.013805 0.000000
0.000000 0.000000 0.000000
0.002510 0.002791 0.000000
0.002791 0.010218 0.000000
0.000000 0.000000 0.000000
-0.014276 -0.002339 0.000000
-0.002339 -0.008314 0.000000
0.000000 0.000000 0.000000
-0.010608 -0.008241 0.000000
-0.008241 0.013855 0.000000
0.000000 0.000000 0.000000
0.007675 0.011805 0.000000
0.011805 -0.009182 0.000000
0.000000 0.000000 0.000000
0.000867 -0.001634 0.000000
-0.001634 -0.005096 0.000000
0.000000 0.000000 0.000000
0.004112 0.001496 0.000000
0.001496 -0.016035 0.000000
0.000000 0.000000 0.000000
-0.003608 0.003350 0.000000
0.003350 -0.001474 0.000000
0.000000 0.000000 0.000000
0.014762 0.007042 0.000000
0.007042 -0.006809 0.000000
0.000000 0.000000 0.000000
0.010620 0.000675 0.000000
0.000675 0.016559 0.000000
0.000000 0.000000 0.000000
-0.008828 0.002717 0.000000
0.002717 -0.002797 0.000000
0.000000 0.000000 0.000000
-0.002832 0.006751 0.000000
0.006751 0.011775 0.000000
0.000000 0.000000 0.000000
0.006423 -0.000710 0.000000
-0.000710 0.008067 0.000000
0.000000 0.000000 0.000000
-0.007040 -0.000937 0.000000
-0.000937 -0.022404 0.000000
0.000000 0.000000 0.000000
-0.007991 -0.001397 0.000000
-0.001397 -0.025198 0.000000
0.000000 0.000000 0.000000
0.010946 -0.006845 0.000000
-0.006845 0.016143 0.000000
0.000000 0.000000 0.000000
0.007427 -0.004349 0.000000
-0.004349 0.014923 0.000000
0.000000 0.000000 0.000000
0.014193 0.011127 0.000000
0.011127 -0.017397 0.000000
0.000000 0.000000 0.000000
0.015684 -0.010561 0.000000
-0.010561 0.006190 0.000000
0.000000 0.000000 0.000000
0.008855 -0.001818 0.000000
-0.001818 -0.015849 0.000000
0.000000 0.000000 0.000000
-0.007997 0.009111 0.000000
0.009111 -0.000682 0.000000
0.000000 0.000000 0.000000
0.010890 0.008745 0.000000
0.008745 0.002331 0.000000
0.000000 0.000000 0.000000
-0.004496 -0.012964 0.000000
-0.012964 0.001352 0.000000
0.000000 0.000000 0.000000
0.000696 -0.003238 0.000000
-0.003238 -0.002960 0.000000
0.000000 0.000000 0.000000
0.007822 -0.015980 0.000000
-0.015980 0.010465 0.000000
0.000000 0.000000 0.000000
-0.007183 -0.001937 0.000000
-0.001937 -0.010107 0.000000
0.000000 0.000000 0.000000
-0.019752 0.007990 0.000000
0.007990 -0.004342 0.000000
0.000000 0.000000 0.000000
0.010965 0.003781 0.000000
0.003781 0.013729 0.000000
0.000000 0.000000 0.000000
-0.001554 -0.008723 0.000000
-0.008723 -0.001661 0.000000
0.000000 0.000000 0.000000
-0.003779 -0.003886 0.000000
-0.003886 -0.011594 0.000000
0.000000 0.000000 0.000000
0.005758 0.007956 0.000000
0.007956 -0.002395 0.000000
0.000000 0.000000 0.000000
-0.018823 0.005563 0.000000
0.005563 -0.000498 0.000000
0.000000 0.000000 0.000000
0.012879 0.011017 0.000000
0.011017 0.006241 0.000000
0.000000 0.000000 0.000000
0.000517 0.004079 0.000000
0.004079 0.003565 0.000000
0.000000 0.000000 0.000000
-0.014356 -0.000244 0.000000
-0.000244 -0.014492 0.000000
0.000000 0.000000 0.000000
0.000320 -0.005950 0.000000
-0.005950 0.002444 0.000000
0.000000 0.000000 0.000000
-0.000260 -0.000730 0.000000
-0.000730 0.010813 0.000000
0.000000 0.000000 0.000000
0.002245 -0.016643 0.000000
-0.016643 -0.012648 0.000000
0.000000 0.000000 0.000000
-0.007324 -0.000860 0.000000
-0.000860 -0.003880 0.000000
0.000000 0.000000 0.000000
-0.000866 -0.002565 0.000000
-0.002565 -0.009467 0.000000
0.000000 0.000000 0.000000
-0.014648 -0.005484 0.000000
-0.005484 -0.015403 0.000000
0.000000 0.000000 0.000000
-0.006540 0.004301 0.000000
0.004301 0.002600 0.000000
0.000000 0.000000 0.000000
0.007770 0.006215 0.000000
0.006215 0.019269 0.000000
0.000000 0.000000 0.000000
0.005472 -0.005163 0.000000
-0.005163 -0.002289 0.000000
0.000000 0.000000 0.000000
-0.005444 -0.003238 0.000000
-0.003238 -0.002236 0.000000
0.000000 0.000000 0.000000
-0.006600 -0.001718 0.000000
-0.001718 0.001704 0.000000
0.000000 0.000000 0.000000
0.016449 0.001086 0.000000
0.001086 0.016674 0.000000
0.000000 0.000000 0.000000
-0.011928 -0.012647 0.000000
-0.012647 0.005204 0.000000
0.000000 0.000000 0.000000
-0.010891 0.011768 0.000000
0.011768 0.007509 0.000000
0.000000 0.000000 0.000000
-0.010398 0.006862 0.000000
0.006862 0.016283 0.000000
0.000000 0.000000 0.000000
0.005826 0.001233 0.000000
0.001233 -0.007992 0.000000
0.000000 0.000000 0.000000
0.002574 -0.011800 0.000000
-0.011800 -0.008837 0.000000
0.000000 0.000000 0.000000
-0.006237 0.013583 0.000000
0.013583 -0.009042 0.000000
0.000000 0.000000 0.000000
0.001712 0.001603 0.000000
0.001603 -0.011455 0.000000
0.000000 0.000000 0.000000
-0.005940 0.001237 0.000000
0.001237 0.017350 0.000000
0.000000 0.000000 0.000000
0.002298 -0.000457 0.000000
-0.000457 0.023791 0.000000
0.000000 0.000000 0.000000
-0.009148 0.009380 0.000000
0.009380 0.018105 0.000000
0.000000 0.000000 0.000000
-0.015467 0.015782 0.000000
0.015782 -0.008546 0.000000
0.000000 0.000000 0.000000
0.005179 0.010148 0.000000
0.010148 -0.003229 0.000000
0.000000 0.000000 0.000000
0.012828 -0.001473 0.000000
-0.001473 -0.020766 0.000000
0.000000 0.000000 0.000000
0.006287 0.002558 0.000000
0.002558 0.010888 0.000000
0.000000 0.000000 0.000000
0.007218 -0.007070 0.000000
-0.007070 0.004420 0.000000
0.000000 0.000000 0.000000
-0.003704 -0.019588 0.000000
-0.019588 0.003323 0.000000
0.000000 0.000000 0.000000
0.018175 0.003382 0.000000
0.003382 0.007492 0.000000
0.000000 0.000000 0.000000
-0.016630 -0.010875 0.000000
-0.010875 -0.001590 0.000000
0.000000 0.000000 0.000000
0.029565 -0.011529 0.000000
-0.011529 0.003012 0.000000
0.000000 0.000000 0.000000
0.005324 -0.003038 0.000000
-0.003038 0.021106 0.000000
0.000000 0.000000 0.000000
0.003425 0.004871 0.000000
0.004871 -0.030982 0.000000
0.000000 0.000000 0.000000
0.002542 0.002407 0.000000
0.002407 -0.008441 0.000000
0.000000 0.000000 0.000000
-0.005513 -0.001954 0.000000
-0.001954 0.014231 0.000000
0.000000 0.000000 0.000000
0.001759 -0.022278 0.000000
-0.022278 0.007204 0.000000
0.000000 0.000000 0.000000
0.004552 0.006362 0.000000
0.006362 0.002068 0.000000
0.000000 0.000000 0.000000
-0.012395 -0.004558 0.000000
-0.004558 0.010282 0.000000
0.000000 0.000000 0.000000
0.008367 -0.004819 0.000000
-0.004819 0.000042 0.000000
0.000000 0.000000 0.000000
-0.002914 0.007289 0.000000
0.007289 -0.007535 0.000000
0.000000 0.000000 0.000000
-0.009240 0.001614 0.000000
0.001614 0.000790 0.000000
0.000000 0.000000 0.000000
0.002511 0.002200 0.000000
0.002200 0.011443 0.000000
0.000000 0.000000 0.000000
-0.003598 -0.000523 0.000000
-0.000523 -0.007751 0.000000
0.000000 0.000000 0.000000
0.003035 0.002532 0.000000
0.002532 0.010861 0.000000
0.000000 0.000000 0.000000
0.003972 0.005836 0.000000
0.005836 -0.002942 0.000000
0.000000 0.000000 0.000000
0.014211 -0.005938 0.000000
-0.005938 -0.008588 0.000000
0.000000 0.000000 0.000000
0.005343 0.000727 0.000000
0.000727 0.010376 0.000000
0.000000 0.000000 0.000000
-0.010088 -0.000271 0.000000
-0.000271 -0.005240 0.000000
0.000000 0.000000 0.000000
-0.002357 -0.003653 0.000000
-0.003653 0.009248 0.000000
0.000000 0.000000 0.000000
0.000732 0.001638 0.000000
0.001638 0.007721 0.000000
0.000000 0.000000 0.000000
0.005510 0.000092 0.000000
0.000092 0.003929 0.000000
0.000000 0.000000 0.000000
-0.007168 -0.004426 0.000000
-0.004426 0.008425 0.000000
0.000000 0.000000 0.000000
0.010548 0.003474 0.000000
0.003474 -0.005277 0.000000
0.000000 0.000000 0.000000
-0.016981 -0.003463 0.000000
-0.003463 -0.004828 0.000000
0.000000 0.000000 0.000000
-0.004477 -0.002643 0.000000
-0.002643 0.009550 0.000000
0.000000 0.000000 0.000000
0.009465 0.001008 0.000000
0.001008 0.006092 0.000000
0.000000 0.000000 0.000000
-0.000036 0.001851 0.000000
0.001851 -0.019066 0.000000
0.000000 0.000000 0.000000
-0.003104 -0.004188 0.000000
-0.004188 -0.018748 0.000000
0.000000 0.000000 0.000000
-0.000520 0.008850 0.000000
0.008850 -0.016304 0.000000
0.000000 0.000000 0.000000
-0.001330 0.002824 0.000000
0.002824 0.009632 0.000000
0.000000 0.000000 0.000000
0.002841 0.012363 0.000000
0.012363 0.014834 0.000000
0.000000 0.000000 0.000000
0.012755 0.002664 0.000000
0.002664 -0.003919 0.000000
0.000000 0.000000 0.000000
-0.006228 -0.004468 0.000000
-0.004468 0.002143 0.000000
0.000000 0.000000 0.000000
0.016399 -0.010080 0.000000
-0.010080 0.038119 0.000000
0.000000 0.000000 0.000000
-0.004768 -0.003784 0.000000
-0.003784 -0.005721 0.000000
0.000000 0.000000 0.000000
-0.001007 0.000233 0.000000
0.000233 0.000155 0.000000
0.000000 0.000000 0.000000
-0.001554 0.000448 0.000000
0.000448 0.002652 0.000000
0.000000 0.000000 0.000000
0.013025 -0.009069 0.000000
-0.009069 0.037078 0.000000
0.000000 0.000000 0.000000
0.015339 -0.011105 0.000000
-0.011105 0.045751 0.000000
0.000000 0.000000 0.000000
0.011751 0.004328 0.000000
0.004328 -0.000231 0.000000
0.000000 0.000000 0.000000
-0.010806 -0.013124 0.000000
-0.013124 -0.012345 0.000000
0.000000 0.000000 0.000000
-0.003956 0.001195 0.000000
0.001195 0.005201 0.000000
0.000000 0.000000 0.000000
0.020746 0.007033 0.000000
0.007033 0.001756 0.000000
0.000000 0.000000 0.000000
0.027737 0.002481 0.000000
0.002481 0.016452 0.000000
0.000000 0.000000 0.000000
0.010415 0.003776 0.000000
0.003776 0.008633 0.000000
0.000000 0.000000 0.000000
0.008183 0.003636 0.000000
0.003636 0.007582 0.000000
0.000000 0.000000 0.000000
0.014131 0.006067 0.000000
0.006067 0.003693 0.000000
0.000000 0.000000 0.000000
0.022275 -0.006209 0.000000
-0.006209 0.003907 0.000000
0.000000 0.000000 0.000000
0.006974 0.012323 0.000000
0.012323 -0.024075 0.000000
0.000000 0.000000 0.000000
0.008152 0.001622 0.000000
0.001622 0.011697 0.000000
0.000000 0.000000 0.000000
0.003360 0.003118 0.000000
0.003118 0.000373 0.000000
0.000000 0.000000 0.000000
0.004771 0.006960 0.000000
0.006960 0.011273 0.000000
0.000000 0.000000 0.000000
-0.000742 -0.002602 0.000000
-0.002602 -0.004831 0.000000
0.000000 0.000000 0.000000
-0.008502 -0.001931 0.000000
-0.001931 -0.001086 0.000000
0.000000 0.000000 0.000000
-0.009641 0.005599 0.000000
0.005599 0.010211 0.000000
0.000000 0.000000 0.000000
0.000197 -0.002821 0.000000
-0.002821 0.015638 0.000000
0.000000 0.000000 0.000000
-0.009053 -0.006866 0.000000
-0.006866 -0.013733 0.000000
0.000000 0.000000 0.000000
-0.009715 0.004134 0.000000
0.004134 -0.009497 0.000000
0.000000 0.000000 0.000000
-0.001025 -0.003339 0.000000
-0.003339 0.003594 0.000000
0.000000 0.000000 0.000000
-0.002028 -0.006303 0.000000
-0.006303 0.014438 0.000000
0.000000 0.000000 0.000000
-0.011771 0.003879 0.000000
0.003879 0.003476 0.000000
0.000000 0.000000 0.000000
-0.014288 0.004611 0.000000
0.004611 0.016137 0.000000
0.000000 0.000000 0.000000
0.003571 -0.003262 0.000000
-0.003262 -0.000131 0.000000
0.000000 0.000000 0.000000
0.000319 -0.005028 0.000000
-0.005028 -0.001281 0.000000
0.000000 0.000000 0.000000
0.002112 -0.005047 0.000000
-0.005047 0.005082 0.000000
0.000000 0.000000 0.000000
0.004388 0.004680 0.000000
0.004680 0.000454 0.000000
0.000000 0.000000 0.000000
-0.011199 0.004634 0.000000
0.004634 0.000815 0.000000
0.000000 0.000000 0.000000
-0.006450 -0.006852 0.000000
-0.006852 -0.002732 0.000000
0.000000 0.000000 0.000000
-0.016044 0.003750 0.000000
0.003750 0.002403 0.000000
0.000000 0.000000 0.000000
-0.004211 -0.005544 0.000000
-0.005544 -0.015113 0.000000
0.000000 0.000000 0.000000
-0.003427 0.003573 0.000000
0.003573 -0.010562 0.000000
0.000000 0.000000 0.000000
-0.004382 -0.000829 0.000000
-0.000829 0.002977 0.000000
0.000000 0.000000 0.000000
-0.001691 0.002536 0.000000
0.002536 -0.012002 0.000000
0.000000 0.000000 0.000000
0.002887 -0.007551 0.000000
-0.007551 -0.016380 0.000000
0.000000 0.000000 0.000000
-0.000462 -0.024014 0.000000
-0.024014 -0.001436 0.000000
0.000000 0.000000 0.000000
0.005538 0.000555 0.000000
0.000555 0.003591 0.000000
0.000000 0.000000 0.000000
0.003348 0.002776 0.000000
0.002776 0.009681 0.000000
0.000000 0.000000 0.000000
-0.003729 -0.007470 0.000000
-0.007470 -0.000801 0.000000
0.000000 0.000000 0.000000
-0.006227 -0.005659 0.000000
-0.005659 0.001076 0.000000
0.000000 0.000000 0.000000
0.020890 0.002420 0.000000
0.002420 0.000476 0.000000
0.000000 0.000000 0.000000
0.008941 -0.005810 0.000000
-0.005810 0.002647 0.000000
0.000000 0.000000 0.000000
0.003175 0.001855 0.000000
0.001855 -0.000600 0.000000
0.000000 0.000000 0.000000
-0.002995 0.005239 0.000000
0.005239 -0.010512 0.000000
0.000000 0.000000 0.000000
0.010903 0.000489 0.000000
0.000489 0.001600 0.000000
0.000000 0.000000 0.000000
0.000380 -0.004671 0.000000
-0.004671 0.012183 0.000000
0.000000 0.000000 0.000000
0.004744 0.002727 0.000000
0.002727 0.004586 0.000000
0.000000 0.000000 0.000000
-0.001635 0.000535 0.000000
0.000535 0.001306 0.000000
0.000000 0.000000 0.000000
-0.002783 -0.010045 0.000000
-0.010045 0.022595 0.000000
0.000000 0.000000 0.000000
0.003283 -0.009259 0.000000
-0.009259 0.004900 0.000000
0.000000 0.000000 0.000000
-0.000636 0.008171 0.000000
0.008171 0.003506 0.000000
0.000000 0.000000 0.000000
0.015031 0.003913 0.000000
0.003913 -0.003967 0.000000
0.000000 0.000000 0.000000
0.012512 -0.001584 0.000000
-0.001584 -0.014666 0.000000
0.000000 0.000000 0.000000
-0.014785 0.001534 0.000000
0.001534 0.021156 0.000000
0.000000 0.000000 0.000000
0.006070 -0.001172 0.000000
-0.001172 0.000955 0.000000
0.000000 0.000000 0.000000
0.014869 0.001450 0.000000
0.001450 -0.008046 0.000000
0.000000 0.000000 0.000000
-0.009444 0.000065 0.000000
0.000065 0.001588 0.000000
0.000000 0.000000 0.000000
0.001179 -0.005857 0.000000
-0.005857 -0.006035 0.000000
0.000000 0.000000 0.000000
-0.007259 0.001217 0.000000
0.001217 0.007934 0.000000
0.000000 0.000000 0.000000
0.010437 -0.010681 0.000000
-0.010681 -0.005868 0.000000
0.000000 0.000000 0.000000
-0.003740 -0.001599 0.000000
-0.001599 -0.005413 0.000000
0.000000 0.000000 0.000000
-0.003947 -0.001206 0.000000
-0.001206 -0.007453 0.000000
0.000000 0.000000 0.000000
0.004760 0.003200 0.000000
0.003200 -0.006209 0.000000
0.000000 0.000000 0.000000
0.006270 -0.003280 0.000000
-0.003280 0.001454 0.000000
0.000000 0.000000 0.000000
0.004011 0.003663 0.000000
0.003663 0.002206 0.000000
0.000000 0.000000 0.000000
-0.001608 -0.003276 0.000000
-0.003276 -0.018840 0.000000
0.000000 0.000000 0.000000
0.010926 0.008751 0.000000
0.008751 -0.002724 0.000000
0.000000 0.000000 0.000000
-0.017706 0.002350 0.000000
0.002350 0.000855 0.000000
0.000000 0.000000 0.000000
-0.023804 0.006617 0.000000
0.006617 -0.010389 0.000000
0.000000 0.000000 0.000000
0.000595 -0.015426 0.000000
-0.015426 -0.000590 0.000000
0.000000 0.000000 0.000000
0.011926 0.007869 0.000000
0.007869 0.012756 0.000000
0.000000 0.000000 0.000000
0.007176 0.009680 0.000000
0.009680 -0.017439 0.000000
0.000000 0.000000 0.000000
-0.005636 -0.004167 0.000000
-0.004167 0.001893 0.000000
0.000000 0.000000 0.000000
0.005094 -0.001002 0.000000
-0.001002 0.005477 0.000000
0.000000 0.000000 0.000000
0.005993 0.001932 0.000000
0.001932 0.003263 0.000000
0.000000 0.000000 0.000000
0.010828 -0.003291 0.000000
-0.003291 -0.024860 0.000000
0.000000 0.000000 0.000000
0.003530 0.009647 0.000000
0.009647 0.006383 0.000000
0.000000 0.000000 0.000000
0.005669 0.000168 0.000000
0.000168 -0.007512 0.000000
0.000000 0.000000 0.000000
0.008777 0.003584 0.000000
0.003584 0.005265 0.000000
0.000000 0.000000 0.000000
0.011559 0.003359 0.000000
0.003359 0.007279 0.000000
0.000000 0.000000 0.000000
-0.004805 0.002112 0.000000
0.002112 -0.011339 0.000000
0.000000 0.000000 0.000000
0.002703 0.004545 0.000000
0.004545 -0.006994 0.000000
0.000000 0.000000 0.000000
-0.022596 0.006682 0.000000
0.006682 -0.007912 0.000000
0.000000 0.000000 0.000000
-0.001594 -0.000118 0.000000
-0.000118 -0.003371 0.000000
0.000000 0.000000 0.000000
-0.000703 0.006928 0.000000
0.006928 -0.004774 0.000000
0.000000 0.000000 0.000000
-0.000298 -0.000587 0.000000
-0.000587 0.000253 0.000000
0.000000 0.000000 0.000000
-0.005954 -0.004904 0.000000
-0.004904 0.011632 0.000000
0.000000 0.000000 0.000000
0.000178 -0.007893 0.000000
-0.007893 -0.011184 0.000000
0.000000 0.000000 0.000000
0.002167 0.003862 0.000000
0.003862 0.011005 0.000000
0.000000 0.000000 0.000000
0.009007 -0.003564 0.000000
-0.003564 0.018105 0.000000
0.000000 0.000000 0.000000
0.007551 -0.011577 0.000000
-0.011577 -0.010996 0.000000
0.000000 0.000000 0.000000
-0.003014 -0.004873 0.000000
-0.004873 0.005393 0.000000
0.000000 0.000000 0.000000
0.002273 0.001225 0.000000
0.001225 0.001236 0.000000
0.000000 0.000000 0.000000
-0.006512 0.004551 0.000000
0.004551 0.004622 0.000000
0.000000 0.000000 0.000000
-0.007096 -0.002337 0.000000
-0.002337 -0.011594 0.000000
0.000000 0.000000 0.000000
-0.011825 -0.000648 0.000000
-0.000648 -0.026233 0.000000
0.000000 0.000000 0.000000
-0.012922 0.001916 0.000000
0.001916 -0.015445 0.000000
0.000000 0.000000 0.000000
0.033776 -0.001141 0.000000
-0.001141 0.000595 0.000000
0.000000 0.000000 0.000000
-0.008840 0.004057 0.000000
0.004057 -0.003872 0.000000
0.000000 0.000000 0.000000
-0.011933 -0.000406 0.000000
-0.000406 0.001358 0.000000
0.000000 0.000000 0.000000
0.009661 0.004805 0.000000
0.004805 -0.004265 0.000000
0.000000 0.000000 0.000000
-0.000879 -0.001859 0.000000
-0.001859 -0.009448 0.000000
0.000000 0.000000 0.000000
0.008525 -0.002276 0.000000
-0.002276 0.018751 0.000000
0.000000 0.000000 0.000000
-0.000846 0.006274 0.000000
0.006274 -0.000708 0.000000
0.000000 0.000000 0.000000
-0.000074 0.004712 0.000000
0.004712 0.009941 0.000000
0.000000 0.000000 0.000000
-0.029267 0.004884 0.000000
0.004884 -0.005995 0.000000
0.000000 0.000000 0.000000
0.004284 -0.004579 0.000000
-0.004579 -0.009882 0.000000
0.000000 0.000000 0.000000
-0.001761 0.004983 0.000000
0.004983 0.004086 0.000000
0.000000 0.000000 0.000000
0.007055 0.002364 0.000000
0.002364 0.002823 0.000000
0.000000 0.000000 0.000000
0.008872 -0.002283 0.000000
-0.002283 0.008697 0.000000
0.000000 0.000000 0.000000
0.005157 0.002303 0.000000
0.002303 0.004141 0.000000
0.000000 0.000000 0.000000
-0.016836 -0.003324 0.000000
-0.003324 -0.018272 0.000000
0.000000 0.000000 0.000000
0.003871 0.002765 0.000000
0.002765 -0.005397 0.000000
0.000000 0.000000 0.000000
0.012016 0.002424 0.000000
0.002424 0.005492 0.000000
0.000000 0.000000 0.000000
0.002752 -0.000090 0.000000
-0.000090 0.024475 0.000000
0.000000 0.000000 0.000000
-0.002871 0.001076 0.000000
0.001076 -0.008948 0.000000
0.000000 0.000000 0.000000
-0.009834 0.001871 0.000000
0.001871 -0.022500 0.000000
0.000000 0.000000 0.000000
-0.008350 -0.002667 0.000000
-0.002667 -0.024234 0.000000
0.000000 0.000000 0.000000
0.003141 -0.000733 0.000000
-0.000733 -0.004178 0.000000
0.000000 0.000000 0.000000
-0.008377 -0.002782 0.000000
-0.002782 -0.026698 0.000000
0.000000 0.000000 0.000000
0.005431 -0.000368 0.000000
-0.000368 -0.000486 0.000000
0.000000 0.000000 0.000000
0.011833 0.001501 0.000000
0.001501 0.005322 0.000000
0.000000 0.000000 0.000000
0.006835 -0.002661 0.000000
-0.002661 -0.007765 0.000000
0.000000 0.000000 0.000000
0.002145 -0.006510 0.000000
-0.006510 -0.002465 0.000000
0.000000 0.000000 0.000000
0.007496 -0.001078 0.000000
-0.001078 -0.004210 0.000000
0.000000 0.000000 0.000000
-0.003014 -0.000111 0.000000
-0.000111 -0.002982 0.000000
0.000000 0.000000 0.000000
0.017833 0.008223 0.000000
0.008223 0.009991 0.000000
0.000000 0.000000 0.000000
0.013981 0.000635 0.000000
0.000635 -0.014997 0.000000
0.000000 0.000000 0.000000
0.010490 -0.007013 0.000000
-0.007013 0.003254 0.000000
0.000000 0.000000 0.000000
-0.019388 -0.003720 0.000000
-0.003720 -0.011659 0.000000
0.000000 0.000000 0.000000
-0.008462 -0.001049 0.000000
-0.001049 -0.006178 0.000000
0.000000 0.000000 0.000000
0.004169 0.008142 0.000000
0.008142 -0.004003 0.000000
0.000000 0.000000 0.000000
-0.002692 -0.002880 0.000000
-0.002880 0.007717 0.000000
0.000000 0.000000 0.000000
-0.005549 -0.003811 0.000000
-0.003811 -0.001172 0.000000
0.000000 0.000000 0.000000
0.008355 0.002869 0.000000
0.002869 0.002057 0.000000
0.000000 0.000000 0.000000
-0.010653 -0.002415 0.000000
-0.002415 -0.008655 0.000000
0.000000 0.000000 0.000000
0.001042 0.001223 0.000000
0.001223 0.007970 0.000000
0.000000 0.000000 0.000000
-0.015002 0.008296 0.000000
0.008296 -0.007062 0.000000
0.000000 0.000000 0.000000
0.002027 0.000493 0.000000
0.000493 -0.003199 0.000000
0.000000 0.000000 0.000000
0.020068 0.005518 0.000000
0.005518 -0.006110 0.000000
0.000000 0.000000 0.000000
-0.005462 -0.021922 0.000000
-0.021922 -0.006320 0.000000
0.000000 0.000000 0.000000
0.005733 -0.008154 0.000000
-0.008154 0.023253 0.000000
0.000000 0.000000 0.000000
-0.000128 0.000843 0.000000
0.000843 0.009580 0.000000
0.000000 0.000000 0.000000
0.003479 0.002662 0.000000
0.002662 0.003648 0.000000
0.000000 0.000000 0.000000
0.002051 -0.001500 0.000000
-0.001500 0.007343 0.000000
0.000000 0.000000 0.000000
-0.009204 -0.005899 0.000000
-0.005899 -0.001118 0.000000
0.000000 0.000000 0.000000
0.003072 0.006358 0.000000
0.006358 -0.009882 0.000000
0.000000 0.000000 0.000000
0.003459 0.004640 0.000000
0.004640 0.007660 0.000000
0.000000 0.000000 0.000000
0.003442 -0.003921 0.000000
-0.003921 0.002803 0.000000
0.000000 0.000000 0.000000
-0.012152 -0.008551 0.000000
-0.008551 -0.030227 0.000000
0.000000 0.000000 0.000000
0.012490 0.009981 0.000000
0.009981 -0.002888 0.000000
0.000000 0.000000 0.000000
0.003703 -0.010397 0.000000
-0.010397 0.011602 0.000000
0.000000 0.000000 0.000000
0.020383 0.005688 0.000000
0.005688 -0.005230 0.000000
0.000000 0.000000 0.000000
0.004030 -0.010201 0.000000
-0.010201 0.012530 0.000000
0.000000 0.000000 0.000000
-0.005476 -0.001916 0.000000
-0.001916 -0.002229 0.000000
0.000000 0.000000 0.000000
-0.022472 -0.003088 0.000000
-0.003088 -0.012850 0.000000
0.000000 0.000000 0.000000
0.011258 0.002300 0.000000
0.002300 0.000060 0.000000
0.000000 0.000000 0.000000
0.015740 0.005956 0.000000
0.005956 0.012666 0.000000
0.000000 0.000000 0.000000
-0.006589 -0.000699 0.000000
-0.000699 -0.013758 0.000000
0.000000 0.000000 0.000000
-0.035664 0.005870 0.000000
0.005870 -0.021470 0.000000
0.000000 0.000000 0.000000
-0.004831 -0.006554 0.000000
-0.006554 0.002476 0.000000
0.000000 0.000000 0.000000
-0.010262 -0.000736 0.000000
-0.000736 0.002310 0.000000
0.000000 0.000000 0.000000
0.013259 0.000904 0.000000
0.000904 0.013949 0.000000
0.000000 0.000000 0.000000
0.006142 0.001751 0.000000
0.001751 -0.005851 0.000000
0.000000 0.000000 0.000000
-0.000825 0.000315 0.000000
0.000315 -0.003080 0.000000
0.000000 0.000000 0.000000
-0.004313 0.004013 0.000000
0.004013 -0.009859 0.000000
0.000000 0.000000 0.000000
0.006113 0.011248 0.000000
0.011248 0.006602 0.000000
0.000000 0.000000 0.000000
-0.020952 -0.003937 0.000000
-0.003937 -0.002708 0.000000
0.000000 0.000000 0.000000
0.005057 -0.005996 0.000000
-0.005996 0.007716 0.000000
0.000000 0.000000 0.000000
0.004951 -0.001814 0.000000
-0.001814 -0.006926 0.000000
0.000000 0.000000 0.000000
-0.021923 -0.007847 0.000000
-0.007847 0.008069 0.000000
0.000000 0.000000 0.000000
-0.011193 0.000935 0.000000
0.000935 -0.005347 0.000000
0.000000 0.000000 0.000000
0.002398 0.001971 0.000000
0.001971 0.003719 0.000000
0.000000 0.000000 0.000000
0.020122 0.004910 0.000000
0.004910 -0.000468 0.000000
0.000000 0.000000 0.000000
0.003175 -0.011706 0.000000
-0.011706 -0.016575 0.000000
0.000000 0.000000 0.000000
-0.002634 0.003560 0.000000
0.003560 -0.007401 0.000000
0.000000 0.000000 0.000000
0.017544 -0.010000 0.000000
-0.010000 0.014737 0.000000
0.000000 0.000000 0.000000
-0.004904 -0.013820 0.000000
-0.013820 -0.011751 0.000000
0.000000 0.000000 0.000000
-0.005112 0.001102 0.000000
0.001102 -0.004258 0.000000
0.000000 0.000000 0.000000
0.010538 -0.008499 0.000000
-0.008499 0.005534 0.000000
0.000000 0.000000 0.000000
-0.007943 0.007048 0.000000
0.007048 -0.004737 0.000000
0.000000 0.000000 0.000000
0.026708 -0.018402 0.000000
-0.018402 0.047748 0.000000
0.000000 0.000000 0.000000
0.001622 0.002978 0.000000
0.002978 0.015248 0.000000
0.000000 0.000000 0.000000
0.007160 -0.000722 0.000000
-0.000722 0.018326 0.000000
0.000000 0.000000 0.000000
0.033709 -0.020204 0.000000
-0.020204 0.046426 0.000000
0.000000 0.000000 0.000000
0.014926 0.003178 0.000000
0.003178 0.015653 0.000000
0.000000 0.000000 0.000000
-0.007830 0.007403 0.000000
0.007403 0.005457 0.000000
0.000000 0.000000 0.000000
-0.023238 0.014634 0.000000
0.014634 -0.022591 0.000000
0.000000 0.000000 0.000000
-0.007372 0.010888 0.000000
0.010888 -0.007639 0.000000
0.000000 0.000000 0.000000
-0.001000 -0.002540 0.000000
-0.002540 -0.007367 0.000000
0.000000 0.000000 0.000000
-0.016144 0.006735 0.000000
0.006735 -0.022157 0.000000
0.000000 0.000000 0.000000
0.021128 0.015282 0.000000
0.015282 0.012342 0.000000
0.000000 0.000000 0.000000
0.010278 0.000637 0.000000
0.000637 0.006770 0.000000
0.000000 0.000000 0.000000
0.011391 0.005720 0.000000
0.005720 0.017538 0.000000
0.000000 0.000000 0.000000
0.000833 0.000210 0.000000
0.000210 0.008383 0.000000
0.000000 0.000000 0.000000
0.010622 0.002841 0.000000
0.002841 0.004653 0.000000
0.000000 0.000000 0.000000
-0.012048 -0.005570 0.000000
-0.005570 0.004601 0.000000
0.000000 0.000000 0.000000
-0.006057 0.002656 0.000000
0.002656 0.005174 0.000000
0.000000 0.000000 0.000000
-0.001182 0.002350 0.000000
0.002350 0.002997 0.000000
0.000000 0.000000 0.000000
-0.015582 -0.002995 0.000000
-0.002995 -0.004358 0.000000
0.000000 0.000000 0.000000
0.009150 0.000297 0.000000
0.000297 0.010754 0.000000
0.000000 0.000000 0.000000
-0.006076 -0.003430 0.000000
-0.003430 0.011841 0.000000
0.000000 0.000000 0.000000
-0.001976 -0.001210 0.000000
-0.001210 0.014957 0.000000
0.000000 0.000000 0.000000
0.008546 -0.015366 0.000000
-0.015366 0.011054 0.000000
0.000000 0.000000 0.000000
-0.003532 -0.000189 0.000000
-0.000189 -0.006705 0.000000
0.000000 0.000000 0.000000
0.002374 -0.001586 0.000000
-0.001586 0.013411 0.000000
0.000000 0.000000 0.000000
-0.000290 0.001195 0.000000
0.001195 0.004453 0.000000
0.000000 0.000000 0.000000
0.009080 0.006159 0.000000
0.006159 0.007038 0.000000
0.000000 0.000000 0.000000
0.011558 -0.004366 0.000000
-0.004366 0.016561 0.000000
0.000000 0.000000 0.000000
-0.000890 -0.002529 0.000000
-0.002529 -0.003255 0.000000
0.000000 0.000000 0.000000
-0.004116 0.000057 0.000000
0.000057 0.001775 0.000000
0.000000 0.000000 0.000000
0.004264 0.000523 0.000000
0.000523 -0.012107 0.000000
0.000000 0.000000 0.000000
-0.001056 -0.002595 0.000000
-0.002595 0.006734 0.000000
0.000000 0.000000 0.000000
-0.017622 -0.006820 0.000000
-0.006820 -0.019951 0.000000
0.000000 0.000000 0.000000
-0.003343 -0.003204 0.000000
-0.003204 -0.010264 0.000000
0.000000 0.000000 0.000000
-0.004586 -0.002373 0.000000
-0.002373 0.008313 0.000000
0.000000 0.000000 0.000000
0.002283 -0.006270 0.000000
-0.006270 -0.000354 0.000000
0.000000 0.000000 0.000000
-0.006430 0.000698 0.000000
0.000698 0.013717 0.000000
0.000000 0.000000 0.000000
-0.022206 -0.005796 0.000000
-0.005796 -0.004712 0.000000
0.000000 0.000000 0.000000
-0.005580 -0.002581 0.000000
-0.002581 -0.008321 0.000000
0.000000 0.000000 0.000000
-0.008012 0.002265 0.000000
0.002265 -0.006523 0.000000
0.000000 0.000000 0.000000
0.001325 0.001661 0.000000
0.001661 0.008610 0.000000
0.000000 0.000000 0.000000
0.002970 0.008148 0.000000
0.008148 0.003920 0.000000
0.000000 0.000000 0.000000
0.008445 -0.001858 0.000000
-0.001858 0.010948 0.000000
0.000000 0.000000 0.000000
-0.007835 0.011330 0.000000
0.011330 -0.006779 0.000000
0.000000 0.000000 0.000000
-0.009228 0.009433 0.000000
0.009433 -0.014168 0.000000
0.000000 0.000000 0.000000
0.008455 0.006015 0.000000
0.006015 0.003824 0.000000
0.000000 0.000000 0.000000
-0.005787 0.009550 0.000000
0.009550 -0.007143 0.000000
0.000000 0.000000 0.000000
0.004455 0.001589 0.000000
0.001589 0.006085 0.000000
0.000000 0.000000 0.000000
0.031033 0.010356 0.000000
0.010356 0.012553 0.000000
0.000000 0.000000 0.000000
-0.003606 -0.002166 0.000000
-0.002166 -0.004912 0.000000
0.000000 0.000000 0.000000
0.017794 0.009696 0.000000
0.009696 0.022400 0.000000
0.000000 0.000000 0.000000
-0.002108 -0.002918 0.000000
-0.002918 -0.003234 0.000000
0.000000 0.000000 0.000000
-0.005688 0.016717 0.000000
0.016717 0.002751 0.000000
0.000000 0.000000 0.000000
-0.001343 -0.000881 0.000000
-0.000881 0.012364 0.000000
0.000000 0.000000 0.000000
-0.002061 -0.005724 0.000000
-0.005724 -0.014596 0.000000
0.000000 0.000000 0.000000
-0.013343 -0.022048 0.000000
-0.022048 -0.003556 0.000000
0.000000 0.000000 0.000000
0.011802 0.017466 0.000000
0.017466 0.012796 0.000000
0.000000 0.000000 0.000000
0.000352 -0.017637 0.000000
-0.017637 -0.009734 0.000000
0.000000 0.000000 0.000000
-0.004806 0.020533 0.000000
0.020533 0.013162 0.000000
0.000000 0.000000 0.000000
-0.015455 -0.008548 0.000000
-0.008548 0.003758 0.000000
0.000000 0.000000 0.000000
-0.015314 -0.006518 0.000000
-0.006518 0.008218 0.000000
0.000000 0.000000 0.000000
0.008227 0.001888 0.000000
0.001888 0.000644 0.000000
0.000000 0.000000 0.000000
0.022660 -0.018503 0.000000
-0.018503 -0.006619 0.000000
0.000000 0.000000 0.000000
0.006821 0.000679 0.000000
0.000679 -0.002738 0.000000
0.000000 0.000000 0.000000
-0.001299 0.019039 0.000000
0.019039 0.025112 0.000000
0.000000 0.000000 0.000000
0.013451 0.002783 0.000000
0.002783 -0.002732 0.000000
0.000000 0.000000 0.000000
-0.035741 0.007435 0.000000
0.007435 0.028377 0.000000
0.000000 0.000000 0.000000
-0.002949 -0.001662 0.000000
-0.001662 -0.002242 0.000000
0.000000 0.000000 0.000000
-0.005385 0.003145 0.000000
0.003145 -0.010299 0.000000
0.000000 0.000000 0.000000
-0.004921 -0.007374 0.000000
-0.007374 0.005009 0.000000
0.000000 0.000000 0.000000
-0.041301 0.007926 0.000000
0.007926 0.005952 0.000000
0.000000 0.000000 0.000000
-0.006720 -0.011764 0.000000
-0.011764 -0.011199 0.000000
0.000000 0.000000 0.000000
-0.009433 -0.014086 0.000000
-0.014086 -0.012376 0.000000
0.000000 0.000000 0.000000
-0.009898 -0.010646 0.000000
-0.010646 0.022426 0.000000
0.000000 0.000000 0.000000
-0.010160 -0.004492 0.000000
-0.004492 0.006575 0.000000
0.000000 0.000000 0.000000
-0.002873 0.001211 0.000000
0.001211 -0.002573 0.000000
0.000000 0.000000 0.000000
-0.009625 -0.013228 0.000000
-0.013228 -0.019158 0.000000
0.000000 0.000000 0.000000
0.008483 0.007928 0.000000
0.007928 0.007497 0.000000
0.000000 0.000000 0.000000
-0.008676 -0.005856 0.000000
-0.005856 -0.013123 0.000000
0.000000 0.000000 0.000000
-0.007834 -0.003015 0.000000
-0.003015 -0.018221 0.000000
0.000000 0.000000 0.000000
-0.000199 0.000469 0.000000
0.000469 0.000611 0.000000
0.000000 0.000000 0.000000
-0.000991 0.001094 0.000000
0.001094 -0.015517 0.000000
0.000000 0.000000 0.000000
0.007185 -0.006758 0.000000
-0.006758 -0.006176 0.000000
0.000000 0.000000 0.000000
0.004420 -0.002130 0.000000
-0.002130 0.005682 0.000000
0.000000 0.000000 0.000000
-0.003249 0.004503 0.000000
0.004503 0.015251 0.000000
0.000000 0.000000 0.000000
-0.000349 0.001572 0.000000
0.001572 -0.003530 0.000000
0.000000 0.000000 0.000000
0.002968 0.004522 0.000000
0.004522 0.000585 0.000000
0.000000 0.000000 0.000000
0.009090 -0.003106 0.000000
-0.003106 -0.008932 0.000000
0.000000 0.000000 0.000000
-0.010952 -0.005027 0.000000
-0.005027 -0.003556 0.000000
0.000000 0.000000 0.000000
-0.033121 -0.011792 0.000000
-0.011792 0.001613 0.000000
0.000000 0.000000 0.000000
0.011810 -0.007510 0.000000
-0.007510 -0.000423 0.000000
0.000000 0.000000 0.000000
-0.002837 -0.001541 0.000000
-0.001541 0.001872 0.000000
0.000000 0.000000 0.000000
-0.004866 -0.000412 0.000000
-0.000412 -0.008285 0.000000
0.000000 0.000000 0.000000
0.000384 -0.009744 0.000000
-0.009744 0.010754 0.000000
0.000000 0.000000 0.000000
-0.013432 -0.006788 0.000000
-0.006788 -0.017188 0.000000
0.000000 0.000000 0.000000
-0.006958 -0.003829 0.000000
-0.003829 0.013341 0.000000
0.000000 0.000000 0.000000
0.009904 0.004890 0.000000
0.004890 -0.019931 0.000000
0.000000 0.000000 0.000000
0.010081 -0.008368 0.000000
-0.008368 0.010777 0.000000
0.000000 0.000000 0.000000
-0.010131 -0.002864 0.000000
-0.002864 0.004224 0.000000
0.000000 0.000000 0.000000
-0.014155 0.008292 0.000000
0.008292 0.006787 0.000000
0.000000 0.000000 0.000000
-0.003521 -0.014748 0.000000
-0.014748 0.001937 0.000000
0.000000 0.000000 0.000000
-0.001305 0.007676 0.000000
0.007676 -0.005915 0.000000
0.000000 0.000000 0.000000
-0.010500 0.003663 0.000000
0.003663 0.008154 0.000000
0.000000 0.000000 0.000000
-0.008874 0.008338 0.000000
0.008338 0.006239 0.000000
0.000000 0.000000 0.000000
0.015572 0.013527 0.000000
0.013527 0.002856 0.000000
0.000000 0.000000 0.000000
-0.035453 -0.004442 0.000000
-0.004442 -0.017847 0.000000
0.000000 0.000000 0.000000
-0.018809 0.000903 0.000000
0.000903 0.012215 0.000000
0.000000 0.000000 0.000000
0.009493 0.001959 0.000000
0.001959 -0.006250 0.000000
0.000000 0.000000 0.000000
0.001061 0.000634 0.000000
0.000634 -0.008667 0.000000
0.000000 0.000000 0.000000
0.016744 0.000268 0.000000
0.000268 -0.003800 0.000000
0.000000 0.000000 0.000000
0.009425 -0.003884 0.000000
-0.003884 -0.015580 0.000000
0.000000 0.000000 0.000000
0.024164 0.002630 0.000000
0.002630 -0.024863 0.000000
0.000000 0.000000 0.000000
0.014906 -0.006185 0.000000
-0.006185 -0.027159 0.000000
0.000000 0.000000 0.000000
0.013177 -0.000754 0.000000
-0.000754 -0.027976 0.000000
0.000000 0.000000 0.000000
0.000658 -0.001290 0.000000
-0.001290 -0.000926 0.000000
0.000000 0.000000 0.000000
0.010938 0.003087 0.000000
0.003087 -0.009383 0.000000
0.000000 0.000000 0.000000
-0.017016 0.007862 0.000000
0.007862 -0.002728 0.000000
0.000000 0.000000 0.000000
0.014297 -0.001549 0.000000
-0.001549 0.003984 0.000000
0.000000 0.000000 0.000000
0.024425 -0.002410 0.000000
-0.002410 -0.023482 0.000000
0.000000 0.000000 0.000000
0.008916 -0.006196 0.000000
-0.006196 0.000877 0.000000
0.000000 0.000000 0.000000
-0.003427 0.000164 0.000000
0.000164 -0.002573 0.000000
0.000000 0.000000 0.000000
0.012565 -0.005933 0.000000
-0.005933 -0.010565 0.000000
0.000000 0.000000 0.000000
-0.006559 -0.000991 0.000000
-0.000991 -0.004816 0.000000
0.000000 0.000000 0.000000
-0.006439 0.004161 0.000000
0.004161 -0.014030 0.000000
0.000000 0.000000 0.000000
0.025539 0.012440 0.000000
0.012440 0.021279 0.000000
0.000000 0.000000 0.000000
-0.002804 -0.003705 0.000000
-0.003705 0.013242 0.000000
0.000000 0.000000 0.000000
-0.017847 -0.003773 0.000000
-0.003773 0.007539 0.000000
0.000000 0.000000 0.000000
-0.005854 -0.005098 0.000000
-0.005098 -0.009333 0.000000
0.000000 0.000000 0.000000
0.017915 -0.010251 0.000000
-0.010251 0.033573 0.000000
0.000000 0.000000 0.000000
0.005886 -0.007400 0.000000
-0.007400 -0.005055 0.000000
0.000000 0.000000 0.000000
-0.009197 -0.011323 0.000000
-0.011323 0.012558 0.000000
0.000000 0.000000 0.000000
-0.001740 -0.015229 0.000000
-0.015229 0.010893 0.000000
0.000000 0.000000 0.000000
-0.015746 0.001060 0.000000
0.001060 0.014362 0.000000
0.000000 0.000000 0.000000
-0.000981 0.000379 0.000000
0.000379 0.014848 0.000000
0.000000 0.000000 0.000000
0.002658 -0.008137 0.000000
-0.008137 -0.001683 0.000000
0.000000 0.000000 0.000000
0.005473 0.000052 0.000000
0.000052 0.001947 0.000000
0.000000 0.000000 0.000000
0.004851 -0.001684 0.000000
-0.001684 0.004369 0.000000
0.000000 0.000000 0.000000
0.023547 -0.004771 0.000000
-0.004771 -0.000175 0.000000
0.000000 0.000000 0.000000
-0.007293 0.004850 0.000000
0.004850 0.008451 0.000000
0.000000 0.000000 0.000000
0.019603 -0.000467 0.000000
-0.000467 -0.007531 0.000000
0.000000 0.000000 0.000000
0.009935 0.005013 0.000000
0.005013 0.026666 0.000000
0.000000 0.000000 0.000000
-0.011359 0.000517 0.000000
0.000517 0.012501 0.000000
0.000000 0.000000 0.000000
-0.024212 0.021228 0.000000
0.021228 -0.000128 0.000000
0.000000 0.000000 0.000000
-0.007057 -0.008009 0.000000
-0.008009 -0.009552 0.000000
0.000000 0.000000 0.000000
0.006271 0.001540 0.000000
0.001540 -0.003482 0.000000
0.000000 0.000000 0.000000
0.007160 -0.001119 0.000000
-0.001119 0.005441 0.000000
0.000000 0.000000 0.000000
-0.032408 0.000206 0.000000
0.000206 0.025570 0.000000
0.000000 0.000000 0.000000
0.016056 0.007398 0.000000
0.007398 0.014631 0.000000
0.000000 0.000000 0.000000
-0.006607 -0.003457 0.000000
-0.003457 -0.003787 0.000000
0.000000 0.000000 0.000000
-0.009244 0.003843 0.000000
0.003843 0.005176 0.000000
0.000000 0.000000 0.000000
-0.003875 -0.002410 0.000000
-0.002410 -0.003663 0.000000
0.000000 0.000000 0.000000
-0.001683 0.001162 0.000000
0.001162 -0.001898 0.000000
0.000000 0.000000 0.000000
-0.006980 0.000261 0.000000
0.000261 -0.001874 0.000000
0.000000 0.000000 0.000000
-0.014162 -0.001110 0.000000
-0.001110 -0.009581 0.000000
0.000000 0.000000 0.000000
-0.019864 0.005742 0.000000
0.005742 -0.005224 0.000000
0.000000 0.000000 0.000000
-0.010268 0.004038 0.000000
0.004038 -0.005303 0.000000
0.000000 0.000000 0.000000
-0.012453 0.014677 0.000000
0.014677 0.020260 0.000000
0.000000 0.000000 0.000000
0.004254 -0.006098 0.000000
-0.006098 0.014594 0.000000
0.000000 0.000000 0.000000
0.009841 0.000600 0.000000
0.000600 0.004339 0.000000
0.000000 0.000000 0.000000
-0.001680 -0.006513 0.000000
-0.006513 -0.007366 0.000000
0.000000 0.000000 0.000000
0.007661 0.001951 0.000000
0.001951 -0.001442 0.000000
0.000000 0.000000 0.000000
-0.001366 -0.002300 0.000000
-0.002300 -0.006013 0.000000
0.000000 0.000000 0.000000
0.000156 -0.004059 0.000000
-0.004059 -0.003476 0.000000
0.000000 0.000000 0.000000
-0.014234 -0.000166 0.000000
-0.000166 -0.001290 0.000000
0.000000 0.000000 0.000000
0.005048 -0.002856 0.000000
-0.002856 0.003444 0.000000
0.000000 0.000000 0.000000
0.013451 0.009960 0.000000
0.009960 0.005894 0.000000
0.000000 0.000000 0.000000
0.006997 0.001357 0.000000
0.001357 0.010228 0.000000
0.000000 0.000000 0.000000
0.002669 -0.000319 0.000000
-0.000319 -0.006406 0.000000
0.000000 0.000000 0.000000
0.011566 -0.001934 0.000000
-0.001934 -0.011897 0.000000
0.000000 0.000000 0.000000
-0.008764 -0.000545 0.000000
-0.000545 0.010280 0.000000
0.000000 0.000000 0.000000
0.001197 0.001192 0.000000
0.001192 0.000914 0.000000
0.000000 0.000000 0.000000
0.000519 -0.005320 0.000000
-0.005320 -0.002867 0.000000
0.000000 0.000000 0.000000
0.014505 0.003314 0.000000
0.003314 -0.003597 0.000000
0.000000 0.000000 0.000000
0.010211 -0.002890 0.000000
-0.002890 -0.008759 0.000000
0.000000 0.000000 0.000000
0.006405 0.011968 0.000000
0.011968 0.004277 0.000000
0.000000 0.000000 0.000000
0.003707 -0.000630 0.000000
-0.000630 -0.002645 0.000000
0.000000 0.000000 0.000000
-0.025852 0.003719 0.000000
0.003719 -0.005478 0.000000
0.000000 0.000000 0.000000
0.005432 0.014562 0.000000
0.014562 0.021062 0.000000
0.000000 0.000000 0.000000
-0.014666 -0.000409 0.000000
-0.000409 0.000457 0.000000
0.000000 0.000000 0.000000
-0.009673 0.003276 0.000000
0.003276 0.001779 0.000000
0.000000 0.000000 0.000000
-0.026372 0.001394 0.000000
0.001394 0.008684 0.000000
0.000000 0.000000 0.000000
-0.018893 0.014871 0.000000
0.014871 0.030005 0.000000
0.000000 0.000000 0.000000
-0.004900 0.012640 0.000000
0.012640 -0.020556 0.000000
0.000000 0.000000 0.000000
0.018476 0.000444 0.000000
0.000444 -0.012236 0.000000
0.000000 0.000000 0.000000
0.022014 -0.003502 0.000000
-0.003502 -0.012704 0.000000
0.000000 0.000000 0.000000
0.008099 0.002483 0.000000
0.002483 -0.007449 0.000000
0.000000 0.000000 0.000000
-0.014958 0.001940 0.000000
0.001940 -0.000213 0.000000
0.000000 0.000000 0.000000
0.008316 -0.005502 0.000000
-0.005502 0.012102 0.000000
0.000000 0.000000 0.000000
0.006298 -0.001261 0.000000
-0.001261 0.000137 0.000000
0.000000 0.000000 0.000000
0.015113 0.010088 0.000000
0.010088 0.005798 0.000000
0.000000 0.000000 0.000000
-0.022843 0.000746 0.000000
0.000746 0.000282 0.000000
0.000000 0.000000 0.000000
-0.004012 -0.003056 0.000000
-0.003056 0.006163 0.000000
0.000000 0.000000 0.000000
-0.006368 -0.001475 0.000000
-0.001475 0.010204 0.000000
0.000000 0.000000 0.000000
0.006051 0.002844 0.000000
0.002844 0.010624 0.000000
0.000000 0.000000 0.000000
0.019592 -0.000643 0.000000
-0.000643 -0.015437 0.000000
0.000000 0.000000 0.000000
-0.007353 -0.006418 0.000000
-0.006418 0.012201 0.000000
0.000000 0.000000 0.000000
-0.002405 -0.000929 0.000000
-0.000929 0.005188 0.000000
0.000000 0.000000 0.000000
-0.008100 -0.006755 0.000000
-0.006755 0.002913 0.000000
0.000000 0.000000 0.000000
-0.012592 0.007552 0.000000
0.007552 -0.009534 0.000000
0.000000 0.000000 0.000000
0.003773 0.000867 0.000000
0.000867 -0.002652 0.000000
0.000000 0.000000 0.000000
-0.019551 -0.002277 0.000000
-0.002277 -0.004891 0.000000
0.000000 0.000000 0.000000
-0.020474 -0.009333 0.000000
-0.009333 0.002425 0.000000
0.000000 0.000000 0.000000
-0.011854 0.006109 0.000000
0.006109 -0.005642 0.000000
0.000000 0.000000 0.000000
-0.011303 -0.009741 0.000000
-0.009741 0.000754 0.000000
0.000000 0.000000 0.000000
-0.007451 -0.012871 0.000000
-0.012871 -0.001969 0.000000
0.000000 0.000000 0.000000
0.007837 0.010089 0.000000
0.010089 0.004937 0.000000
0.000000 0.000000 0.000000
-0.006418 -0.007272 0.000000
-0.007272 -0.001730 0.000000
0.000000 0.000000 0.000000
0.003228 -0.002817 0.000000
-0.002817 -0.012554 0.000000
0.000000 0.000000 0.000000
-0.010171 -0.001103 0.000000
-0.001103 0.016657 0.000000
0.000000 0.000000 0.000000
-0.009445 -0.005177 0.000000
-0.005177 0.014770 0.000000
0.000000 0.000000 0.000000
-0.019864 0.004392 0.000000
0.004392 -0.011192 0.000000
0.000000 0.000000 0.000000
0.010215 -0.011713 0.000000
-0.011713 0.009010 0.000000
0.000000 0.000000 0.000000
-0.002512 -0.018345 0.000000
-0.018345 0.010009 0.000000
0.000000 0.000000 0.000000
-0.002294 -0.005267 0.000000
-0.005267 -0.004514 0.000000
0.000000 0.000000 0.000000
0.006346 -0.010437 0.000000
-0.010437 -0.001500 0.000000
0.000000 0.000000 0.000000
0.010626 -0.004080 0.000000
-0.004080 0.003134 0.000000
0.000000 0.000000 0.000000
0.003967 -0.001839 0.000000
-0.001839 -0.003329 0.000000
0.000000 0.000000 0.000000
-0.000412 -0.004552 0.000000
-0.004552 -0.004529 0.000000
0.000000 0.000000 0.000000
-0.007186 0.003574 0.000000
0.003574 -0.010383 0.000000
0.000000 0.000000 0.000000
-0.004021 -0.002516 0.000000
-0.002516 -0.012502 0.000000
0.000000 0.000000 0.000000
-0.024800 -0.006319 0.000000
-0.006319 -0.000926 0.000000
0.000000 0.000000 0.000000
0.014656 0.004199 0.000000
0.004199 -0.016200 0.000000
0.000000 0.000000 0.000000
-0.004683 -0.004882 0.000000
-0.004882 -0.012809 0.000000
0.000000 0.000000 0.000000
0.003751 -0.003188 0.000000
-0.003188 0.007659 0.000000
0.000000 0.000000 0.000000
-0.006601 0.005846 0.000000
0.005846 -0.008857 0.000000
0.000000 0.000000 0.000000
-0.016195 -0.005322 0.000000
-0.005322 0.001363 0.000000
0.000000 0.000000 0.000000
0.021892 -0.000952 0.000000
-0.000952 0.011603 0.000000
0.000000 0.000000 0.000000
-0.024806 -0.000896 0.000000
-0.000896 -0.014701 0.000000
0.000000 0.000000 0.000000
0.003723 -0.007360 0.000000
-0.007360 -0.003333 0.000000
0.000000 0.000000 0.000000
0.027676 -0.014943 0.000000
-0.014943 0.029499 0.000000
0.000000 0.000000 0.000000
-0.003949 -0.001698 0.000000
-0.001698 -0.000536 0.000000
0.000000 0.000000 0.000000
-0.005438 -0.000935 0.000000
-0.000935 -0.005943 0.000000
0.000000 0.000000 0.000000
-0.004229 0.028803 0.000000
0.028803 -0.003133 0.000000
0.000000 0.000000 0.000000
0.013432 -0.009754 0.000000
-0.009754 0.011882 0.000000
0.000000 0.000000 0.000000
-0.005549 0.000089 0.000000
0.000089 -0.025883 0.000000
0.000000 0.000000 0.000000
-0.015571 -0.009226 0.000000
-0.009226 -0.015862 0.000000
0.000000 0.000000 0.000000
-0.011151 0.004674 0.000000
0.004674 -0.026585 0.000000
0.000000 0.000000 0.000000
-0.001160 0.001342 0.000000
0.001342 0.000740 0.000000
0.000000 0.000000 0.000000
-0.006071 0.002564 0.000000
0.002564 -0.024563 0.000000
0.000000 0.000000 0.000000
0.003375 -0.002668 0.000000
-0.002668 0.026217 0.000000
0.000000 0.000000 0.000000
-0.002887 -0.007566 0.000000
-0.007566 0.016283 0.000000
0.000000 0.000000 0.000000
-0.001616 -0.000051 0.000000
-0.000051 0.007804 0.000000
0.000000 0.000000 0.000000
-0.014985 0.004569 0.000000
0.004569 0.008871 0.000000
0.000000 0.000000 0.000000
-0.012187 -0.003832 0.000000
-0.003832 -0.015930 0.000000
0.000000 0.000000 0.000000
-0.005099 -0.010269 0.000000
-0.010269 -0.018964 0.000000
0.000000 0.000000 0.000000
-0.000923 0.000175 0.000000
0.000175 -0.001442 0.000000
0.000000 0.000000 0.000000
0.006933 0.008890 0.000000
0.008890 -0.005819 0.000000
0.000000 0.000000 0.000000
0.006419 -0.013538 0.000000
-0.013538 -0.019521 0.000000
0.000000 0.000000 0.000000
0.009401 0.003999 0.000000
0.003999 0.002097 0.000000
0.000000 0.000000 0.000000
0.018597 -0.002936 0.000000
-0.002936 -0.010806 0.000000
0.000000 0.000000 0.000000
0.008473 0.010570 0.000000
0.010570 0.019332 0.000000
0.000000 0.000000 0.000000
0.000968 -0.000384 0.000000
-0.000384 0.003947 0.000000
0.000000 0.000000 0.000000
-0.001176 0.003113 0.000000
0.003113 0.002288 0.000000
0.000000 0.000000 0.000000
-0.003618 -0.000916 0.000000
-0.000916 0.008132 0.000000
0.000000 0.000000 0.000000
0.001377 0.003248 0.000000
0.003248 0.019734 0.000000
0.000000 0.000000 0.000000
0.013913 0.004923 0.000000
0.004923 -0.011503 0.000000
0.000000 0.000000 0.000000
-0.009743 -0.001668 0.000000
-0.001668 0.007141 0.000000
0.000000 0.000000 0.000000
0.005978 -0.004629 0.000000
-0.004629 -0.005047 0.000000
0.000000 0.000000 0.000000
0.006493 0.007217 0.000000
0.007217 -0.018343 0.000000
0.000000 0.000000 0.000000
-0.007184 0.009899 0.000000
0.009899 -0.018464 0.000000
0.000000 0.000000 0.000000
0.008329 -0.004763 0.000000
-0.004763 0.011785 0.000000
0.000000 0.000000 0.000000
-0.005229 -0.002718 0.000000
-0.002718 0.005212 0.000000
0.000000 0.000000 0.000000
0.017086 -0.007977 0.000000
-0.007977 0.019881 0.000000
0.000000 0.000000 0.000000
0.008974 -0.003947 0.000000
-0.003947 0.000743 0.000000
0.000000 0.000000 0.000000
0.010143 -0.004565 0.000000
-0.004565 0.018581 0.000000
0.000000 0.000000 0.000000
0.000161 0.000460 0.000000
0.000460 0.002170 0.000000
0.000000 0.000000 0.000000
0.014901 -0.007517 0.000000
-0.007517 0.012011 0.000000
0.000000 0.000000 0.000000
0.017149 0.004670 0.000000
0.004670 0.000371 0.000000
0.000000 0.000000 0.000000
-0.001634 0.001532 0.000000
0.001532 0.009137 0.000000
0.000000 0.000000 0.000000
-0.008828 0.002957 0.000000
0.002957 -0.011144 0.000000
0.000000 0.000000 0.000000
0.019230 0.004610 0.000000
0.004610 -0.011008 0.000000
0.000000 0.000000 0.000000
-0.019241 -0.006328 0.000000
-0.006328 -0.012099 0.000000
0.000000 0.000000 0.000000
-0.003079 -0.009340 0.000000
-0.009340 -0.012875 0.000000
0.000000 0.000000 0.000000
-0.020372 -0.006689 0.000000
-0.006689 -0.002765 0.000000
0.000000 0.000000 0.000000
-0.036309 -0.001439 0.000000
-0.001439 0.005905 0.000000
0.000000 0.000000 0.000000
0.010956 -0.005632 0.000000
-0.005632 0.019130 0.000000
0.000000 0.000000 0.000000
0.018033 0.010050 0.000000
0.010050 0.001834 0.000000
0.000000 0.000000 0.000000
-0.011662 -0.002331 0.000000
-0.002331 0.007614 0.000000
0.000000 0.000000 0.000000
-0.007224 0.001130 0.000000
0.001130 -0.007402 0.000000
0.000000 0.000000 0.000000
0.007623 0.000667 0.000000
0.000667 -0.000787 0.000000
0.000000 0.000000 0.000000
0.012268 0.008925 0.000000
0.008925 0.006320 0.000000
0.000000 0.000000 0.000000
0.005099 0.003293 0.000000
0.003293 -0.002761 0.000000
0.000000 0.000000 0.000000
-0.020589 -0.008253 0.000000
-0.008253 -0.011986 0.000000
0.000000 0.000000 0.000000
-0.021494 -0.011353 0.000000
-0.011353 -0.018648 0.000000
0.000000 0.000000 0.000000
-0.009846 0.000357 0.000000
0.000357 -0.007193 0.000000
0.000000 0.000000 0.000000
-0.008425 0.000842 0.000000
0.000842 -0.015599 0.000000
0.000000 0.000000 0.000000
0.006625 0.000660 0.000000
0.000660 -0.008652 0.000000
0.000000 0.000000 0.000000
0.010832 0.013310 0.000000
0.013310 -0.006356 0.000000
0.000000 0.000000 0.000000
-0.013920 -0.000804 0.000000
-0.000804 -0.010727 0.000000
0.000000 0.000000 0.000000
-0.010035 0.001447 0.000000
0.001447 0.009928 0.000000
0.000000 0.000000 0.000000
0.012788 0.002319 0.000000
0.002319 -0.006975 0.000000
0.000000 0.000000 0.000000
0.001205 0.003631 0.000000
0.003631 0.007985 0.000000
0.000000 0.000000 0.000000
-0.016050 -0.002099 0.000000
-0.002099 -0.018409 0.000000
0.000000 0.000000 0.000000
-0.009527 0.009248 0.000000
0.009248 0.003375 0.000000
0.000000 0.000000 0.000000
-0.043283 0.008664 0.000000
0.008664 -0.022672 0.000000
0.000000 0.000000 0.000000
-0.024129 -0.009582 0.000000
-0.009582 -0.011367 0.000000
0.000000 0.000000 0.000000
0.000769 0.000494 0.000000
0.000494 0.007295 0.000000
0.000000 0.000000 0.000000
0.017083 0.007242 0.000000
0.007242 0.009540 0.000000
0.000000 0.000000 0.000000
-0.007215 -0.007665 0.000000
-0.007665 -0.006243 0.000000
0.000000 0.000000 0.000000
0.007441 0.001709 0.000000
0.001709 0.012464 0.000000
0.000000 0.000000 0.000000
0.010471 0.002423 0.000000
0.002423 0.010355 0.000000
0.000000 0.000000 0.000000
0.004017 -0.003696 0.000000
-0.003696 -0.000396 0.000000
0.000000 0.000000 0.000000
0.006046 -0.004865 0.000000
-0.004865 0.013138 0.000000
0.000000 0.000000 0.000000
-0.003330 -0.002011 0.000000
-0.002011 -0.016942 0.000000
0.000000 0.000000 0.000000
0.021164 -0.003432 0.000000
-0.003432 0.004549 0.000000
0.000000 0.000000 0.000000
0.001300 -0.000853 0.000000
-0.000853 0.006234 0.000000
0.000000 0.000000 0.000000
0.018481 -0.003790 0.000000
-0.003790 -0.010843 0.000000
0.000000 0.000000 0.000000
0.005330 0.005316 0.000000
0.005316 -0.000600 0.000000
0.000000 0.000000 0.000000
0.006715 -0.007083 0.000000
-0.007083 0.024644 0.000000
0.000000 0.000000 0.000000
-0.006592 0.004348 0.000000
0.004348 0.013634 0.000000
0.000000 0.000000 0.000000
-0.009166 -0.002310 0.000000
-0.002310 0.009299 0.000000
0.000000 0.000000 0.000000
-0.010624 0.007059 0.000000
0.007059 -0.003549 0.000000
0.000000 0.000000 0.000000
0.013814 0.006430 0.000000
0.006430 0.015193 0.000000
0.000000 0.000000 0.000000
0.000731 -0.003835 0.000000
-0.003835 -0.013688 0.000000
0.000000 0.000000 0.000000
0.016250 0.008388 0.000000
0.008388 0.017530 0.000000
0.000000 0.000000 0.000000
0.002978 0.003519 0.000000
0.003519 0.008432 0.000000
0.000000 0.000000 0.000000
-0.008783 0.001100 0.000000
0.001100 0.003096 0.000000
0.000000 0.000000 0.000000
-0.002834 -0.000439 0.000000
-0.000439 -0.001804 0.000000
0.000000 0.000000 0.000000
-0.003951 -0.001689 0.000000
-0.001689 -0.002270 0.000000
0.000000 0.000000 0.000000
-0.001652 -0.003777 0.000000
-0.003777 -0.000606 0.000000
0.000000 0.000000 0.000000
0.008403 -0.005518 0.000000
-0.005518 0.000874 0.000000
0.000000 0.000000 0.000000
-0.013255 -0.010576 0.000000
-0.010576 -0.009771 0.000000
0.000000 0.000000 0.000000
-0.000883 0.002596 0.000000
0.002596 -0.014314 0.000000
0.000000 0.000000 0.000000
0.005636 0.007068 0.000000
0.007068 0.003101 0.000000
0.000000 0.000000 0.000000
-0.003291 -0.004921 0.000000
-0.004921 -0.004541 0.000000
0.000000 0.000000 0.000000
-0.003487 0.009855 0.000000
0.009855 -0.006636 0.000000
0.000000 0.000000 0.000000
-0.000698 0.003101 0.000000
0.003101 -0.011688 0.000000
0.000000 0.000000 0.000000
-0.006189 0.004262 0.000000
0.004262 -0.000968 0.000000
0.000000 0.000000 0.000000
0.011324 -0.000452 0.000000
-0.000452 0.009744 0.000000
0.000000 0.000000 0.000000
-0.013348 0.006012 0.000000
0.006012 0.002729 0.000000
0.000000 0.000000 0.000000
-0.019465 0.012156 0.000000
0.012156 0.014092 0.000000
0.000000 0.000000 0.000000
0.002595 -0.004276 0.000000
-0.004276 -0.000726 0.000000
0.000000 0.000000 0.000000
0.003105 -0.011295 0.000000
-0.011295 -0.012377 0.000000
0.000000 0.000000 0.000000
0.005738 -0.003143 0.000000
-0.003143 0.000725 0.000000
0.000000 0.000000 0.000000
-0.000147 0.002117 0.000000
0.002117 -0.000388 0.000000
0.000000 0.000000 0.000000
-0.010482 -0.005752 0.000000
-0.005752 -0.010061 0.000000
0.000000 0.000000 0.000000
-0.013711 0.002511 0.000000
0.002511 -0.013658 0.000000
0.000000 0.000000 0.000000
-0.008390 0.003562 0.000000
0.003562 -0.012910 0.000000
0.000000 0.000000 0.000000
0.000709 0.000573 0.000000
0.000573 -0.001163 0.000000
0.000000 0.000000 0.000000
-0.000837 -0.004196 0.000000
-0.004196 -0.003478 0.000000
0.000000 0.000000 0.000000
0.003037 -0.002785 0.000000
-0.002785 -0.007895 0.000000
0.000000 0.000000 0.000000
-0.007222 0.002943 0.000000
0.002943 -0.011061 0.000000
0.000000 0.000000 0.000000
-0.002587 -0.006150 0.000000
-0.006150 -0.015771 0.000000
0.000000 0.000000 0.000000
0.008372 -0.001966 0.000000
-0.001966 0.004788 0.000000
0.000000 0.000000 0.000000
0.027117 -0.002061 0.000000
-0.002061 -0.011070 0.000000
0.000000 0.000000 0.000000
0.006294 -0.001845 0.000000
-0.001845 -0.016671 0.000000
0.000000 0.000000 0.000000
-0.017083 -0.008924 0.000000
-0.008924 0.013214 0.000000
0.000000 0.000000 0.000000
0.003272 -0.007118 0.000000
-0.007118 -0.010798 0.000000
0.000000 0.000000 0.000000
0.000981 -0.003462 0.000000
-0.003462 0.000064 0.000000
0.000000 0.000000 0.000000
-0.004172 -0.006161 0.000000
-0.006161 0.000434 0.000000
0.000000 0.000000 0.000000
0.007057 -0.001299 0.000000
-0.001299 -0.004509 0.000000
0.000000 0.000000 0.000000
-0.001709 0.001420 0.000000
0.001420 0.000555 0.000000
0.000000 0.000000 0.000000
0.002727 -0.000662 0.000000
-0.000662 0.003081 0.000000
0.000000 0.000000 0.000000
0.003948 -0.000581 0.000000
-0.000581 -0.004838 0.000000
0.000000 0.000000 0.000000
0.008535 -0.000931 0.000000
-0.000931 -0.010236 0.000000
0.000000 0.000000 0.000000
-0.022866 0.000981 0.000000
0.000981 -0.011365 0.000000
0.000000 0.000000 0.000000
-0.006334 -0.002739 0.000000
-0.002739 -0.014334 0.000000
0.000000 0.000000 0.000000
-0.008411 -0.006099 0.000000
-0.006099 -0.004478 0.000000
0.000000 0.000000 0.000000
0.002734 0.003942 0.000000
0.003942 0.000357 0.000000
0.000000 0.000000 0.000000
-0.005929 -0.000938 0.000000
-0.000938 0.003925 0.000000
0.000000 0.000000 0.000000
-0.001059 0.000176 0.000000
0.000176 0.002045 0.000000
0.000000 0.000000 0.000000
0.002509 0.001995 0.000000
0.001995 0.001511 0.000000
0.000000 0.000000 0.000000
-0.016888 0.003590 0.000000
0.003590 -0.007127 0.000000
0.000000 0.000000 0.000000
-0.006547 0.000817 0.000000
0.000817 0.001656 0.000000
0.000000 0.000000 0.000000
0.025551 -0.000618 0.000000
-0.000618 0.015051 0.000000
0.000000 0.000000 0.000000
-0.012556 -0.003212 0.000000
-0.003212 0.005432 0.000000
0.000000 0.000000 0.000000
-0.008855 0.002829 0.000000
0.002829 -0.008966 0.000000
0.000000 0.000000 0.000000
-0.006371 -0.014365 0.000000
-0.014365 0.013502 0.000000
0.000000 0.000000 0.000000
-0.007507 0.007101 0.000000
0.007101 0.018749 0.000000
0.000000 0.000000 0.000000
0.010901 -0.007390 0.000000
-0.007390 0.005394 0.000000
0.000000 0.000000 0.000000
0.003376 -0.000308 0.000000
-0.000308 0.000766 0.000000
0.000000 0.000000 0.000000
-0.009419 -0.010931 0.000000
-0.010931 0.011966 0.000000
0.000000 0.000000 0.000000
0.001828 0.002524 0.000000
0.002524 -0.002533 0.000000
0.000000 0.000000 0.000000
0.007605 -0.000639 0.000000
-0.000639 -0.000887 0.000000
0.000000 0.000000 0.000000
0.006150 0.005281 0.000000
0.005281 -0.005113 0.000000
0.000000 0.000000 0.000000
0.004946 -0.004594 0.000000
-0.004594 0.009498 0.000000
0.000000 0.000000 0.000000
0.009953 0.001381 0.000000
0.001381 0.006015 0.000000
0.000000 0.000000 0.000000
-0.000240 -0.002218 0.000000
-0.002218 -0.006886 0.000000
0.000000 0.000000 0.000000
-0.005753 0.005044 0.000000
0.005044 -0.014815 0.000000
0.000000 0.000000 0.000000
-0.015235 -0.004152 0.000000
-0.004152 -0.011386 0.000000
0.000000 0.000000 0.000000
-0.011977 -0.006219 0.000000
-0.006219 -0.010371 0.000000
0.000000 0.000000 0.000000
0.004312 -0.000892 0.000000
-0.000892 0.010807 0.000000
0.000000 0.000000 0.000000
-0.009993 -0.003769 0.000000
-0.003769 -0.006291 0.000000
0.000000 0.000000 0.000000
-0.008237 -0.008599 0.000000
-0.008599 -0.005243 0.000000
0.000000 0.000000 0.000000
0.011327 -0.002803 0.000000
-0.002803 0.005662 0.000000
0.000000 0.000000 0.000000
0.003656 0.001077 0.000000
0.001077 0.011564 0.000000
0.000000 0.000000 0.000000
-0.008647 -0.008953 0.000000
-0.008953 -0.001115 0.000000
0.000000 0.000000 0.000000
-0.013521 -0.002221 0.000000
-0.002221 -0.006279 0.000000
0.000000 0.000000 0.000000
0.002358 0.001822 0.000000
0.001822 -0.001021 0.000000
0.000000 0.000000 0.000000
0.002377 0.004170 0.000000
0.004170 0.000475 0.000000
0.000000 0.000000 0.000000
0.011879 0.000928 0.000000
0.000928 0.002705 0.000000
0.000000 0.000000 0.000000
0.007381 -0.014242 0.000000
-0.014242 -0.008053 0.000000
0.000000 0.000000 0.000000
0.012386 -0.016386 0.000000
-0.016386 0.001156 0.000000
0.000000 0.000000 0.000000
0.013820 -0.017063 0.000000
-0.017063 -0.007747 0.000000
0.000000 0.000000 0.000000
0.014476 0.012172 0.000000
0.012172 -0.015498 0.000000
0.000000 0.000000 0.000000
0.007353 -0.004952 0.000000
-0.004952 -0.011537 0.000000
0.000000 0.000000 0.000000
0.003881 -0.004195 0.000000
-0.004195 -0.002065 0.000000
0.000000 0.000000 0.000000
-0.012120 0.002544 0.000000
0.002544 -0.017413 0.000000
0.000000 0.000000 0.000000
-0.005799 0.004257 0.000000
0.004257 0.001818 0.000000
0.000000 0.000000 0.000000
0.012122 0.010342 0.000000
0.010342 -0.014478 0.000000
0.000000 0.000000 0.000000
0.012177 0.001148 0.000000
0.001148 -0.019933 0.000000
0.000000 0.000000 0.000000
-0.013167 -0.002285 0.000000
-0.002285 -0.001766 0.000000
0.000000 0.000000 0.000000
-0.003238 -0.005764 0.000000
-0.005764 0.007161 0.000000
0.000000 0.000000 0.000000
-0.004093 0.002659 0.000000
0.002659 -0.007285 0.000000
0.000000 0.000000 0.000000
0.004116 -0.002470 0.000000
-0.002470 0.002900 0.000000
0.000000 0.000000 0.000000
0.014890 -0.002398 0.000000
-0.002398 -0.006459 0.000000
0.000000 0.000000 0.000000
0.002733 0.001386 0.000000
0.001386 0.004089 0.000000
0.000000 0.000000 0.000000
0.004063 -0.016598 0.000000
-0.016598 0.008133 0.000000
0.000000 0.000000 0.000000
-0.008547 0.000437 0.000000
0.000437 -0.015538 0.000000
0.000000 0.000000 0.000000
-0.018731 0.000755 0.000000
0.000755 0.014534 0.000000
0.000000 0.000000 0.000000
-0.015877 -0.014734 0.000000
-0.014734 0.002758 0.000000
0.000000 0.000000 0.000000
0.002492 -0.008366 0.000000
-0.008366 0.012561 0.000000
0.000000 0.000000 0.000000
0.012445 -0.010820 0.000000
-0.010820 0.012254 0.000000
0.000000 0.000000 0.000000
-0.013159 0.000597 0.000000
0.000597 0.015250 0.000000
0.000000 0.000000 0.000000
0.008577 -0.004356 0.000000
-0.004356 0.000348 0.000000
0.000000 0.000000 0.000000
-0.002309 0.002754 0.000000
0.002754 0.001432 0.000000
0.000000 0.000000 0.000000
-0.002270 0.001984 0.000000
0.001984 -0.001244 0.000000
0.000000 0.000000 0.000000
-0.001615 0.001847 0.000000
0.001847 -0.002013 0.000000
0.000000 0.000000 0.000000
-0.005327 0.001379 0.000000
0.001379 -0.007456 0.000000
0.000000 0.000000 0.000000
0.002980 0.000204 0.000000
0.000204 -0.006626 0.000000
0.000000 0.000000 0.000000
0.000280 0.000688 0.000000
0.000688 -0.007422 0.000000
0.000000 0.000000 0.000000
-0.002779 -0.004467 0.000000
-0.004467 0.000549 0.000000
0.000000 0.000000 0.000000
0.001388 0.002055 0.000000
0.002055 -0.001660 0.000000
0.000000 0.000000 0.000000
0.009701 0.001244 0.000000
0.001244 0.002872 0.000000
0.000000 0.000000 0.000000
-0.001625 -0.008020 0.000000
-0.008020 -0.008100 0.000000
0.000000 0.000000 0.000000
-0.000082 0.003787 0.000000
0.003787 -0.004176 0.000000
0.000000 0.000000 0.000000
-0.005095 0.006236 0.000000
0.006236 -0.013949 0.000000
0.000000 0.000000 0.000000
-0.005018 0.003631 0.000000
0.003631 -0.005338 0.000000
0.000000 0.000000 0.000000
0.003159 0.005313 0.000000
0.005313 -0.002225 0.000000
0.000000 0.000000 0.000000
0.017290 -0.003152 0.000000
-0.003152 0.019324 0.000000
0.000000 0.000000 0.000000
0.003788 0.003385 0.000000
0.003385 -0.002670 0.000000
0.000000 0.000000 0.000000
-0.006290 -0.005505 0.000000
-0.005505 -0.000881 0.000000
0.000000 0.000000 0.000000
-0.002096 -0.001023 0.000000
-0.001023 -0.003795 0.000000
0.000000 0.000000 0.000000
-0.005391 -0.004747 0.000000
-0.004747 -0.002761 0.000000
0.000000 0.000000 0.000000
0.003028 0.001115 0.000000
0.001115 0.006720 0.000000
0.000000 0.000000 0.000000
0.014504 -0.000628 0.000000
-0.000628 0.001878 0.000000
0.000000 0.000000 0.000000
0.001257 -0.003160 0.000000
-0.003160 -0.010459 0.000000
0.000000 0.000000 0.000000
0.012878 -0.008236 0.000000
-0.008236 0.003405 0.000000
0.000000 0.000000 0.000000
0.000972 -0.007650 0.000000
-0.007650 0.003282 0.000000
0.000000 0.000000 0.000000
-0.000392 0.001400 0.000000
0.001400 -0.012995 0.000000
0.000000 0.000000 0.000000
-0.005089 0.000855 0.000000
0.000855 -0.012589 0.000000
0.000000 0.000000 0.000000
-0.007950 -0.001143 0.000000
-0.001143 -0.005907 0.000000
0.000000 0.000000 0.000000
0.010251 0.004290 0.000000
0.004290 0.007821 0.000000
0.000000 0.000000 0.000000
0.024879 0.008554 0.000000
0.008554 0.004725 0.000000
0.000000 0.000000 0.000000
0.005997 0.001698 0.000000
0.001698 0.005476 0.000000
0.000000 0.000000 0.000000
0.019166 0.007435 0.000000
0.007435 0.003435 0.000000
0.000000 0.000000 0.000000
0.005539 0.004555 0.000000
0.004555 0.024965 0.000000
0.000000 0.000000 0.000000
0.005076 0.002149 0.000000
0.002149 0.021241 0.000000
0.000000 0.000000 0.000000
-0.005882 0.003823 0.000000
0.003823 -0.002852 0.000000
0.000000 0.000000 0.000000
0.006302 0.004630 0.000000
0.004630 0.012983 0.000000
0.000000 0.000000 0.000000
0.015403 -0.009247 0.000000
-0.009247 -0.019056 0.000000
0.000000 0.000000 0.000000
-0.004586 0.000808 0.000000
0.000808 -0.006904 0.000000
0.000000 0.000000 0.000000
-0.008593 -0.001251 0.000000
-0.001251 -0.008496 0.000000
0.000000 0.000000 0.000000
0.008512 0.000013 0.000000
0.000013 -0.028471 0.000000
0.000000 0.000000 0.000000
0.004515 0.002708 0.000000
0.002708 -0.006123 0.000000
0.000000 0.000000 0.000000
-0.002704 -0.004293 0.000000
-0.004293 0.025075 0.000000
0.000000 0.000000 0.000000
-0.022772 -0.025307 0.000000
-0.025307 0.024091 0.000000
0.000000 0.000000 0.000000
0.001853 -0.002055 0.000000
-0.002055 -0.008180 0.000000
0.000000 0.000000 0.000000
-0.016089 0.011612 0.000000
0.011612 -0.001967 0.000000
0.000000 0.000000 0.000000
0.000653 -0.007170 0.000000
-0.007170 0.004845 0.000000
0.000000 0.000000 0.000000
-0.008580 -0.001021 0.000000
-0.001021 -0.010880 0.000000
0.000000 0.000000 0.000000
-0.000704 -0.012004 0.000000
-0.012004 0.012541 0.000000
0.000000 0.000000 0.000000
-0.003974 -0.005480 0.000000
-0.005480 0.018648 0.000000
0.000000 0.000000 0.000000
0.001486 0.003648 0.000000
0.003648 -0.005086 0.000000
0.000000 0.000000 0.000000
0.011288 0.001137 0.000000
0.001137 0.010248 0.000000
0.000000 0.000000 0.000000
-0.000656 0.001843 0.000000
0.001843 0.001673 0.000000
0.000000 0.000000 0.000000
-0.002808 0.018813 0.000000
0.018813 -0.015739 0.000000
0.000000 0.000000 0.000000
0.008891 -0.006907 0.000000
-0.006907 0.003632 0.000000
0.000000 0.000000 0.000000
-0.000172 0.016808 0.000000
0.016808 -0.012890 0.000000
0.000000 0.000000 0.000000
0.013955 -0.005850 0.000000
-0.005850 -0.019223 0.000000
0.000000 0.000000 0.000000
-0.003373 -0.009737 0.000000
-0.009737 -0.000820 0.000000
0.000000 0.000000 0.000000
0.000285 0.001533 0.000000
0.001533 0.010750 0.000000
0.000000 0.000000 0.000000
-0.000406 0.001195 0.000000
0.001195 0.001421 0.000000
0.000000 0.000000 0.000000
0.000745 0.001737 0.000000
0.001737 0.010845 0.000000
0.000000 0.000000 0.000000
-0.007885 -0.000153 0.000000
-0.000153 0.002149 0.000000
0.000000 0.000000 0.000000
-0.001890 0.000362 0.000000
0.000362 0.000747 0.000000
0.000000 0.000000 0.000000
0.003845 -0.001549 0.000000
-0.001549 0.005291 0.000000
0.000000 0.000000 0.000000
-0.017341 -0.006324 0.000000
-0.006324 -0.002038 0.000000
0.000000 0.000000 0.000000
0.009664 -0.006955 0.000000
-0.006955 0.015277 0.000000
0.000000 0.000000 0.000000
0.013590 -0.006010 0.000000
-0.006010 0.008305 0.000000
0.000000 0.000000 0.000000
0.009891 -0.002948 0.000000
-0.002948 0.022250 0.000000
0.000000 0.000000 0.000000
0.009073 0.003454 0.000000
0.003454 0.007898 0.000000
0.000000 0.000000 0.000000
-0.003800 0.001089 0.000000
0.001089 0.000981 0.000000
0.000000 0.000000 0.000000
-0.001486 0.004631 0.000000
0.004631 -0.003520 0.000000
0.000000 0.000000 0.000000
0.011490 -0.017047 0.000000
-0.017047 -0.000530 0.000000
0.000000 0.000000 0.000000
-0.018404 0.007116 0.000000
0.007116 0.000362 0.000000
0.000000 0.000000 0.000000
-0.003288 0.003093 0.000000
0.003093 -0.005831 0.000000
0.000000 0.000000 0.000000
0.001648 0.003810 0.000000
0.003810 0.019611 0.000000
0.000000 0.000000 0.000000
0.003928 0.004045 0.000000
0.004045 0.027674 0.000000
0.000000 0.000000 0.000000
0.000191 -0.001061 0.000000
-0.001061 -0.000069 0.000000
0.000000 0.000000 0.000000
0.004634 0.002303 0.000000
0.002303 0.017110 0.000000
0.000000 0.000000 0.000000
0.001860 -0.000382 0.000000
-0.000382 0.012528 0.000000
0.000000 0.000000 0.000000
-0.002108 -0.000645 0.000000
-0.000645 0.007197 0.000000
0.000000 0.000000 0.000000
0.001977 0.001882 0.000000
0.001882 0.010538 0.000000
0.000000 0.000000 0.000000
0.010561 0.002080 0.000000
0.002080 0.004032 0.000000
0.000000 0.000000 0.000000
0.005115 -0.004538 0.000000
-0.004538 -0.012510 0.000000
0.000000 0.000000 0.000000
0.006434 0.005395 0.000000
0.005395 -0.007165 0.000000
0.000000 0.000000 0.000000
-0.011721 0.012988 0.000000
0.012988 -0.004190 0.000000
0.000000 0.000000 0.000000
-0.003880 0.004840 0.000000
0.004840 0.015889 0.000000
0.000000 0.000000 0.000000
-0.017065 -0.000914 0.000000
-0.000914 -0.013551 0.000000
0.000000 0.000000 0.000000
-0.010725 -0.001206 0.000000
-0.001206 0.019285 0.000000
0.000000 0.000000 0.000000
-0.004770 -0.002072 0.000000
-0.002072 -0.002557 0.000000
0.000000 0.000000 0.000000
-0.012954 0.001519 0.000000
0.001519 -0.003634 0.000000
0.000000 0.000000 0.000000
0.011578 0.002825 0.000000
0.002825 0.008745 0.000000
0.000000 0.000000 0.000000
0.007582 -0.007108 0.000000
-0.007108 -0.003272 0.000000
0.000000 0.000000 0.000000
-0.006728 0.009222 0.000000
0.009222 0.009668 0.000000
0.000000 0.000000 0.000000
-0.004422 0.013216 0.000000
0.013216 0.021471 0.000000
0.000000 0.000000 0.000000
0.000297 -0.003013 0.000000
-0.003013 0.000942 0.000000
0.000000 0.000000 0.000000
-0.004807 0.008178 0.000000
0.008178 -0.005053 0.000000
0.000000 0.000000 0.000000
0.011679 -0.009193 0.000000
-0.009193 0.000814 0.000000
0.000000 0.000000 0.000000
-0.002503 0.008176 0.000000
0.008176 0.000121 0.000000
0.000000 0.000000 0.000000
0.002059 -0.004187 0.000000
-0.004187 -0.005522 0.000000
0.000000 0.000000 0.000000
0.017295 -0.005390 0.000000
-0.005390 0.010386 0.000000
0.000000 0.000000 0.000000
0.010198 -0.006424 0.000000
-0.006424 0.012123 0.000000
0.000000 0.000000 0.000000
0.006383 0.001011 0.000000
0.001011 0.002312 0.000000
0.000000 0.000000 0.000000
0.017250 0.001063 0.000000
0.001063 0.000825 0.000000
0.000000 0.000000 0.000000
0.012420 0.001136 0.000000
0.001136 0.003903 0.000000
0.000000 0.000000 0.000000
0.004878 -0.004146 0.000000
-0.004146 -0.003427 0.000000
0.000000 0.000000 0.000000
-0.000763 0.001592 0.000000
0.001592 0.001834 0.000000
0.000000 0.000000 0.000000
-0.000435 0.001160 0.000000
0.001160 0.000609 0.000000
0.000000 0.000000 0.000000
-0.004967 0.001090 0.000000
0.001090 -0.008219 0.000000
0.000000 0.000000 0.000000
0.017576 -0.003556 0.000000
-0.003556 0.003632 0.000000
0.000000 0.000000 0.000000
0.015634 -0.000481 0.000000
-0.000481 0.001398 0.000000
0.000000 0.000000 0.000000
0.003322 0.005548 0.000000
0.005548 0.022817 0.000000
0.000000 0.000000 0.000000
-0.003922 0.001458 0.000000
0.001458 0.003321 0.000000
0.000000 0.000000 0.000000
0.008855 0.007817 0.000000
0.007817 0.024888 0.000000
0.000000 0.000000 0.000000
-0.003854 -0.004759 0.000000
-0.004759 0.000443 0.000000
0.000000 0.000000 0.000000
0.022691 0.014528 0.000000
0.014528 -0.013810 0.000000
0.000000 0.000000 0.000000
0.002813 0.005192 0.000000
0.005192 -0.018245 0.000000
0.000000 0.000000 0.000000
-0.003906 -0.000625 0.000000
-0.000625 -0.006089 0.000000
0.000000 0.000000 0.000000
-0.003445 0.002646 0.000000
0.002646 -0.010544 0.000000
0.000000 0.000000 0.000000
0.007962 0.008094 0.000000
0.008094 0.017053 0.000000
0.000000 0.000000 0.000000
0.000316 0.000080 0.000000
0.000080 -0.007980 0.000000
0.000000 0.000000 0.000000
-0.004698 -0.007353 0.000000
-0.007353 0.001029 0.000000
0.000000 0.000000 0.000000
0.004170 -0.002558 0.000000
-0.002558 -0.017724 0.000000
0.000000 0.000000 0.000000
-0.041344 -0.015435 0.000000
-0.015435 -0.007031 0.000000
0.000000 0.000000 0.000000
-0.041156 -0.014431 0.000000
-0.014431 -0.005847 0.000000
0.000000 0.000000 0.000000
-0.006602 -0.002851 0.000000
-0.002851 0.000069 0.000000
0.000000 0.000000 0.000000
-0.007583 0.001389 0.000000
0.001389 -0.005658 0.000000
0.000000 0.000000 0.000000
0.006471 0.000225 0.000000
0.000225 -0.002607 0.000000
0.000000 0.000000 0.000000
-0.014139 0.001360 0.000000
0.001360 -0.004908 0.000000
0.000000 0.000000 0.000000
-0.003605 -0.000088 0.000000
-0.000088 -0.001036 0.000000
0.000000 0.000000 0.000000
-0.010486 -0.006662 0.000000
-0.006662 -0.008701 0.000000
0.000000 0.000000 0.000000
-0.005197 0.008263 0.000000
0.008263 -0.002070 0.000000
0.000000 0.000000 0.000000
0.025558 -0.007613 0.000000
-0.007613 0.009021 0.000000
0.000000 0.000000 0.000000
0.002295 0.002139 0.000000
0.002139 -0.002618 0.000000
0.000000 0.000000 0.000000
0.006595 0.003580 0.000000
0.003580 0.007947 0.000000
0.000000 0.000000 0.000000
0.007468 -0.008079 0.000000
-0.008079 -0.008153 0.000000
0.000000 0.000000 0.000000
0.005151 -0.000585 0.000000
-0.000585 0.009866 0.000000
0.000000 0.000000 0.000000
0.004090 0.005466 0.000000
0.005466 -0.009924 0.000000
0.000000 0.000000 0.000000
0.012634 0.001881 0.000000
0.001881 0.007917 0.000000
0.000000 0.000000 0.000000
0.005833 -0.014065 0.000000
-0.014065 0.012985 0.000000
0.000000 0.000000 0.000000
0.021603 -0.001520 0.000000
-0.001520 -0.013993 0.000000
0.000000 0.000000 0.000000
0.011473 0.004942 0.000000
0.004942 0.001814 0.000000
0.000000 0.000000 0.000000
0.004815 -0.006392 0.000000
-0.006392 0.014301 0.000000
0.000000 0.000000 0.000000
0.021225 -0.000375 0.000000
-0.000375 -0.007812 0.000000
0.000000 0.000000 0.000000
0.014643 0.003370 0.000000
0.003370 -0.000612 0.000000
0.000000 0.000000 0.000000
0.004696 -0.004257 0.000000
-0.004257 0.000290 0.000000
0.000000 0.000000 0.000000
-0.002413 0.002382 0.000000
0.002382 0.009871 0.000000
0.000000 0.000000 0.000000
0.002112 -0.002991 0.000000
-0.002991 -0.011060 0.000000
0.000000 0.000000 0.000000
0.004108 0.004469 0.000000
0.004469 0.005756 0.000000
0.000000 0.000000 0.000000
0.007408 -0.007952 0.000000
-0.007952 -0.007189 0.000000
0.000000 0.000000 0.000000
0.002115 -0.000242 0.000000
-0.000242 -0.004653 0.000000
0.000000 0.000000 0.000000
0.001474 0.004781 0.000000
0.004781 0.015125 0.000000
0.000000 0.000000 0.000000
-0.002302 0.002253 0.000000
0.002253 0.000481 0.000000
0.000000 0.000000 0.000000
-0.002844 -0.004248 0.000000
-0.004248 -0.000840 0.000000
0.000000 0.000000 0.000000
0.001198 -0.000879 0.000000
-0.000879 -0.005923 0.000000
0.000000 0.000000 0.000000
0.005717 0.003535 0.000000
0.003535 -0.002700 0.000000
0.000000 0.000000 0.000000
0.008598 0.001608 0.000000
0.001608 -0.003574 0.000000
0.000000 0.000000 0.000000
0.015272 -0.000542 0.000000
-0.000542 0.004374 0.000000
0.000000 0.000000 0.000000
-0.003866 -0.000837 0.000000
-0.000837 -0.008702 0.000000
0.000000 0.000000 0.000000
-0.008465 -0.000647 0.000000
-0.000647 -0.016993 0.000000
0.000000 0.000000 0.000000
-0.008324 -0.000999 0.000000
-0.000999 -0.000822 0.000000
0.000000 0.000000 0.000000
0.003514 0.005723 0.000000
0.005723 0.003369 0.000000
0.000000 0.000000 0.000000
0.001336 -0.004288 0.000000
-0.004288 0.014342 0.000000
0.000000 0.000000 0.000000
0.011622 0.001483 0.000000
0.001483 0.001120 0.000000
0.000000 0.000000 0.000000
0.018980 -0.003940 0.000000
-0.003940 0.012982 0.000000
0.000000 0.000000 0.000000
-0.005120 -0.001424 0.000000
-0.001424 -0.003778 0.000000
0.000000 0.000000 0.000000
-0.008323 -0.001825 0.000000
-0.001825 0.007885 0.000000
0.000000 0.000000 0.000000
-0.006392 -0.004589 0.000000
-0.004589 0.021717 0.000000
0.000000 0.000000 0.000000
-0.010998 -0.002181 0.000000
-0.002181 0.026745 0.000000
0.000000 0.000000 0.000000
-0.013528 -0.005435 0.000000
-0.005435 0.019740 0.000000
0.000000 0.000000 0.000000
0.002931 0.001897 0.000000
0.001897 0.030634 0.000000
0.000000 0.000000 0.000000
-0.008997 -0.000088 0.000000
-0.000088 -0.026855 0.000000
0.000000 0.000000 0.000000
-0.011504 -0.001413 0.000000
-0.001413 -0.028468 0.000000
0.000000 0.000000 0.000000
0.012004 0.003983 0.000000
0.003983 0.009970 0.000000
0.000000 0.000000 0.000000
0.007345 0.003327 0.000000
0.003327 -0.006851 0.000000
0.000000 0.000000 0.000000
0.014534 -0.000217 0.000000
-0.000217 0.009507 0.000000
0.000000 0.000000 0.000000
-0.007264 -0.001752 0.000000
-0.001752 0.005362 0.000000
0.000000 0.000000 0.000000
-0.006315 -0.012013 0.000000
-0.012013 0.012774 0.000000
0.000000 0.000000 0.000000
0.003949 0.000200 0.000000
0.000200 0.000606 0.000000
0.000000 0.000000 0.000000
-0.013249 -0.001558 0.000000
-0.001558 0.002363 0.000000
0.000000 0.000000 0.000000
-0.005681 -0.005356 0.000000
-0.005356 0.005084 0.000000
0.000000 0.000000 0.000000
0.004403 0.000526 0.000000
0.000526 -0.000854 0.000000
0.000000 0.000000 0.000000
-0.010260 0.000285 0.000000
0.000285 0.000159 0.000000
0.000000 0.000000 0.000000
0.004434 0.001689 0.000000
0.001689 0.003079 0.000000
0.000000 0.000000 0.000000
-0.009525 -0.001611 0.000000
-0.001611 0.010041 0.000000
0.000000 0.000000 0.000000
0.005432 0.000988 0.000000
0.000988 0.001794 0.000000
0.000000 0.000000 0.000000
-0.009609 0.002513 0.000000
0.002513 -0.022716 0.000000
0.000000 0.000000 0.000000
-0.005020 0.002748 0.000000
0.002748 -0.023601 0.000000
0.000000 0.000000 0.000000
-0.001837 -0.010294 0.000000
-0.010294 0.014085 0.000000
0.000000 0.000000 0.000000
-0.005019 -0.007752 0.000000
-0.007752 0.003487 0.000000
0.000000 0.000000 0.000000
-0.005649 0.002023 0.000000
0.002023 0.012297 0.000000
0.000000 0.000000 0.000000
0.030850 0.005619 0.000000
0.005619 0.011624 0.000000
0.000000 0.000000 0.000000
0.018718 -0.011921 0.000000
-0.011921 -0.027515 0.000000
0.000000 0.000000 0.000000
-0.009859 0.010380 0.000000
0.010380 0.006289 0.000000
0.000000 0.000000 0.000000
0.014068 -0.002098 0.000000
-0.002098 -0.001158 0.000000
0.000000 0.000000 0.000000
-0.012813 0.021081 0.000000
0.021081 0.014334 0.000000
0.000000 0.000000 0.000000
-0.001352 0.003498 0.000000
0.003498 -0.016829 0.000000
0.000000 0.000000 0.000000
0.000778 -0.000898 0.000000
-0.000898 0.007857 0.000000
0.000000 0.000000 0.000000
0.011351 0.009946 0.000000
0.009946 -0.006646 0.000000
0.000000 0.000000 0.000000
0.010419 -0.002656 0.000000
-0.002656 0.008630 0.000000
0.000000 0.000000 0.000000
-0.002737 0.003827 0.000000
0.003827 0.007815 0.000000
0.000000 0.000000 0.000000
0.005810 -0.004427 0.000000
-0.004427 0.017132 0.000000
0.000000 0.000000 0.000000
-0.000521 -0.006353 0.000000
-0.006353 -0.017726 0.000000
0.000000 0.000000 0.000000
0.014646 0.006772 0.000000
0.006772 -0.022252 0.000000
0.000000 0.000000 0.000000
-0.006767 0.010803 0.000000
0.010803 -0.000478 0.000000
0.000000 0.000000 0.000000
-0.004134 -0.000821 0.000000
-0.000821 -0.008395 0.000000
0.000000 0.000000 0.000000
-0.006205 -0.001520 0.000000
-0.001520 0.005436 0.000000
0.000000 0.000000 0.000000
0.001147 -0.005450 0.000000
-0.005450 -0.017160 0.000000
0.000000 0.000000 0.000000
-0.004713 0.000212 0.000000
0.000212 -0.007434 0.000000
0.000000 0.000000 0.000000
0.012073 -0.005665 0.000000
-0.005665 0.000516 0.000000
0.000000 0.000000 0.000000
-0.016033 0.000057 0.000000
0.000057 -0.009747 0.000000
0.000000 0.000000 0.000000
0.014308 0.016530 0.000000
0.016530 -0.001201 0.000000
0.000000 0.000000 0.000000
-0.010490 -0.005274 0.000000
-0.005274 0.018542 0.000000
0.000000 0.000000 0.000000
-0.007783 -0.004040 0.000000
-0.004040 0.026750 0.000000
0.000000 0.000000 0.000000
0.001899 0.001980 0.000000
0.001980 -0.005134 0.000000
0.000000 0.000000 0.000000
-0.011750 0.014814 0.000000
0.014814 -0.016658 0.000000
0.000000 0.000000 0.000000
-0.033922 0.001624 0.000000
0.001624 0.007138 0.000000
0.000000 0.000000 0.000000
-0.003343 -0.001176 0.000000
-0.001176 -0.004005 0.000000
0.000000 0.000000 0.000000
0.005912 -0.000533 0.000000
-0.000533 0.000774 0.000000
0.000000 0.000000 0.000000
0.003613 0.007371 0.000000
0.007371 -0.005579 0.000000
0.000000 0.000000 0.000000
-0.022340 0.005588 0.000000
0.005588 -0.012544 0.000000
0.000000 0.000000 0.000000
-0.002430 0.002350 0.000000
0.002350 -0.008039 0.000000
0.000000 0.000000 0.000000
0.013118 -0.001141 0.000000
-0.001141 0.007724 0.000000
0.000000 0.000000 0.000000
-0.007661 0.001712 0.000000
0.001712 -0.004836 0.000000
0.000000 0.000000 0.000000
0.012733 -0.005358 0.000000
-0.005358 -0.016381 0.000000
0.000000 0.000000 0.000000
0.000937 0.009169 0.000000
0.009169 -0.020328 0.000000
0.000000 0.000000 0.000000
-0.011997 -0.003467 0.000000
-0.003467 0.001916 0.000000
0.000000 0.000000 0.000000
-0.002181 0.010717 0.000000
0.010717 -0.004647 0.000000
0.000000 0.000000 0.000000
-0.024145 -0.000419 0.000000
-0.000419 -0.002965 0.000000
0.000000 0.000000 0.000000
-0.000817 0.002351 0.000000
0.002351 0.006091 0.000000
0.000000 0.000000 0.000000
0.002307 -0.000311 0.000000
-0.000311 0.000270 0.000000
0.000000 0.000000 0.000000
-0.020720 -0.009916 0.000000
-0.009916 0.016433 0.000000
0.000000 0.000000 0.000000
0.013270 -0.001420 0.000000
-0.001420 0.027913 0.000000
0.000000 0.000000 0.000000
0.002150 0.007538 0.000000
0.007538 -0.001343 0.000000
0.000000 0.000000 0.000000
-0.000636 -0.015180 0.000000
-0.015180 -0.007070 0.000000
0.000000 0.000000 0.000000
-0.003196 0.004265 0.000000
0.004265 0.002994 0.000000
0.000000 0.000000 0.000000
0.004573 0.004477 0.000000
0.004477 -0.019408 0.000000
0.000000 0.000000 0.000000
-0.001477 -0.003638 0.000000
-0.003638 -0.008969 0.000000
0.000000 0.000000 0.000000
-0.002888 0.001024 0.000000
0.001024 -0.001080 0.000000
0.000000 0.000000 0.000000
-0.000557 0.000894 0.000000
0.000894 -0.008694 0.000000
0.000000 0.000000 0.000000
-0.001303 -0.001154 0.000000
-0.001154 -0.002921 0.000000
0.000000 0.000000 0.000000
0.005519 0.005484 0.000000
0.005484 0.000625 0.000000
0.000000 0.000000 0.000000
-0.004724 0.010979 0.000000
0.010979 0.008718 0.000000
0.000000 0.000000 0.000000
0.000348 0.006277 0.000000
0.006277 0.006884 0.000000
0.000000 0.000000 0.000000
0.000891 0.005923 0.000000
0.005923 0.007580 0.000000
0.000000 0.000000 0.000000
0.006778 -0.001820 0.000000
-0.001820 0.001388 0.000000
0.000000 0.000000 0.000000
0.010621 -0.003413 0.000000
-0.003413 -0.015384 0.000000
0.000000 0.000000 0.000000
-0.010554 -0.002756 0.000000
-0.002756 0.000048 0.000000
0.000000 0.000000 0.000000
0.009478 -0.000976 0.000000
-0.000976 -0.018031 0.000000
0.000000 0.000000 0.000000
-0.021477 -0.006167 0.000000
-0.006167 0.006098 0.000000
0.000000 0.000000 0.000000
-0.000016 0.000862 0.000000
0.000862 0.001186 0.000000
0.000000 0.000000 0.000000
0.003196 0.006703 0.000000
0.006703 -0.026995 0.000000
0.000000 0.000000 0.000000
-0.037705 -0.005175 0.000000
-0.005175 -0.000702 0.000000
0.000000 0.000000 0.000000
0.007592 0.002930 0.000000
0.002930 0.002578 0.000000
0.000000 0.000000 0.000000
0.009160 -0.000605 0.000000
-0.000605 0.001253 0.000000
0.000000 0.000000 0.000000
-0.005942 0.000645 0.000000
0.000645 0.001069 0.000000
0.000000 0.000000 0.000000
-0.000056 -0.002264 0.000000
-0.002264 0.002849 0.000000
0.000000 0.000000 0.000000
-0.002036 0.001618 0.000000
0.001618 0.002625 0.000000
0.000000 0.000000 0.000000
-0.005304 -0.000423 0.000000
-0.000423 -0.027891 0.000000
0.000000 0.000000 0.000000
-0.012652 -0.009544 0.000000
-0.009544 0.007973 0.000000
0.000000 0.000000 0.000000
-0.004211 0.000232 0.000000
0.000232 -0.026621 0.000000
0.000000 0.000000 0.000000
0.010442 -0.001416 0.000000
-0.001416 -0.008818 0.000000
0.000000 0.000000 0.000000
-0.015830 0.008500 0.000000
0.008500 0.009585 0.000000
0.000000 0.000000 0.000000
-0.004910 0.003111 0.000000
0.003111 -0.005338 0.000000
0.000000 0.000000 0.000000
-0.001523 -0.005090 0.000000
-0.005090 -0.002379 0.000000
0.000000 0.000000 0.000000
-0.002468 0.002393 0.000000
0.002393 -0.009598 0.000000
0.000000 0.000000 0.000000
0.005570 0.006949 0.000000
0.006949 -0.001925 0.000000
0.000000 0.000000 0.000000
-0.021663 0.000663 0.000000
0.000663 0.005291 0.000000
0.000000 0.000000 0.000000
0.008555 0.003785 0.000000
0.003785 0.006824 0.000000
0.000000 0.000000 0.000000
-0.006663 -0.007005 0.000000
-0.007005 -0.018109 0.000000
0.000000 0.000000 0.000000
0.002803 -0.000857 0.000000
-0.000857 -0.002894 0.000000
0.000000 0.000000 0.000000
0.004754 -0.000866 0.000000
-0.000866 -0.005629 0.000000
0.000000 0.000000 0.000000
-0.008936 0.000030 0.000000
0.000030 0.008337 0.000000
0.000000 0.000000 0.000000
-0.005633 -0.000630 0.000000
-0.000630 -0.033048 0.000000
0.000000 0.000000 0.000000
0.002665 -0.003898 0.000000
-0.003898 0.002247 0.000000
0.000000 0.000000 0.000000
-0.002347 -0.012753 0.000000
-0.012753 -0.005432 0.000000
0.000000 0.000000 0.000000
-0.000090 0.000821 0.000000
0.000821 -0.008054 0.000000
0.000000 0.000000 0.000000
0.007686 0.001087 0.000000
0.001087 0.003953 0.000000
0.000000 0.000000 0.000000
-0.004680 -0.001866 0.000000
-0.001866 -0.014950 0.000000
0.000000 0.000000 0.000000
0.008435 0.003286 0.000000
0.003286 -0.004270 0.000000
0.000000 0.000000 0.000000
-0.007705 0.000267 0.000000
0.000267 -0.013339 0.000000
0.000000 0.000000 0.000000
0.017976 -0.002882 0.000000
-0.002882 0.014328 0.000000
0.000000 0.000000 0.000000
-0.000615 -0.001167 0.000000
-0.001167 -0.006979 0.000000
0.000000 0.000000 0.000000
0.000889 -0.001207 0.000000
-0.001207 -0.001425 0.000000
0.000000 0.000000 0.000000
0.014911 0.000851 0.000000
0.000851 0.019962 0.000000
0.000000 0.000000 0.000000
-0.000922 -0.001464 0.000000
-0.001464 -0.003268 0.000000
0.000000 0.000000 0.000000
0.007142 0.002756 0.000000
0.002756 0.009500 0.000000
0.000000 0.000000 0.000000
-0.010132 -0.010504 0.000000
-0.010504 -0.003517 0.000000
0.000000 0.000000 0.000000
0.043088 -0.012314 0.000000
-0.012314 -0.005541 0.000000
0.000000 0.000000 0.000000
0.002249 0.004568 0.000000
0.004568 0.006419 0.000000
0.000000 0.000000 0.000000
-0.009617 0.003582 0.000000
0.003582 0.010083 0.000000
0.000000 0.000000 0.000000
0.001277 0.003281 0.000000
0.003281 -0.010509 0.000000
0.000000 0.000000 0.000000
-0.015655 -0.000715 0.000000
-0.000715 0.020256 0.000000
0.000000 0.000000 0.000000
0.000139 -0.001488 0.000000
-0.001488 -0.006113 0.000000
0.000000 0.000000 0.000000
0.000079 -0.003001 0.000000
-0.003001 -0.000481 0.000000
0.000000 0.000000 0.000000
0.006587 0.008157 0.000000
0.008157 0.010216 0.000000
0.000000 0.000000 0.000000
-0.002866 -0.003923 0.000000
-0.003923 -0.001455 0.000000
0.000000 0.000000 0.000000
-0.018361 -0.003148 0.000000
-0.003148 -0.003116 0.000000
0.000000 0.000000 0.000000
-0.001408 0.000144 0.000000
0.000144 -0.005276 0.000000
0.000000 0.000000 0.000000
-0.007886 0.006958 0.000000
0.006958 -0.020117 0.000000
0.000000 0.000000 0.000000
-0.000203 0.004219 0.000000
0.004219 0.000370 0.000000
0.000000 0.000000 0.000000
-0.027889 -0.015366 0.000000
-0.015366 -0.005031 0.000000
0.000000 0.000000 0.000000
-0.023015 0.008181 0.000000
0.008181 -0.027029 0.000000
0.000000 0.000000 0.000000
-0.020795 0.004241 0.000000
0.004241 -0.012845 0.000000
0.000000 0.000000 0.000000
0.024073 0.002409 0.000000
0.002409 0.024170 0.000000
0.000000 0.000000 0.000000
-0.001301 -0.002854 0.000000
-0.002854 0.004397 0.000000
0.000000 0.000000 0.000000
0.007780 0.008734 0.000000
0.008734 0.007935 0.000000
0.000000 0.000000 0.000000
0.005280 -0.006181 0.000000
-0.006181 0.004528 0.000000
0.000000 0.000000 0.000000
-0.000333 0.002231 0.000000
0.002231 0.006211 0.000000
0.000000 0.000000 0.000000
0.010668 0.002132 0.000000
0.002132 0.008660 0.000000
0.000000 0.000000 0.000000
-0.002395 0.009645 0.000000
0.009645 0.022067 0.000000
0.000000 0.000000 0.000000
0.009055 0.000102 0.000000
0.000102 0.004355 0.000000
0.000000 0.000000 0.000000
0.017710 -0.006952 0.000000
-0.006952 0.005958 0.000000
0.000000 0.000000 0.000000
0.012970 0.003806 0.000000
0.003806 0.006597 0.000000
0.000000 0.000000 0.000000
0.006951 0.000558 0.000000
0.000558 -0.001908 0.000000
0.000000 0.000000 0.000000
-0.015237 0.000051 0.000000
0.000051 -0.010689 0.000000
0.000000 0.000000 0.000000
-0.004924 0.000808 0.000000
0.000808 -0.008880 0.000000
0.000000 0.000000 0.000000
-0.000738 0.002983 0.000000
0.002983 0.004541 0.000000
0.000000 0.000000 0.000000
0.002800 0.003941 0.000000
0.003941 -0.017861 0.000000
0.000000 0.000000 0.000000
0.014572 0.002477 0.000000
0.002477 -0.016858 0.000000
0.000000 0.000000 0.000000
-0.000068 0.004253 0.000000
0.004253 0.001932 0.000000
0.000000 0.000000 0.000000
-0.013033 0.000950 0.000000
0.000950 -0.004650 0.000000
0.000000 0.000000 0.000000
0.004818 0.016442 0.000000
0.016442 0.012202 0.000000
0.000000 0.000000 0.000000
-0.019785 -0.004820 0.000000
-0.004820 -0.006286 0.000000
0.000000 0.000000 0.000000
-0.006775 0.000762 0.000000
0.000762 0.003430 0.000000
0.000000 0.000000 0.000000
-0.003436 -0.001539 0.000000
-0.001539 0.007425 0.000000
0.000000 0.000000 0.000000
0.011086 -0.000433 0.000000
-0.000433 0.010044 0.000000
0.000000 0.000000 0.000000
-0.003716 -0.000230 0.000000
-0.000230 0.004257 0.000000
0.000000 0.000000 0.000000
0.019822 0.006558 0.000000
0.006558 0.021330 0.000000
0.000000 0.000000 0.000000
0.011530 -0.004988 0.000000
-0.004988 0.017737 0.000000
0.000000 0.000000 0.000000
-0.033909 0.005790 0.000000
0.005790 -0.013284 0.000000
0.000000 0.000000 0.000000
0.017348 -0.001438 0.000000
-0.001438 0.003619 0.000000
0.000000 0.000000 0.000000
0.008373 -0.000056 0.000000
-0.000056 -0.024004 0.000000
0.000000 0.000000 0.000000
0.003569 -0.008242 0.000000
-0.008242 -0.005149 0.000000
0.000000 0.000000 0.000000
-0.000733 0.002150 0.000000
0.002150 0.006692 0.000000
0.000000 0.000000 0.000000
-0.008075 0.001270 0.000000
0.001270 -0.009874 0.000000
0.000000 0.000000 0.000000
-0.004188 0.004354 0.000000
0.004354 -0.000609 0.000000
0.000000 0.000000 0.000000
0.005413 0.001993 0.000000
0.001993 0.006213 0.000000
0.000000 0.000000 0.000000
-0.001532 -0.001698 0.000000
-0.001698 -0.021762 0.000000
0.000000 0.000000 0.000000
-0.022068 -0.020526 0.000000
-0.020526 0.006125 0.000000
0.000000 0.000000 0.000000
-0.004125 0.000086 0.000000
0.000086 -0.013242 0.000000
0.000000 0.000000 0.000000
0.009012 -0.006412 0.000000
-0.006412 0.002900 0.000000
0.000000 0.000000 0.000000
0.001192 -0.001752 0.000000
-0.001752 -0.011851 0.000000
0.000000 0.000000 0.000000
-0.013837 0.007703 0.000000
0.007703 0.023970 0.000000
0.000000 0.000000 0.000000
-0.000989 0.004848 0.000000
0.004848 0.000070 0.000000
0.000000 0.000000 0.000000
-0.005650 0.005002 0.000000
0.005002 0.013909 0.000000
0.000000 0.000000 0.000000
-0.000517 0.003038 0.000000
0.003038 0.000391 0.000000
0.000000 0.000000 0.000000
-0.010741 -0.001523 0.000000
-0.001523 -0.019550 0.000000
0.000000 0.000000 0.000000
-0.001444 0.001413 0.000000
0.001413 -0.000380 0.000000
0.000000 0.000000 0.000000
0.001128 -0.001410 0.000000
-0.001410 -0.011088 0.000000
0.000000 0.000000 0.000000
0.002410 -0.009550 0.000000
-0.009550 -0.002256 0.000000
0.000000 0.000000 0.000000
0.013022 -0.006160 0.000000
-0.006160 0.010029 0.000000
0.000000 0.000000 0.000000
0.006773 -0.002207 0.000000
-0.002207 0.001275 0.000000
0.000000 0.000000 0.000000
-0.003226 -0.000241 0.000000
-0.000241 -0.001447 0.000000
0.000000 0.000000 0.000000
-0.004746 0.002354 0.000000
0.002354 0.003346 0.000000
0.000000 0.000000 0.000000
0.010198 0.014602 0.000000
0.014602 0.013175 0.000000
0.000000 0.000000 0.000000
0.006054 0.011391 0.000000
0.011391 -0.005722 0.000000
0.000000 0.000000 0.000000
-0.001277 -0.005720 0.000000
-0.005720 0.000561 0.000000
0.000000 0.000000 0.000000
-0.004092 0.002459 0.000000
0.002459 0.007297 0.000000
0.000000 0.000000 0.000000
0.004334 -0.003646 0.000000
-0.003646 0.011211 0.000000
0.000000 0.000000 0.000000
-0.004981 0.000922 0.000000
0.000922 0.008825 0.000000
0.000000 0.000000 0.000000
0.009083 -0.007254 0.000000
-0.007254 0.004144 0.000000
0.000000 0.000000 0.000000
0.008684 -0.003112 0.000000
-0.003112 0.007723 0.000000
0.000000 0.000000 0.000000
-0.001288 -0.002200 0.000000
-0.002200 -0.004296 0.000000
0.000000 0.000000 0.000000
-0.010617 -0.008062 0.000000
-0.008062 0.000956 0.000000
0.000000 0.000000 0.000000
-0.007791 -0.002847 0.000000
-0.002847 0.005230 0.000000
0.000000 0.000000 0.000000
0.014038 0.022959 0.000000
0.022959 -0.007568 0.000000
0.000000 0.000000 0.000000
-0.011044 -0.000403 0.000000
-0.000403 -0.017361 0.000000
0.000000 0.000000 0.000000
0.013692 0.022695 0.000000
0.022695 -0.000277 0.000000
0.000000 0.000000 0.000000
0.003099 -0.000606 0.000000
-0.000606 0.007411 0.000000
0.000000 0.000000 0.000000
0.024876 0.016991 0.000000
0.016991 0.009769 0.000000
0.000000 0.000000 0.000000
0.002233 0.000944 0.000000
0.000944 -0.014113 0.000000
0.000000 0.000000 0.000000
-0.008405 0.000089 0.000000
0.000089 -0.004031 0.000000
0.000000 0.000000 0.000000
-0.005782 0.001916 0.000000
0.001916 -0.001937 0.000000
0.000000 0.000000 0.000000
-0.015583 0.003289 0.000000
0.003289 -0.010957 0.000000
0.000000 0.000000 0.000000
-0.000798 -0.010929 0.000000
-0.010929 -0.004084 0.000000
0.000000 0.000000 0.000000
0.004236 -0.013871 0.000000
-0.013871 0.001578 0.000000
0.000000 0.000000 0.000000
0.010224 0.005040 0.000000
0.005040 0.012895 0.000000
0.000000 0.000000 0.000000
0.008979 -0.002935 0.000000
-0.002935 0.005386 0.000000
0.000000 0.000000 0.000000
-0.020983 -0.017914 0.000000
-0.017914 0.021987 0.000000
0.000000 0.000000 0.000000
-0.010196 0.004095 0.000000
0.004095 -0.013230 0.000000
0.000000 0.000000 0.000000
-0.006341 0.005712 0.000000
0.005712 -0.003172 0.000000
0.000000 0.000000 0.000000
0.000097 0.002542 0.000000
0.002542 0.000715 0.000000
0.000000 0.000000 0.000000
0.016223 0.005985 0.000000
0.005985 0.014038 0.000000
0.000000 0.000000 0.000000
0.006714 0.003554 0.000000
0.003554 -0.000449 0.000000
0.000000 0.000000 0.000000
0.005484 -0.005910 0.000000
-0.005910 0.014783 0.000000
0.000000 0.000000 0.000000
-0.016278 0.008239 0.000000
0.008239 -0.011229 0.000000
0.000000 0.000000 0.000000
-0.013011 0.002306 0.000000
0.002306 0.008166 0.000000
0.000000 0.000000 0.000000
0.021725 -0.004184 0.000000
-0.004184 0.008171 0.000000
0.000000 0.000000 0.000000
0.013383 -0.008091 0.000000
-0.008091 -0.011191 0.000000
0.000000 0.000000 0.000000
-0.005501 0.002245 0.000000
0.002245 0.007574 0.000000
0.000000 0.000000 0.000000
0.001173 -0.004792 0.000000
-0.004792 -0.005884 0.000000
0.000000 0.000000 0.000000
0.022018 -0.007844 0.000000
-0.007844 -0.009861 0.000000
0.000000 0.000000 0.000000
-0.004459 -0.000975 0.000000
-0.000975 -0.009983 0.000000
0.000000 0.000000 0.000000
-0.007799 0.006010 0.000000
0.006010 -0.010129 0.000000
0.000000 0.000000 0.000000
0.031400 0.010252 0.000000
0.010252 0.015495 0.000000
0.000000 0.000000 0.000000
0.024184 0.014770 0.000000
0.014770 0.004589 0.000000
0.000000 0.000000 0.000000
-0.015524 0.001508 0.000000
0.001508 -0.017986 0.000000
0.000000 0.000000 0.000000
-0.005716 0.000568 0.000000
0.000568 -0.013453 0.000000
0.000000 0.000000 0.000000
-0.004299 0.003050 0.000000
0.003050 -0.000663 0.000000
0.000000 0.000000 0.000000
-0.014999 -0.006191 0.000000
-0.006191 0.009496 0.000000
0.000000 0.000000 0.000000
-0.001468 -0.002445 0.000000
-0.002445 0.002743 0.000000
0.000000 0.000000 0.000000
0.014426 -0.006829 0.000000
-0.006829 -0.003640 0.000000
0.000000 0.000000 0.000000
-0.024015 -0.000528 0.000000
-0.000528 -0.008148 0.000000
0.000000 0.000000 0.000000
-0.022746 -0.000952 0.000000
-0.000952 -0.003482 0.000000
0.000000 0.000000 0.000000
0.010619 0.002817 0.000000
0.002817 0.002641 0.000000
0.000000 0.000000 0.000000
-0.008654 0.000557 0.000000
0.000557 -0.005323 0.000000
0.000000 0.000000 0.000000
-0.002070 -0.007484 0.000000
-0.007484 -0.000043 0.000000
0.000000 0.000000 0.000000
-0.010957 -0.005120 0.000000
-0.005120 0.002883 0.000000
0.000000 0.000000 0.000000
0.010449 0.006492 0.000000
0.006492 -0.010025 0.000000
0.000000 0.000000 0.000000
0.001565 0.004818 0.000000
0.004818 -0.008911 0.000000
0.000000 0.000000 0.000000
-0.000153 -0.001913 0.000000
-0.001913 0.000857 0.000000
0.000000 0.000000 0.000000
-0.017818 0.005494 0.000000
0.005494 0.000035 0.000000
0.000000 0.000000 0.000000
-0.018211 0.011848 0.000000
0.011848 -0.005131 0.000000
0.000000 0.000000 0.000000
0.000393 -0.001482 0.000000
-0.001482 -0.025703 0.000000
0.000000 0.000000 0.000000
0.006492 -0.004230 0.000000
-0.004230 0.028028 0.000000
0.000000 0.000000 0.000000
-0.005972 0.001249 0.000000
0.001249 -0.012821 0.000000
0.000000 0.000000 0.000000
-0.000827 0.005038 0.000000
0.005038 -0.009507 0.000000
0.000000 0.000000 0.000000
0.006889 -0.004439 0.000000
-0.004439 0.011326 0.000000
0.000000 0.000000 0.000000
-0.000473 0.003107 0.000000
0.003107 -0.013822 0.000000
0.000000 0.000000 0.000000
0.014635 -0.005760 0.000000
-0.005760 0.008972 0.000000
0.000000 0.000000 0.000000
0.021378 -0.003121 0.000000
-0.003121 -0.003788 0.000000
0.000000 0.000000 0.000000
0.009642 -0.000791 0.000000
-0.000791 0.012325 0.000000
0.000000 0.000000 0.000000
0.011186 -0.007625 0.000000
-0.007625 -0.010490 0.000000
0.000000 0.000000 0.000000
0.011982 -0.001767 0.000000
-0.001767 -0.005609 0.000000
0.000000 0.000000 0.000000
-0.012182 -0.001815 0.000000
-0.001815 -0.002796 0.000000
0.000000 0.000000 0.000000
-0.011957 0.005550 0.000000
0.005550 -0.004187 0.000000
0.000000 0.000000 0.000000
-0.001056 -0.000480 0.000000
-0.000480 0.007496 0.000000
0.000000 0.000000 0.000000
0.000031 0.007674 0.000000
0.007674 0.006834 0.000000
0.000000 0.000000 0.000000
-0.008722 0.001231 0.000000
0.001231 -0.020513 0.000000
0.000000 0.000000 0.000000
-0.007415 0.005017 0.000000
0.005017 -0.007920 0.000000
0.000000 0.000000 0.000000
0.007167 -0.004980 0.000000
-0.004980 0.009636 0.000000
0.000000 0.000000 0.000000
-0.005496 0.002882 0.000000
0.002882 -0.016424 0.000000
0.000000 0.000000 0.000000
-0.002286 0.002094 0.000000
0.002094 -0.005354 0.000000
0.000000 0.000000 0.000000
-0.010668 -0.002475 0.000000
-0.002475 0.017254 0.000000
0.000000 0.000000 0.000000
-0.000493 0.004475 0.000000
0.004475 -0.015559 0.000000
0.000000 0.000000 0.000000
0.016058 0.008135 0.000000
0.008135 0.005231 0.000000
0.000000 0.000000 0.000000
0.004934 -0.002423 0.000000
-0.002423 0.018657 0.000000
0.000000 0.000000 0.000000
0.006635 0.000269 0.000000
0.000269 0.001145 0.000000
0.000000 0.000000 0.000000
0.010960 0.012377 0.000000
0.012377 0.000430 0.000000
0.000000 0.000000 0.000000
-0.005987 -0.003684 0.000000
-0.003684 -0.002972 0.000000
0.000000 0.000000 0.000000
-0.012719 -0.003220 0.000000
-0.003220 0.014757 0.000000
0.000000 0.000000 0.000000
0.002939 -0.000059 0.000000
-0.000059 -0.007324 0.000000
0.000000 0.000000 0.000000
0.014379 0.011700 0.000000
0.011700 0.003330 0.000000
0.000000 0.000000 0.000000
-0.004797 -0.003541 0.000000
-0.003541 -0.022142 0.000000
0.000000 0.000000 0.000000
0.004213 0.001412 0.000000
0.001412 0.015052 0.000000
0.000000 0.000000 0.000000
-0.002045 0.004201 0.000000
0.004201 -0.015046 0.000000
0.000000 0.000000 0.000000
0.010315 -0.007898 0.000000
-0.007898 -0.002501 0.000000
0.000000 0.000000 0.000000
-0.006831 0.000053 0.000000
0.000053 -0.013866 0.000000
0.000000 0.000000 0.000000
0.013628 -0.003368 0.000000
-0.003368 -0.004556 0.000000
0.000000 0.000000 0.000000
0.008076 -0.000704 0.000000
-0.000704 0.012197 0.000000
0.000000 0.000000 0.000000
-0.001166 0.003463 0.000000
0.003463 0.012014 0.000000
0.000000 0.000000 0.000000
0.037242 -0.004795 0.000000
-0.004795 -0.006580 0.000000
0.000000 0.000000 0.000000
0.003770 0.007047 0.000000
0.007047 -0.000932 0.000000
0.000000 0.000000 0.000000
0.003263 0.008727 0.000000
0.008727 -0.027977 0.000000
0.000000 0.000000 0.000000
0.006728 0.008958 0.000000
0.008958 -0.008137 0.000000
0.000000 0.000000 0.000000
0.007359 -0.001254 0.000000
-0.001254 0.000390 0.000000
0.000000 0.000000 0.000000
0.021412 0.001709 0.000000
0.001709 0.010213 0.000000
0.000000 0.000000 0.000000
-0.001170 -0.011212 0.000000
-0.011212 -0.005141 0.000000
0.000000 0.000000 0.000000
-0.001626 -0.001670 0.000000
-0.001670 0.006147 0.000000
0.000000 0.000000 0.000000
0.021496 -0.019784 0.000000
-0.019784 -0.000836 0.000000
0.000000 0.000000 0.000000
-0.012441 -0.004339 0.000000
-0.004339 0.021870 0.000000
0.000000 0.000000 0.000000
0.004321 -0.000215 0.000000
-0.000215 -0.009019 0.000000
0.000000 0.000000 0.000000
0.001367 0.001446 0.000000
0.001446 -0.002872 0.000000
0.000000 0.000000 0.000000
0.008868 -0.011172 0.000000
-0.011172 -0.017924 0.000000
0.000000 0.000000 0.000000
-0.004802 -0.002326 0.000000
-0.002326 0.010769 0.000000
0.000000 0.000000 0.000000
0.012626 -0.005839 0.000000
-0.005839 0.008886 0.000000
0.000000 0.000000 0.000000
-0.017772 -0.004823 0.000000
-0.004823 0.010210 0.000000
0.000000 0.000000 0.000000
0.004020 -0.006500 0.000000
-0.006500 -0.002225 0.000000
0.000000 0.000000 0.000000
0.004347 0.000861 0.000000
0.000861 0.016202 0.000000
0.000000 0.000000 0.000000
0.003655 0.000517 0.000000
0.000517 0.015611 0.000000
0.000000 0.000000 0.000000
0.003574 0.001329 0.000000
0.001329 0.015538 0.000000
0.000000 0.000000 0.000000
-0.006928 -0.002431 0.000000
-0.002431 0.010788 0.000000
0.000000 0.000000 0.000000
-0.002246 -0.007816 0.000000
-0.007816 0.000468 0.000000
0.000000 0.000000 0.000000
-0.012360 -0.006017 0.000000
-0.006017 0.025122 0.000000
0.000000 0.000000 0.000000
0.006149 -0.008660 0.000000
-0.008660 0.004340 0.000000
0.000000 0.000000 0.000000
0.007126 0.000567 0.000000
0.000567 -0.003077 0.000000
0.000000 0.000000 0.000000
-0.000383 0.003186 0.000000
0.003186 -0.004868 0.000000
0.000000 0.000000 0.000000
0.007982 0.003631 0.000000
0.003631 -0.024575 0.000000
0.000000 0.000000 0.000000
0.010575 -0.004333 0.000000
-0.004333 0.001105 0.000000
0.000000 0.000000 0.000000
-0.000496 0.002258 0.000000
0.002258 0.009780 0.000000
0.000000 0.000000 0.000000
0.002034 -0.003104 0.000000
-0.003104 -0.011416 0.000000
0.000000 0.000000 0.000000
0.001656 0.002164 0.000000
0.002164 -0.010709 0.000000
0.000000 0.000000 0.000000
-0.022995 0.008982 0.000000
0.008982 -0.017646 0.000000
0.000000 0.000000 0.000000
-0.004971 0.002651 0.000000
0.002651 -0.007860 0.000000
0.000000 0.000000 0.000000
-0.015577 0.011376 0.000000
0.011376 -0.021030 0.000000
0.000000 0.000000 0.000000
0.002931 0.005391 0.000000
0.005391 0.005476 0.000000
0.000000 0.000000 0.000000
0.001611 0.008411 0.000000
0.008411 -0.025189 0.000000
0.000000 0.000000 0.000000
0.004787 0.003202 0.000000
0.003202 0.010902 0.000000
0.000000 0.000000 0.000000
0.005384 0.006375 0.000000
0.006375 -0.014505 0.000000
0.000000 0.000000 0.000000
0.005834 0.003923 0.000000
0.003923 0.012718 0.000000
0.000000 0.000000 0.000000
0.003022 0.007415 0.000000
0.007415 0.015116 0.000000
0.000000 0.000000 0.000000
0.013187 0.005236 0.000000
0.005236 0.000787 0.000000
0.000000 0.000000 0.000000
-0.008227 0.004036 0.000000
0.004036 -0.003675 0.000000
0.000000 0.000000 0.000000
-0.026010 0.004935 0.000000
0.004935 0.000416 0.000000
0.000000 0.000000 0.000000
0.011046 -0.004572 0.000000
-0.004572 0.009376 0.000000
0.000000 0.000000 0.000000
-0.001891 0.001189 0.000000
0.001189 -0.003776 0.000000
0.000000 0.000000 0.000000
-0.025242 0.009506 0.000000
0.009506 0.005351 0.000000
0.000000 0.000000 0.000000
0.002058 -0.007538 0.000000
-0.007538 0.006924 0.000000
0.000000 0.000000 0.000000
0.002587 0.000254 0.000000
0.000254 0.000900 0.000000
0.000000 0.000000 0.000000
-0.018148 -0.016602 0.000000
-0.016602 -0.001633 0.000000
0.000000 0.000000 0.000000
-0.000344 0.003719 0.000000
0.003719 -0.005993 0.000000
0.000000 0.000000 0.000000
-0.020965 0.004350 0.000000
0.004350 0.003601 0.000000
0.000000 0.000000 0.000000
-0.000715 0.003534 0.000000
0.003534 0.006232 0.000000
0.000000 0.000000 0.000000
0.008314 0.003385 0.000000
0.003385 0.002795 0.000000
0.000000 0.000000 0.000000
-0.004900 0.003397 0.000000
0.003397 -0.007565 0.000000
0.000000 0.000000 0.000000
-0.004256 -0.007989 0.000000
-0.007989 0.004347 0.000000
0.000000 0.000000 0.000000
-0.003725 0.000923 0.000000
0.000923 -0.008205 0.000000
0.000000 0.000000 0.000000
0.015261 0.013805 0.000000
0.013805 -0.002986 0.000000
0.000000 0.000000 0.000000
0.002856 0.002975 0.000000
0.002975 0.018778 0.000000
0.000000 0.000000 0.000000
0.001900 0.000062 0.000000
0.000062 -0.001694 0.000000
0.000000 0.000000 0.000000
-0.008369 -0.001245 0.000000
-0.001245 0.000581 0.000000
0.000000 0.000000 0.000000
-0.003517 -0.012168 0.000000
-0.012168 -0.004328 0.000000
0.000000 0.000000 0.000000
-0.010455 0.000532 0.000000
0.000532 -0.000998 0.000000
0.000000 0.000000 0.000000
0.001930 0.000186 0.000000
0.000186 -0.001854 0.000000
0.000000 0.000000 0.000000
0.001837 0.002370 0.000000
0.002370 0.000500 0.000000
0.000000 0.000000 0.000000
0.000746 -0.004550 0.000000
-0.004550 -0.006974 0.000000
0.000000 0.000000 0.000000
-0.005380 -0.002291 0.000000
-0.002291 -0.008346 0.000000
0.000000 0.000000 0.000000
-0.000586 -0.005422 0.000000
-0.005422 -0.003281 0.000000
0.000000 0.000000 0.000000
-0.004166 -0.006860 0.000000
-0.006860 -0.007808 0.000000
0.000000 0.000000 0.000000
-0.006902 -0.005913 0.000000
-0.005913 -0.007390 0.000000
0.000000 0.000000 0.000000
0.013334 0.009754 0.000000
0.009754 0.005023 0.000000
0.000000 0.000000 0.000000
0.015972 -0.008191 0.000000
-0.008191 -0.011120 0.000000
0.000000 0.000000 0.000000
0.003646 -0.002194 0.000000
-0.002194 -0.012925 0.000000
0.000000 0.000000 0.000000
-0.011285 -0.004801 0.000000
-0.004801 0.007323 0.000000
0.000000 0.000000 0.000000
-0.002285 -0.002919 0.000000
-0.002919 -0.004095 0.000000
0.000000 0.000000 0.000000
0.012599 0.006224 0.000000
0.006224 -0.019146 0.000000
0.000000 0.000000 0.000000
0.000704 -0.000819 0.000000
-0.000819 -0.002118 0.000000
0.000000 0.000000 0.000000
-0.005299 -0.000590 0.000000
-0.000590 -0.010601 0.000000
0.000000 0.000000 0.000000
-0.007855 -0.004865 0.000000
-0.004865 -0.010826 0.000000
0.000000 0.000000 0.000000
0.006764 0.002912 0.000000
0.002912 0.020121 0.000000
0.000000 0.000000 0.000000
-0.019242 -0.001837 0.000000
-0.001837 -0.001031 0.000000
0.000000 0.000000 0.000000
0.004415 0.003227 0.000000
0.003227 -0.001697 0.000000
0.000000 0.000000 0.000000
0.018841 -0.005733 0.000000
-0.005733 0.022000 0.000000
0.000000 0.000000 0.000000
0.006340 0.000619 0.000000
0.000619 0.026683 0.000000
0.000000 0.000000 0.000000
-0.014387 0.004421 0.000000
0.004421 -0.010057 0.000000
0.000000 0.000000 0.000000
0.000589 0.019320 0.000000
0.019320 -0.002057 0.000000
0.000000 0.000000 0.000000
0.005138 0.001598 0.000000
0.001598 -0.003022 0.000000
0.000000 0.000000 0.000000
-0.006231 0.002644 0.000000
0.002644 0.002139 0.000000
0.000000 0.000000 0.000000
-0.003408 -0.004453 0.000000
-0.004453 -0.001882 0.000000
0.000000 0.000000 0.000000
0.005821 0.002991 0.000000
0.002991 -0.004262 0.000000
0.000000 0.000000 0.000000
-0.006234 -0.004209 0.000000
-0.004209 -0.016168 0.000000
0.000000 0.000000 0.000000
-0.001329 -0.008422 0.000000
-0.008422 0.000227 0.000000
0.000000 0.000000 0.000000
0.002705 -0.002913 0.000000
-0.002913 0.011016 0.000000
0.000000 0.000000 0.000000
0.002571 0.000609 0.000000
0.000609 0.014185 0.000000
0.000000 0.000000 0.000000
-0.022054 -0.005756 0.000000
-0.005756 0.009363 0.000000
0.000000 0.000000 0.000000
0.005510 0.006221 0.000000
0.006221 0.034077 0.000000
0.000000 0.000000 0.000000
0.007877 0.003131 0.000000
0.003131 0.025989 0.000000
0.000000 0.000000 0.000000
0.012435 0.000196 0.000000
0.000196 0.034832 0.000000
0.000000 0.000000 0.000000
0.011706 -0.002002 0.000000
-0.002002 0.002845 0.000000
0.000000 0.000000 0.000000
0.005205 -0.004195 0.000000
-0.004195 0.007812 0.000000
0.000000 0.000000 0.000000
-0.005727 -0.005186 0.000000
-0.005186 -0.002623 0.000000
0.000000 0.000000 0.000000
-0.001124 -0.000986 0.000000
-0.000986 -0.000021 0.000000
0.000000 0.000000 0.000000
0.008042 -0.010498 0.000000
-0.010498 0.012502 0.000000
0.000000 0.000000 0.000000
0.006796 0.004462 0.000000
0.004462 -0.019837 0.000000
0.000000 0.000000 0.000000
-0.019329 -0.007736 0.000000
-0.007736 -0.013334 0.000000
0.000000 0.000000 0.000000
0.009442 0.006930 0.000000
0.006930 -0.016352 0.000000
0.000000 0.000000 0.000000
-0.004878 -0.001555 0.000000
-0.001555 0.002602 0.000000
0.000000 0.000000 0.000000
0.016191 -0.006855 0.000000
-0.006855 0.014965 0.000000
0.000000 0.000000 0.000000
0.011304 -0.010817 0.000000
-0.010817 0.009569 0.000000
0.000000 0.000000 0.000000
0.000901 0.012771 0.000000
0.012771 -0.006986 0.000000
0.000000 0.000000 0.000000
-0.002589 0.008100 0.000000
0.008100 -0.015213 0.000000
0.000000 0.000000 0.000000
0.008079 0.002256 0.000000
0.002256 0.005618 0.000000
0.000000 0.000000 0.000000
0.031830 -0.018037 0.000000
-0.018037 0.007311 0.000000
0.000000 0.000000 0.000000
-0.003790 -0.001586 0.000000
-0.001586 0.008963 0.000000
0.000000 0.000000 0.000000
0.007288 -0.001123 0.000000
-0.001123 -0.017514 0.000000
0.000000 0.000000 0.000000
0.038332 -0.009293 0.000000
-0.009293 -0.012773 0.000000
0.000000 0.000000 0.000000
0.005117 -0.009670 0.000000
-0.009670 0.003461 0.000000
0.000000 0.000000 0.000000
-0.000788 -0.005393 0.000000
-0.005393 0.011000 0.000000
0.000000 0.000000 0.000000
0.006227 -0.008927 0.000000
-0.008927 0.000509 0.000000
0.000000 0.000000 0.000000
0.000063 -0.001567 0.000000
-0.001567 0.019323 0.000000
0.000000 0.000000 0.000000
0.000470 -0.001697 0.000000
-0.001697 -0.003546 0.000000
0.000000 0.000000 0.000000
0.006840 0.007052 0.000000
0.007052 -0.006811 0.000000
0.000000 0.000000 0.000000
0.006009 0.002953 0.000000
0.002953 -0.002487 0.000000
0.000000 0.000000 0.000000
0.005217 0.002400 0.000000
0.002400 0.006885 0.000000
0.000000 0.000000 0.000000
0.001801 0.003641 0.000000
0.003641 0.000499 0.000000
0.000000 0.000000 0.000000
0.008203 0.001843 0.000000
0.001843 0.007841 0.000000
0.000000 0.000000 0.000000
-0.000583 -0.004473 0.000000
-0.004473 0.011509 0.000000
0.000000 0.000000 0.000000
-0.000518 -0.001689 0.000000
-0.001689 0.000474 0.000000
0.000000 0.000000 0.000000
-0.001559 0.005211 0.000000
0.005211 0.006769 0.000000
0.000000 0.000000 0.000000
0.013121 0.005061 0.000000
0.005061 0.000732 0.000000
0.000000 0.000000 0.000000
0.002779 0.002134 0.000000
0.002134 0.009597 0.000000
0.000000 0.000000 0.000000
0.015337 -0.003517 0.000000
-0.003517 -0.001974 0.000000
0.000000 0.000000 0.000000
0.009081 -0.006991 0.000000
-0.006991 -0.004464 0.000000
0.000000 0.000000 0.000000
0.017711 -0.004121 0.000000
-0.004121 -0.005679 0.000000
0.000000 0.000000 0.000000
0.012728 -0.002636 0.000000
-0.002636 0.010391 0.000000
0.000000 0.000000 0.000000
0.009489 -0.011284 0.000000
-0.011284 0.002177 0.000000
0.000000 0.000000 0.000000
0.009084 0.002200 0.000000
0.002200 0.008227 0.000000
0.000000 0.000000 0.000000
-0.010218 0.006733 0.000000
0.006733 -0.002494 0.000000
0.000000 0.000000 0.000000
-0.010987 0.004976 0.000000
0.004976 -0.006729 0.000000
0.000000 0.000000 0.000000
-0.008981 0.004667 0.000000
0.004667 0.003150 0.000000
0.000000 0.000000 0.000000
-0.022493 -0.002897 0.000000
-0.002897 -0.018988 0.000000
0.000000 0.000000 0.000000
0.010244 0.007630 0.000000
0.007630 -0.005637 0.000000
0.000000 0.000000 0.000000
-0.006944 0.012940 0.000000
0.012940 -0.013137 0.000000
0.000000 0.000000 0.000000
-0.003090 -0.000565 0.000000
-0.000565 -0.001399 0.000000
0.000000 0.000000 0.000000
-0.008184 -0.004141 0.000000
-0.004141 -0.001938 0.000000
0.000000 0.000000 0.000000
0.006493 -0.004742 0.000000
-0.004742 0.000794 0.000000
0.000000 0.000000 0.000000
0.014937 0.003010 0.000000
0.003010 0.001609 0.000000
0.000000 0.000000 0.000000
0.013845 -0.008099 0.000000
-0.008099 0.002888 0.000000
0.000000 0.000000 0.000000
-0.027143 0.004684 0.000000
0.004684 -0.012743 0.000000
0.000000 0.000000 0.000000
-0.019891 0.005237 0.000000
0.005237 -0.015592 0.000000
0.000000 0.000000 0.000000
0.002658 0.000731 0.000000
0.000731 -0.005451 0.000000
0.000000 0.000000 0.000000
0.000218 -0.000017 0.000000
-0.000017 -0.020106 0.000000
0.000000 0.000000 0.000000
-0.012669 0.001410 0.000000
0.001410 -0.004921 0.000000
0.000000 0.000000 0.000000
-0.005332 0.003149 0.000000
0.003149 -0.007234 0.000000
0.000000 0.000000 0.000000
0.009859 0.005156 0.000000
0.005156 -0.010824 0.000000
0.000000 0.000000 0.000000
0.003607 -0.002664 0.000000
-0.002664 -0.003275 0.000000
0.000000 0.000000 0.000000
-0.002554 0.002651 0.000000
0.002651 -0.013013 0.000000
0.000000 0.000000 0.000000
-0.004818 0.004141 0.000000
0.004141 -0.009968 0.000000
0.000000 0.000000 0.000000
0.006115 -0.010020 0.000000
-0.010020 -0.000185 0.000000
0.000000 0.000000 0.000000
0.005211 -0.000262 0.000000
-0.000262 0.011884 0.000000
0.000000 0.000000 0.000000
-0.002791 0.001902 0.000000
0.001902 -0.002459 0.000000
0.000000 0.000000 0.000000
-0.003322 0.004855 0.000000
0.004855 0.011940 0.000000
0.000000 0.000000 0.000000
0.000639 0.004061 0.000000
0.004061 0.005045 0.000000
0.000000 0.000000 0.000000
0.016456 0.007817 0.000000
0.007817 0.009480 0.000000
0.000000 0.000000 0.000000
-0.005100 0.011710 0.000000
0.011710 0.002558 0.000000
0.000000 0.000000 0.000000
-0.005420 0.009175 0.000000
0.009175 -0.004141 0.000000
0.000000 0.000000 0.000000
0.018637 0.010010 0.000000
0.010010 0.003857 0.000000
0.000000 0.000000 0.000000
-0.000406 -0.004037 0.000000
-0.004037 0.003787 0.000000
0.000000 0.000000 0.000000
-0.008492 0.001595 0.000000
0.001595 0.013077 0.000000
0.000000 0.000000 0.000000
-0.011941 -0.002486 0.000000
-0.002486 0.015323 0.000000
0.000000 0.000000 0.000000
-0.003034 0.001717 0.000000
0.001717 0.008878 0.000000
0.000000 0.000000 0.000000
-0.007052 -0.001819 0.000000
-0.001819 -0.014557 0.000000
0.000000 0.000000 0.000000
-0.018178 0.008927 0.000000
0.008927 0.034612 0.000000
0.000000 0.000000 0.000000
-0.038777 0.012796 0.000000
0.012796 0.001048 0.000000
0.000000 0.000000 0.000000
0.011979 -0.014039 0.000000
-0.014039 0.002119 0.000000
0.000000 0.000000 0.000000
-0.004609 -0.004512 0.000000
-0.004512 0.012260 0.000000
0.000000 0.000000 0.000000
0.021588 0.003235 0.000000
0.003235 -0.001488 0.000000
0.000000 0.000000 0.000000
-0.013690 -0.008067 0.000000
-0.008067 0.007973 0.000000
0.000000 0.000000 0.000000
-0.009483 -0.006430 0.000000
-0.006430 -0.008666 0.000000
0.000000 0.000000 0.000000
-0.010560 -0.001695 0.000000
-0.001695 -0.009433 0.000000
0.000000 0.000000 0.000000
-0.000963 -0.005741 0.000000
-0.005741 0.005546 0.000000
0.000000 0.000000 0.000000
0.004065 -0.002340 0.000000
-0.002340 0.006340 0.000000
0.000000 0.000000 0.000000
-0.006167 -0.004536 0.000000
-0.004536 0.017992 0.000000
0.000000 0.000000 0.000000
-0.003629 -0.003659 0.000000
-0.003659 -0.007170 0.000000
0.000000 0.000000 0.000000
0.000026 0.005682 0.000000
0.005682 0.001565 0.000000
0.000000 0.000000 0.000000
-0.010408 0.002770 0.000000
0.002770 -0.022021 0.000000
0.000000 0.000000 0.000000
-0.007365 0.000060 0.000000
0.000060 -0.008986 0.000000
0.000000 0.000000 0.000000
-0.003400 0.000468 0.000000
0.000468 -0.015525 0.000000
0.000000 0.000000 0.000000
0.001545 -0.000608 0.000000
-0.000608 0.000703 0.000000
0.000000 0.000000 0.000000
-0.006260 0.005002 0.000000
0.005002 -0.006523 0.000000
0.000000 0.000000 0.000000
0.000394 -0.002536 0.000000
-0.002536 0.003243 0.000000
0.000000 0.000000 0.000000
-0.005914 -0.002575 0.000000
-0.002575 0.004299 0.000000
0.000000 0.000000 0.000000
0.001397 -0.001205 0.000000
-0.001205 -0.005710 0.000000
0.000000 0.000000 0.000000
-0.016057 -0.013100 0.000000
-0.013100 -0.009452 0.000000
0.000000 0.000000 0.000000
-0.009167 -0.007346 0.000000
-0.007346 -0.016832 0.000000
0.000000 0.000000 0.000000
0.021557 -0.008810 0.000000
-0.008810 0.010380 0.000000
0.000000 0.000000 0.000000
-0.002223 -0.000512 0.000000
-0.000512 -0.000090 0.000000
0.000000 0.000000 0.000000
-0.001984 -0.006708 0.000000
-0.006708 0.008666 0.000000
0.000000 0.000000 0.000000
0.007612 -0.000093 0.000000
-0.000093 -0.010129 0.000000
0.000000 0.000000 0.000000
0.016956 0.009194 0.000000
0.009194 -0.016795 0.000000
0.000000 0.000000 0.000000
0.003480 0.003323 0.000000
0.003323 -0.000874 0.000000
0.000000 0.000000 0.000000
0.027560 0.001930 0.000000
0.001930 -0.000895 0.000000
0.000000 0.000000 0.000000
-0.002469 -0.000089 0.000000
-0.000089 0.010052 0.000000
0.000000 0.000000 0.000000
0.013404 -0.007828 0.000000
-0.007828 -0.008522 0.000000
0.000000 0.000000 0.000000
-0.000133 -0.009473 0.000000
-0.009473 -0.012408 0.000000
0.000000 0.000000 0.000000
0.003529 -0.016796 0.000000
-0.016796 0.010763 0.000000
0.000000 0.000000 0.000000
-0.002258 -0.007824 0.000000
-0.007824 0.002933 0.000000
0.000000 0.000000 0.000000
-0.014491 0.014364 0.000000
0.014364 -0.011392 0.000000
0.000000 0.000000 0.000000
-0.027884 -0.005776 0.000000
-0.005776 0.002613 0.000000
0.000000 0.000000 0.000000
0.007943 -0.002678 0.000000
-0.002678 0.022687 0.000000
0.000000 0.000000 0.000000
-0.007085 0.009086 0.000000
0.009086 -0.010774 0.000000
0.000000 0.000000 0.000000
0.004821 -0.001494 0.000000
-0.001494 0.013042 0.000000
0.000000 0.000000 0.000000
0.005696 0.004340 0.000000
0.004340 0.022974 0.000000
0.000000 0.000000 0.000000
0.005825 -0.006613 0.000000
-0.006613 0.006364 0.000000
0.000000 0.000000 0.000000
0.000688 -0.001563 0.000000
-0.001563 -0.004854 0.000000
0.000000 0.000000 0.000000
-0.005305 -0.005517 0.000000
-0.005517 0.009158 0.000000
0.000000 0.000000 0.000000
0.003828 -0.007961 0.000000
-0.007961 0.003818 0.000000
0.000000 0.000000 0.000000
0.018670 0.010591 0.000000
0.010591 0.000756 0.000000
0.000000 0.000000 0.000000
0.023481 -0.010797 0.000000
-0.010797 -0.012684 0.000000
0.000000 0.000000 0.000000
-0.001394 -0.009592 0.000000
-0.009592 -0.012770 0.000000
0.000000 0.000000 0.000000
0.026024 -0.010044 0.000000
-0.010044 -0.004620 0.000000
0.000000 0.000000 0.000000
-0.035101 0.008087 0.000000
0.008087 0.034839 0.000000
0.000000 0.000000 0.000000
-0.005192 -0.001335 0.000000
-0.001335 -0.015426 0.000000
0.000000 0.000000 0.000000
0.010860 0.003854 0.000000
0.003854 0.010116 0.000000
0.000000 0.000000 0.000000
0.006771 0.008484 0.000000
0.008484 -0.023769 0.000000
0.000000 0.000000 0.000000
0.007527 -0.001415 0.000000
-0.001415 0.012674 0.000000
0.000000 0.000000 0.000000
0.010110 0.014303 0.000000
0.014303 -0.015501 0.000000
0.000000 0.000000 0.000000
-0.000168 0.013413 0.000000
0.013413 -0.017226 0.000000
0.000000 0.000000 0.000000
-0.001406 -0.004472 0.000000
-0.004472 0.010084 0.000000
0.000000 0.000000 0.000000
-0.001842 -0.006063 0.000000
-0.006063 0.000696 0.000000
0.000000 0.000000 0.000000
-0.012574 -0.011082 0.000000
-0.011082 0.009508 0.000000
0.000000 0.000000 0.000000
0.006994 0.011079 0.000000
0.011079 -0.018396 0.000000
0.000000 0.000000 0.000000
0.008935 0.001388 0.000000
0.001388 0.032737 0.000000
0.000000 0.000000 0.000000
-0.014866 0.006160 0.000000
0.006160 -0.002275 0.000000
0.000000 0.000000 0.000000
0.010748 0.004677 0.000000
0.004677 -0.003130 0.000000
0.000000 0.000000 0.000000
0.022635 0.014116 0.000000
0.014116 0.007540 0.000000
0.000000 0.000000 0.000000
-0.001543 -0.002599 0.000000
-0.002599 -0.002991 0.000000
0.000000 0.000000 0.000000
0.014781 0.003158 0.000000
0.003158 0.035461 0.000000
0.000000 0.000000 0.000000
0.002687 -0.007547 0.000000
-0.007547 -0.006617 0.000000
0.000000 0.000000 0.000000
0.011694 0.012258 0.000000
0.012258 -0.019662 0.000000
0.000000 0.000000 0.000000
0.014686 0.007249 0.000000
0.007249 -0.004192 0.000000
0.000000 0.000000 0.000000
-0.010665 -0.005166 0.000000
-0.005166 -0.033148 0.000000
0.000000 0.000000 0.000000
0.001703 0.002669 0.000000
0.002669 -0.006155 0.000000
0.000000 0.000000 0.000000
-0.001221 0.001055 0.000000
0.001055 -0.017493 0.000000
0.000000 0.000000 0.000000
0.007620 -0.007289 0.000000
-0.007289 0.009131 0.000000
0.000000 0.000000 0.000000
-0.001403 0.000876 0.000000
0.000876 0.002792 0.000000
0.000000 0.000000 0.000000
-0.004286 -0.007991 0.000000
-0.007991 -0.004606 0.000000
0.000000 0.000000 0.000000
-0.007995 0.002733 0.000000
0.002733 -0.002121 0.000000
0.000000 0.000000 0.000000
-0.013223 -0.001529 0.000000
-0.001529 -0.013579 0.000000
0.000000 0.000000 0.000000
-0.011618 -0.001704 0.000000
-0.001704 -0.004264 0.000000
0.000000 0.000000 0.000000
-0.009706 -0.000203 0.000000
-0.000203 -0.013947 0.000000
0.000000 0.000000 0.000000
-0.002175 -0.000176 0.000000
-0.000176 -0.001349 0.000000
0.000000 0.000000 0.000000
0.020735 0.007766 0.000000
0.007766 -0.016246 0.000000
0.000000 0.000000 0.000000
-0.004346 -0.001574 0.000000
-0.001574 0.009906 0.000000
0.000000 0.000000 0.000000
0.004375 -0.003158 0.000000
-0.003158 -0.009746 0.000000
0.000000 0.000000 0.000000
0.000182 -0.002230 0.000000
-0.002230 -0.006019 0.000000
0.000000 0.000000 0.000000
-0.020185 0.005572 0.000000
0.005572 0.033249 0.000000
0.000000 0.000000 0.000000
-0.000026 -0.001464 0.000000
-0.001464 -0.006973 0.000000
0.000000 0.000000 0.000000
-0.016293 0.005528 0.000000
0.005528 0.033614 0.000000
0.000000 0.000000 0.000000
0.014284 0.006151 0.000000
0.006151 0.009161 0.000000
0.000000 0.000000 0.000000
0.007369 -0.003788 0.000000
-0.003788 -0.000711 0.000000
0.000000 0.000000 0.000000
0.010279 0.008327 0.000000
0.008327 0.005170 0.000000
0.000000 0.000000 0.000000
-0.012235 -0.000137 0.000000
-0.000137 0.003236 0.000000
0.000000 0.000000 0.000000
0.000253 0.002883 0.000000
0.002883 0.005435 0.000000
0.000000 0.000000 0.000000
-0.002743 0.000558 0.000000
0.000558 0.001652 0.000000
0.000000 0.000000 0.000000
0.019189 -0.001353 0.000000
-0.001353 0.015207 0.000000
0.000000 0.000000 0.000000
-0.010858 0.000325 0.000000
0.000325 0.012511 0.000000
0.000000 0.000000 0.000000
-0.001802 -0.001539 0.000000
-0.001539 -0.002381 0.000000
0.000000 0.000000 0.000000
-0.006743 -0.003706 0.000000
-0.003706 -0.001544 0.000000
0.000000 0.000000 0.000000
-0.007671 -0.011610 0.000000
-0.011610 0.021307 0.000000
0.000000 0.000000 0.000000
-0.006422 0.002249 0.000000
0.002249 -0.000436 0.000000
0.000000 0.000000 0.000000
-0.009007 -0.004927 0.000000
-0.004927 -0.029173 0.000000
0.000000 0.000000 0.000000
0.024797 0.001159 0.000000
0.001159 0.008160 0.000000
0.000000 0.000000 0.000000
0.015956 -0.003779 0.000000
-0.003779 -0.001357 0.000000
0.000000 0.000000 0.000000
-0.001203 0.001155 0.000000
0.001155 0.003479 0.000000
0.000000 0.000000 0.000000
0.005516 -0.002939 0.000000
-0.002939 -0.003385 0.000000
0.000000 0.000000 0.000000
-0.002899 0.012192 0.000000
0.012192 -0.001631 0.000000
0.000000 0.000000 0.000000
-0.005627 0.002420 0.000000
0.002420 -0.007474 0.000000
0.000000 0.000000 0.000000
0.009918 0.007736 0.000000
0.007736 0.004484 0.000000
0.000000 0.000000 0.000000
-0.003730 -0.000166 0.000000
-0.000166 0.001662 0.000000
0.000000 0.000000 0.000000
-0.002537 0.001280 0.000000
0.001280 -0.004425 0.000000
0.000000 0.000000 0.000000
0.007206 -0.006701 0.000000
-0.006701 -0.004050 0.000000
0.000000 0.000000 0.000000
-0.003378 0.001721 0.000000
0.001721 -0.002100 0.000000
0.000000 0.000000 0.000000
0.018521 -0.004441 0.000000
-0.004441 0.016256 0.000000
0.000000 0.000000 0.000000
-0.003692 -0.005753 0.000000
-0.005753 -0.005841 0.000000
0.000000 0.000000 0.000000
-0.006944 -0.004086 0.000000
-0.004086 -0.006723 0.000000
0.000000 0.000000 0.000000
-0.005020 -0.003469 0.000000
-0.003469 -0.004543 0.000000
0.000000 0.000000 0.000000
0.002388 -0.003650 0.000000
-0.003650 -0.012814 0.000000
0.000000 0.000000 0.000000
-0.008524 -0.010174 0.000000
-0.010174 -0.003239 0.000000
0.000000 0.000000 0.000000
-0.000262 -0.005939 0.000000
-0.005939 -0.003437 0.000000
0.000000 0.000000 0.000000
0.016252 -0.001671 0.000000
-0.001671 0.001359 0.000000
0.000000 0.000000 0.000000
-0.005493 -0.002385 0.000000
-0.002385 -0.004192 0.000000
0.000000 0.000000 0.000000
0.017164 0.010157 0.000000
0.010157 -0.007442 0.000000
0.000000 0.000000 0.000000
0.019953 0.003433 0.000000
0.003433 0.014062 0.000000
0.000000 0.000000 0.000000
0.046795 -0.006787 0.000000
-0.006787 0.004717 0.000000
0.000000 0.000000 0.000000
-0.008591 0.001666 0.000000
0.001666 -0.005155 0.000000
0.000000 0.000000 0.000000
-0.013875 -0.000816 0.000000
-0.000816 -0.007267 0.000000
0.000000 0.000000 0.000000
-0.001723 -0.000268 0.000000
-0.000268 -0.017518 0.000000
0.000000 0.000000 0.000000
-0.002143 -0.003664 0.000000
-0.003664 -0.007145 0.000000
0.000000 0.000000 0.000000
0.001365 -0.001255 0.000000
-0.001255 -0.001184 0.000000
0.000000 0.000000 0.000000
-0.001419 0.008614 0.000000
0.008614 -0.003291 0.000000
0.000000 0.000000 0.000000
0.025404 0.002214 0.000000
0.002214 0.015896 0.000000
0.000000 0.000000 0.000000
0.008648 0.003443 0.000000
0.003443 0.018408 0.000000
0.000000 0.000000 0.000000
-0.011742 0.006545 0.000000
0.006545 -0.010315 0.000000
0.000000 0.000000 0.000000
-0.003598 -0.000254 0.000000
-0.000254 -0.004891 0.000000
0.000000 0.000000 0.000000
-0.004559 0.001629 0.000000
0.001629 -0.005066 0.000000
0.000000 0.000000 0.000000
0.001869 0.003269 0.000000
0.003269 0.009388 0.000000
0.000000 0.000000 0.000000
-0.011780 -0.005931 0.000000
-0.005931 -0.016447 0.000000
0.000000 0.000000 0.000000
0.018570 0.004848 0.000000
0.004848 0.007387 0.000000
0.000000 0.000000 0.000000
0.000015 -0.004373 0.000000
-0.004373 -0.014332 0.000000
0.000000 0.000000 0.000000
-0.005875 -0.000680 0.000000
-0.000680 0.009622 0.000000
0.000000 0.000000 0.000000
-0.008783 -0.011402 0.000000
-0.011402 -0.007314 0.000000
0.000000 0.000000 0.000000
0.008815 -0.001825 0.000000
-0.001825 0.002579 0.000000
0.000000 0.000000 0.000000
-0.004738 -0.005995 0.000000
-0.005995 -0.014945 0.000000
0.000000 0.000000 0.000000
0.005621 -0.002922 0.000000
-0.002922 0.017546 0.000000
0.000000 0.000000 0.000000
-0.007540 -0.003026 0.000000
-0.003026 0.000860 0.000000
0.000000 0.000000 0.000000
-0.014453 -0.004459 0.000000
-0.004459 0.005567 0.000000
0.000000 0.000000 0.000000
0.002107 -0.003649 0.000000
-0.003649 0.003679 0.000000
0.000000 0.000000 0.000000
-0.012606 -0.000686 0.000000
-0.000686 0.003463 0.000000
0.000000 0.000000 0.000000
-0.016368 -0.004599 0.000000
-0.004599 -0.004764 0.000000
0.000000 0.000000 0.000000
0.010923 0.007128 0.000000
0.007128 -0.003414 0.000000
0.000000 0.000000 0.000000
-0.003813 0.004215 0.000000
0.004215 0.003879 0.000000
0.000000 0.000000 0.000000
-0.019924 0.007757 0.000000
0.007757 -0.012978 0.000000
0.000000 0.000000 0.000000
0.018777 -0.003875 0.000000
-0.003875 0.012028 0.000000
0.000000 0.000000 0.000000
-0.009026 -0.013141 0.000000
-0.013141 -0.001748 0.000000
0.000000 0.000000 0.000000
0.013675 0.006942 0.000000
0.006942 -0.004442 0.000000
0.000000 0.000000 0.000000
-0.011603 -0.006883 0.000000
-0.006883 0.012008 0.000000
0.000000 0.000000 0.000000
0.005210 0.000326 0.000000
0.000326 0.013685 0.000000
0.000000 0.000000 0.000000
0.001301 -0.003229 0.000000
-0.003229 -0.006272 0.000000
0.000000 0.000000 0.000000
0.017635 0.004894 0.000000
0.004894 -0.021647 0.000000
0.000000 0.000000 0.000000
0.000146 -0.000874 0.000000
-0.000874 -0.007789 0.000000
0.000000 0.000000 0.000000
-0.001006 -0.007414 0.000000
-0.007414 0.010746 0.000000
0.000000 0.000000 0.000000
0.022466 0.002285 0.000000
0.002285 -0.018761 0.000000
0.000000 0.000000 0.000000
0.006432 -0.003060 0.000000
-0.003060 0.000428 0.000000
0.000000 0.000000 0.000000
-0.020950 0.009362 0.000000
0.009362 -0.003672 0.000000
0.000000 0.000000 0.000000
0.023480 -0.007871 0.000000
-0.007871 0.011938 0.000000
0.000000 0.000000 0.000000
0.023147 -0.001154 0.000000
-0.001154 0.021593 0.000000
0.000000 0.000000 0.000000
0.012620 -0.003145 0.000000
-0.003145 0.018208 0.000000
0.000000 0.000000 0.000000
-0.026155 0.001174 0.000000
0.001174 -0.014987 0.000000
0.000000 0.000000 0.000000
-0.021427 0.006144 0.000000
0.006144 -0.004872 0.000000
0.000000 0.000000 0.000000
0.017564 0.003001 0.000000
0.003001 -0.020295 0.000000
0.000000 0.000000 0.000000
-0.017521 0.005001 0.000000
0.005001 -0.006497 0.000000
0.000000 0.000000 0.000000
-0.003109 -0.004888 0.000000
-0.004888 -0.024775 0.000000
0.000000 0.000000 0.000000
0.005522 0.008911 0.000000
0.008911 -0.002160 0.000000
0.000000 0.000000 0.000000
-0.024577 0.006581 0.000000
0.006581 -0.008801 0.000000
0.000000 0.000000 0.000000
-0.019006 -0.002433 0.000000
-0.002433 0.002785 0.000000
0.000000 0.000000 0.000000
-0.000941 0.001433 0.000000
0.001433 -0.001890 0.000000
0.000000 0.000000 0.000000
-0.005957 -0.010040 0.000000
-0.010040 0.000291 0.000000
0.000000 0.000000 0.000000
-0.008320 -0.004510 0.000000
-0.004510 -0.002343 0.000000
0.000000 0.000000 0.000000
0.007663 -0.006981 0.000000
-0.006981 0.005631 0.000000
0.000000 0.000000 0.000000
0.024574 0.004681 0.000000
0.004681 0.012055 0.000000
0.000000 0.000000 0.000000
-0.009267 0.006643 0.000000
0.006643 0.007802 0.000000
0.000000 0.000000 0.000000
-0.000950 -0.002102 0.000000
-0.002102 -0.005453 0.000000
0.000000 0.000000 0.000000
-0.001592 0.010484 0.000000
0.010484 -0.003520 0.000000
0.000000 0.000000 0.000000
-0.001131 -0.001237 0.000000
-0.001237 -0.001684 0.000000
0.000000 0.000000 0.000000
-0.001861 0.005294 0.000000
0.005294 0.008122 0.000000
0.000000 0.000000 0.000000
-0.006702 0.005185 0.000000
0.005185 -0.005524 0.000000
0.000000 0.000000 0.000000
-0.002078 -0.006729 0.000000
-0.006729 0.006162 0.000000
0.000000 0.000000 0.000000
0.002515 -0.001765 0.000000
-0.001765 0.035938 0.000000
0.000000 0.000000 0.000000
0.000174 0.009154 0.000000
0.009154 -0.002740 0.000000
0.000000 0.000000 0.000000
0.002859 -0.002862 0.000000
-0.002862 -0.003716 0.000000
0.000000 0.000000 0.000000
-0.000082 -0.001914 0.000000
-0.001914 -0.003984 0.000000
0.000000 0.000000 0.000000
0.010191 0.005306 0.000000
0.005306 -0.000423 0.000000
0.000000 0.000000 0.000000
0.013564 0.000747 0.000000
0.000747 0.006495 0.000000
0.000000 0.000000 0.000000
0.003507 -0.000944 0.000000
-0.000944 0.008203 0.000000
0.000000 0.000000 0.000000
0.006109 0.003678 0.000000
0.003678 -0.008440 0.000000
0.000000 0.000000 0.000000
0.010413 0.004570 0.000000
0.004570 -0.015993 0.000000
0.000000 0.000000 0.000000
-0.004460 0.011556 0.000000
0.011556 -0.021989 0.000000
0.000000 0.000000 0.000000
0.008914 0.020186 0.000000
0.020186 0.000396 0.000000
0.000000 0.000000 0.000000
0.011763 -0.002394 0.000000
-0.002394 -0.009089 0.000000
0.000000 0.000000 0.000000
0.000260 0.007287 0.000000
0.007287 0.007154 0.000000
0.000000 0.000000 0.000000
0.018782 -0.001215 0.000000
-0.001215 -0.016150 0.000000
0.000000 0.000000 0.000000
0.012630 -0.001636 0.000000
-0.001636 0.011521 0.000000
0.000000 0.000000 0.000000
0.005878 -0.002805 0.000000
-0.002805 0.008055 0.000000
0.000000 0.000000 0.000000
-0.002431 0.004175 0.000000
0.004175 -0.007115 0.000000
0.000000 0.000000 0.000000
0.011035 -0.001883 0.000000
-0.001883 0.009721 0.000000
0.000000 0.000000 0.000000
-0.004768 -0.028523 0.000000
-0.028523 0.003551 0.000000
0.000000 0.000000 0.000000
-0.041992 0.016139 0.000000
0.016139 0.024234 0.000000
0.000000 0.000000 0.000000
-0.006370 -0.002583 0.000000
-0.002583 0.000463 0.000000
0.000000 0.000000 0.000000
-0.005933 -0.001938 0.000000
-0.001938 0.001742 0.000000
0.000000 0.000000 0.000000
0.012923 0.007527 0.000000
0.007527 -0.003344 0.000000
0.000000 0.000000 0.000000
-0.004866 -0.000896 0.000000
-0.000896 -0.000471 0.000000
0.000000 0.000000 0.000000
0.012648 -0.004866 0.000000
-0.004866 0.004472 0.000000
0.000000 0.000000 0.000000
-0.035548 -0.017613 0.000000
-0.017613 -0.007663 0.000000
0.000000 0.000000 0.000000
0.020742 -0.017544 0.000000
-0.017544 0.000824 0.000000
0.000000 0.000000 0.000000
-0.009710 -0.007221 0.000000
-0.007221 -0.015307 0.000000
0.000000 0.000000 0.000000
0.017342 0.001607 0.000000
0.001607 -0.029125 0.000000
0.000000 0.000000 0.000000
0.001282 -0.001105 0.000000
-0.001105 -0.009541 0.000000
0.000000 0.000000 0.000000
-0.007131 0.009787 0.000000
0.009787 -0.003917 0.000000
0.000000 0.000000 0.000000
-0.002827 -0.005426 0.000000
-0.005426 -0.011050 0.000000
0.000000 0.000000 0.000000
0.001193 -0.004624 0.000000
-0.004624 -0.009541 0.000000
0.000000 0.000000 0.000000
-0.004033 0.006694 0.000000
0.006694 0.024756 0.000000
0.000000 0.000000 0.000000
-0.024358 0.010219 0.000000
0.010219 0.022305 0.000000
0.000000 0.000000 0.000000
0.005666 -0.001914 0.000000
-0.001914 0.009940 0.000000
0.000000 0.000000 0.000000
-0.030941 0.004940 0.000000
0.004940 0.002698 0.000000
0.000000 0.000000 0.000000
-0.003630 0.006404 0.000000
0.006404 0.000787 0.000000
0.000000 0.000000 0.000000
-0.018410 0.010705 0.000000
0.010705 -0.010194 0.000000
0.000000 0.000000 0.000000
-0.015913 0.012020 0.000000
0.012020 -0.008381 0.000000
0.000000 0.000000 0.000000
0.003788 -0.001034 0.000000
-0.001034 0.008516 0.000000
0.000000 0.000000 0.000000
-0.004009 -0.000320 0.000000
-0.000320 -0.006859 0.000000
0.000000 0.000000 0.000000
0.001672 -0.008547 0.000000
-0.008547 0.008429 0.000000
0.000000 0.000000 0.000000
0.005043 0.004669 0.000000
0.004669 0.028009 0.000000
0.000000 0.000000 0.000000
-0.008509 -0.010203 0.000000
-0.010203 -0.002468 0.000000
0.000000 0.000000 0.000000
-0.001398 -0.007322 0.000000
-0.007322 -0.001106 0.000000
0.000000 0.000000 0.000000
0.001201 -0.011423 0.000000
-0.011423 0.010670 0.000000
0.000000 0.000000 0.000000
-0.004727 0.005531 0.000000
0.005531 -0.004105 0.000000
0.000000 0.000000 0.000000
0.015283 -0.005828 0.000000
-0.005828 -0.000548 0.000000
0.000000 0.000000 0.000000
-0.006192 -0.002951 0.000000
-0.002951 -0.012292 0.000000
0.000000 0.000000 0.000000
-0.005191 0.007820 0.000000
0.007820 -0.004782 0.000000
0.000000 0.000000 0.000000
0.017908 -0.008636 0.000000
-0.008636 -0.002576 0.000000
0.000000 0.000000 0.000000
0.019367 -0.003598 0.000000
-0.003598 0.025122 0.000000
0.000000 0.000000 0.000000
-0.004069 0.011737 0.000000
0.011737 0.005779 0.000000
0.000000 0.000000 0.000000
0.008966 0.013601 0.000000
0.013601 -0.005014 0.000000
0.000000 0.000000 0.000000
-0.001878 0.007205 0.000000
0.007205 -0.008743 0.000000
0.000000 0.000000 0.000000
-0.005103 0.006090 0.000000
0.006090 0.010336 0.000000
0.000000 0.000000 0.000000
0.003116 -0.000548 0.000000
-0.000548 0.031627 0.000000
0.000000 0.000000 0.000000
-0.007718 -0.009578 0.000000
-0.009578 0.001264 0.000000
0.000000 0.000000 0.000000
-0.001821 -0.001477 0.000000
-0.001477 0.000874 0.000000
0.000000 0.000000 0.000000
-0.005090 -0.002341 0.000000
-0.002341 0.000059 0.000000
0.000000 0.000000 0.000000
-0.011141 -0.009163 0.000000
-0.009163 0.004987 0.000000
0.000000 0.000000 0.000000
-0.004157 -0.000397 0.000000
-0.000397 -0.004767 0.000000
0.000000 0.000000 0.000000
-0.003251 -0.004214 0.000000
-0.004214 0.003831 0.000000
0.000000 0.000000 0.000000
0.002809 -0.004682 0.000000
-0.004682 0.016961 0.000000
0.000000 0.000000 0.000000
0.000791 -0.001682 0.000000
-0.001682 0.002394 0.000000
0.000000 0.000000 0.000000
0.007746 0.002471 0.000000
0.002471 0.013501 0.000000
0.000000 0.000000 0.000000
0.005940 0.001169 0.000000
0.001169 0.012159 0.000000
0.000000 0.000000 0.000000
0.000293 -0.002535 0.000000
-0.002535 -0.002920 0.000000
0.000000 0.000000 0.000000
-0.034995 0.002079 0.000000
0.002079 -0.012572 0.000000
0.000000 0.000000 0.000000
0.003028 0.000506 0.000000
0.000506 -0.007600 0.000000
0.000000 0.000000 0.000000
0.001921 0.000668 0.000000
0.000668 -0.011728 0.000000
0.000000 0.000000 0.000000
0.007882 -0.013231 0.000000
-0.013231 -0.015099 0.000000
0.000000 0.000000 0.000000
0.014243 0.009915 0.000000
0.009915 -0.015431 0.000000
0.000000 0.000000 0.000000
-0.010218 -0.000852 0.000000
-0.000852 -0.005781 0.000000
0.000000 0.000000 0.000000
-0.008915 0.004714 0.000000
0.004714 -0.008783 0.000000
0.000000 0.000000 0.000000
0.009045 0.001095 0.000000
0.001095 0.003709 0.000000
0.000000 0.000000 0.000000
0.015582 0.000303 0.000000
0.000303 -0.010091 0.000000
0.000000 0.000000 0.000000
0.000173 -0.004289 0.000000
-0.004289 -0.001406 0.000000
0.000000 0.000000 0.000000
-0.007618 -0.003431 0.000000
-0.003431 -0.005818 0.000000
0.000000 0.000000 0.000000
0.009332 0.007726 0.000000
0.007726 -0.020624 0.000000
0.000000 0.000000 0.000000
0.003504 -0.003321 0.000000
-0.003321 -0.001847 0.000000
0.000000 0.000000 0.000000
-0.003238 -0.005054 0.000000
-0.005054 0.011960 0.000000
0.000000 0.000000 0.000000
0.025068 -0.007201 0.000000
-0.007201 -0.013508 0.000000
0.000000 0.000000 0.000000
-0.016860 -0.013963 0.000000
-0.013963 -0.010321 0.000000
0.000000 0.000000 0.000000
0.008541 0.002168 0.000000
0.002168 0.010825 0.000000
0.000000 0.000000 0.000000
0.020996 -0.006595 0.000000
-0.006595 0.026555 0.000000
0.000000 0.000000 0.000000
-0.015441 0.003698 0.000000
0.003698 -0.001387 0.000000
0.000000 0.000000 0.000000
0.004726 -0.003198 0.000000
-0.003198 0.003262 0.000000
0.000000 0.000000 0.000000
-0.019679 0.001976 0.000000
0.001976 0.001743 0.000000
0.000000 0.000000 0.000000
0.014520 -0.003473 0.000000
-0.003473 0.004640 0.000000
0.000000 0.000000 0.000000
-0.003357 -0.003808 0.000000
-0.003808 -0.013144 0.000000
0.000000 0.000000 0.000000
-0.015758 0.000779 0.000000
0.000779 -0.015113 0.000000
0.000000 0.000000 0.000000
-0.000553 -0.005173 0.000000
-0.005173 -0.013852 0.000000
0.000000 0.000000 0.000000
-0.018036 -0.001841 0.000000
-0.001841 0.030112 0.000000
0.000000 0.000000 0.000000
-0.001804 -0.000046 0.000000
-0.000046 -0.005411 0.000000
0.000000 0.000000 0.000000
-0.000511 -0.000950 0.000000
-0.000950 -0.015596 0.000000
0.000000 0.000000 0.000000
-0.000634 0.001132 0.000000
0.001132 0.007894 0.000000
0.000000 0.000000 0.000000
-0.000160 0.001984 0.000000
0.001984 -0.001752 0.000000
0.000000 0.000000 0.000000
-0.004946 0.002356 0.000000
0.002356 -0.005646 0.000000
0.000000 0.000000 0.000000
0.003229 0.000317 0.000000
0.000317 0.008867 0.000000
0.000000 0.000000 0.000000
-0.017528 -0.010197 0.000000
-0.010197 0.021528 0.000000
0.000000 0.000000 0.000000
-0.003920 0.002001 0.000000
0.002001 -0.001801 0.000000
0.000000 0.000000 0.000000
0.003168 -0.000096 0.000000
-0.000096 -0.010170 0.000000
0.000000 0.000000 0.000000
-0.001683 0.002235 0.000000
0.002235 0.005522 0.000000
0.000000 0.000000 0.000000
-0.011263 -0.003589 0.000000
-0.003589 0.001907 0.000000
0.000000 0.000000 0.000000
0.000731 0.004455 0.000000
0.004455 -0.001090 0.000000
0.000000 0.000000 0.000000
0.002883 0.003740 0.000000
0.003740 -0.008709 0.000000
0.000000 0.000000 0.000000
-0.011943 -0.004548 0.000000
-0.004548 -0.002328 0.000000
0.000000 0.000000 0.000000
0.005382 -0.002093 0.000000
-0.002093 0.014224 0.000000
0.000000 0.000000 0.000000
0.019985 0.001296 0.000000
0.001296 0.015079 0.000000
0.000000 0.000000 0.000000
0.012243 0.015217 0.000000
0.015217 0.019524 0.000000
0.000000 0.000000 0.000000
0.021276 0.002601 0.000000
0.002601 0.015779 0.000000
0.000000 0.000000 0.000000
0.001303 -0.003127 0.000000
-0.003127 0.006242 0.000000
0.000000 0.000000 0.000000
0.003096 0.003116 0.000000
0.003116 0.002165 0.000000
0.000000 0.000000 0.000000
-0.001177 0.004409 0.000000
0.004409 0.006834 0.000000
0.000000 0.000000 0.000000
0.006865 0.002209 0.000000
0.002209 0.003497 0.000000
0.000000 0.000000 0.000000
0.014612 -0.006615 0.000000
-0.006615 0.019191 0.000000
0.000000 0.000000 0.000000
0.014005 -0.010588 0.000000
-0.010588 0.005338 0.000000
0.000000 0.000000 0.000000
0.011653 -0.008650 0.000000
-0.008650 0.003698 0.000000
0.000000 0.000000 0.000000
0.004454 0.003180 0.000000
0.003180 0.001211 0.000000
0.000000 0.000000 0.000000
0.011982 0.005205 0.000000
0.005205 -0.012420 0.000000
0.000000 0.000000 0.000000
0.018809 0.010305 0.000000
0.010305 -0.004929 0.000000
0.000000 0.000000 0.000000
0.010630 0.007785 0.000000
0.007785 -0.008967 0.000000
0.000000 0.000000 0.000000
0.011176 -0.013255 0.000000
-0.013255 -0.009345 0.000000
0.000000 0.000000 0.000000
0.007918 -0.002207 0.000000
-0.002207 0.004456 0.000000
0.000000 0.000000 0.000000
-0.006331 0.003357 0.000000
0.003357 0.018759 0.000000
0.000000 0.000000 0.000000
0.014359 0.001437 0.000000
0.001437 0.006140 0.000000
0.000000 0.000000 0.000000
0.007620 -0.002449 0.000000
-0.002449 0.004553 0.000000
0.000000 0.000000 0.000000
0.012234 -0.001931 0.000000
-0.001931 0.011972 0.000000
0.000000 0.000000 0.000000
0.019273 -0.000104 0.000000
-0.000104 -0.017197 0.000000
0.000000 0.000000 0.000000
0.023116 0.001955 0.000000
0.001955 -0.006615 0.000000
0.000000 0.000000 0.000000
0.000996 -0.004675 0.000000
-0.004675 -0.005588 0.000000
0.000000 0.000000 0.000000
0.013158 -0.007394 0.000000
-0.007394 0.011900 0.000000
0.000000 0.000000 0.000000
0.026179 -0.004701 0.000000
-0.004701 -0.008477 0.000000
0.000000 0.000000 0.000000
-0.003914 0.005208 0.000000
0.005208 0.002984 0.000000
0.000000 0.000000 0.000000
0.005516 -0.001548 0.000000
-0.001548 0.001793 0.000000
0.000000 0.000000 0.000000
0.003067 -0.014893 0.000000
-0.014893 -0.012800 0.000000
0.000000 0.000000 0.000000
-0.008455 0.006745 0.000000
0.006745 0.006005 0.000000
0.000000 0.000000 0.000000
-0.005481 0.004184 0.000000
0.004184 0.001754 0.000000
0.000000 0.000000 0.000000
-0.015388 -0.013692 0.000000
-0.013692 0.006663 0.000000
0.000000 0.000000 0.000000
-0.005359 -0.001058 0.000000
-0.001058 0.000812 0.000000
0.000000 0.000000 0.000000
-0.007774 -0.002475 0.000000
-0.002475 -0.010682 0.000000
0.000000 0.000000 0.000000
-0.004843 -0.005179 0.000000
-0.005179 0.002406 0.000000
0.000000 0.000000 0.000000
0.002855 -0.002477 0.000000
-0.002477 -0.013005 0.000000
0.000000 0.000000 0.000000
-0.003727 0.000370 0.000000
0.000370 0.022512 0.000000
0.000000 0.000000 0.000000
0.019709 0.001663 0.000000
0.001663 0.010071 0.000000
0.000000 0.000000 0.000000
-0.001931 -0.002927 0.000000
-0.002927 0.004365 0.000000
0.000000 0.000000 0.000000
0.023299 0.004758 0.000000
0.004758 0.019655 0.000000
0.000000 0.000000 0.000000
0.018380 -0.005711 0.000000
-0.005711 0.004765 0.000000
0.000000 0.000000 0.000000
-0.013925 0.010764 0.000000
0.010764 -0.009187 0.000000
0.000000 0.000000 0.000000
-0.008644 -0.008368 0.000000
-0.008368 0.020059 0.000000
0.000000 0.000000 0.000000
-0.000991 -0.002888 0.000000
-0.002888 0.000063 0.000000
0.000000 0.000000 0.000000
-0.028586 -0.005062 0.000000
-0.005062 -0.000703 0.000000
0.000000 0.000000 0.000000
0.005801 0.004717 0.000000
0.004717 0.001387 0.000000
0.000000 0.000000 0.000000
0.000607 -0.003610 0.000000
-0.003610 0.018003 0.000000
0.000000 0.000000 0.000000
0.004785 0.005695 0.000000
0.005695 0.006957 0.000000
0.000000 0.000000 0.000000
0.002911 0.008707 0.000000
0.008707 0.008169 0.000000
0.000000 0.000000 0.000000
-0.018612 -0.005555 0.000000
-0.005555 0.015256 0.000000
0.000000 0.000000 0.000000
-0.020037 -0.004394 0.000000
-0.004394 0.022954 0.000000
0.000000 0.000000 0.000000
-0.003320 0.003720 0.000000
0.003720 -0.009488 0.000000
0.000000 0.000000 0.000000
-0.029672 -0.001513 0.000000
-0.001513 -0.015453 0.000000
0.000000 0.000000 0.000000
0.004351 -0.009988 0.000000
-0.009988 -0.001277 0.000000
0.000000 0.000000 0.000000
0.005000 0.001834 0.000000
0.001834 0.004820 0.000000
0.000000 0.000000 0.000000
0.017566 0.007895 0.000000
0.007895 -0.002536 0.000000
0.000000 0.000000 0.000000
0.012700 0.004341 0.000000
0.004341 0.006456 0.000000
0.000000 0.000000 0.000000
0.007451 -0.010798 0.000000
-0.010798 0.007359 0.000000
0.000000 0.000000 0.000000
-0.004672 0.000296 0.000000
0.000296 -0.005354 0.000000
0.000000 0.000000 0.000000
0.006850 -0.007144 0.000000
-0.007144 0.003370 0.000000
0.000000 0.000000 0.000000
0.005446 -0.006009 0.000000
-0.006009 -0.012999 0.000000
0.000000 0.000000 0.000000
-0.005741 -0.005131 0.000000
-0.005131 -0.007532 0.000000
0.000000 0.000000 0.000000
-0.000447 -0.002955 0.000000
-0.002955 -0.004913 0.000000
0.000000 0.000000 0.000000
-0.002825 -0.002944 0.000000
-0.002944 -0.004346 0.000000
0.000000 0.000000 0.000000
-0.010132 0.013775 0.000000
0.013775 0.001123 0.000000
0.000000 0.000000 0.000000
-0.024675 -0.000801 0.000000
-0.000801 -0.012922 0.000000
0.000000 0.000000 0.000000
0.001887 -0.004148 0.000000
-0.004148 0.004639 0.000000
0.000000 0.000000 0.000000
0.022099 0.006890 0.000000
0.006890 0.023817 0.000000
0.000000 0.000000 0.000000
-0.005398 -0.002180 0.000000
-0.002180 -0.003179 0.000000
0.000000 0.000000 0.000000
0.011137 0.003691 0.000000
0.003691 0.033675 0.000000
0.000000 0.000000 0.000000
0.009008 -0.000435 0.000000
-0.000435 0.035175 0.000000
0.000000 0.000000 0.000000
0.010497 0.003563 0.000000
0.003563 0.025583 0.000000
0.000000 0.000000 0.000000
0.008441 -0.009571 0.000000
-0.009571 0.009567 0.000000
0.000000 0.000000 0.000000
-0.000413 -0.001990 0.000000
-0.001990 -0.001859 0.000000
0.000000 0.000000 0.000000
0.002796 -0.003146 0.000000
-0.003146 -0.014827 0.000000
0.000000 0.000000 0.000000
0.003387 -0.005153 0.000000
-0.005153 -0.000623 0.000000
0.000000 0.000000 0.000000
0.027517 0.022093 0.000000
0.022093 0.020073 0.000000
0.000000 0.000000 0.000000
0.007311 0.014743 0.000000
0.014743 0.009006 0.000000
0.000000 0.000000 0.000000
-0.007095 0.000858 0.000000
0.000858 -0.008384 0.000000
0.000000 0.000000 0.000000
0.024660 0.000440 0.000000
0.000440 -0.021163 0.000000
0.000000 0.000000 0.000000
0.013364 -0.001495 0.000000
-0.001495 0.006687 0.000000
0.000000 0.000000 0.000000
0.025739 0.023996 0.000000
0.023996 0.019603 0.000000
0.000000 0.000000 0.000000
-0.012294 -0.001187 0.000000
-0.001187 -0.015653 0.000000
0.000000 0.000000 0.000000
0.013176 -0.002403 0.000000
-0.002403 -0.017065 0.000000
0.000000 0.000000 0.000000
0.006262 0.003051 0.000000
0.003051 -0.002846 0.000000
0.000000 0.000000 0.000000
-0.001161 -0.000133 0.000000
-0.000133 0.008587 0.000000
0.000000 0.000000 0.000000
0.006174 -0.000169 0.000000
-0.000169 0.007861 0.000000
0.000000 0.000000 0.000000
0.011377 -0.013024 0.000000
-0.013024 -0.008117 0.000000
0.000000 0.000000 0.000000
-0.000625 -0.008812 0.000000
-0.008812 0.007547 0.000000
0.000000 0.000000 0.000000
0.021672 -0.005771 0.000000
-0.005771 0.008474 0.000000
0.000000 0.000000 0.000000
-0.012367 -0.018548 0.000000
-0.018548 -0.010964 0.000000
0.000000 0.000000 0.000000
0.034807 -0.005080 0.000000
-0.005080 -0.018740 0.000000
0.000000 0.000000 0.000000
0.015416 0.004334 0.000000
0.004334 -0.011015 0.000000
0.000000 0.000000 0.000000
-0.007248 -0.001317 0.000000
-0.001317 0.006966 0.000000
0.000000 0.000000 0.000000
-0.012069 0.000465 0.000000
0.000465 0.029040 0.000000
0.000000 0.000000 0.000000
-0.005247 0.000544 0.000000
0.000544 0.007386 0.000000
0.000000 0.000000 0.000000
0.003562 -0.000349 0.000000
-0.000349 -0.014216 0.000000
0.000000 0.000000 0.000000
0.004922 0.001880 0.000000
0.001880 -0.004386 0.000000
0.000000 0.000000 0.000000
0.002925 0.002181 0.000000
0.002181 0.004723 0.000000
0.000000 0.000000 0.000000
-0.011026 0.002029 0.000000
0.002029 -0.010158 0.000000
0.000000 0.000000 0.000000
0.013337 0.005292 0.000000
0.005292 -0.012100 0.000000
0.000000 0.000000 0.000000
0.014721 0.004898 0.000000
0.004898 -0.006923 0.000000
0.000000 0.000000 0.000000
-0.000778 -0.005171 0.000000
-0.005171 -0.004914 0.000000
0.000000 0.000000 0.000000
0.011131 0.009426 0.000000
0.009426 -0.002109 0.000000
0.000000 0.000000 0.000000
-0.009513 0.008770 0.000000
0.008770 -0.008475 0.000000
0.000000 0.000000 0.000000
-0.014118 -0.006609 0.000000
-0.006609 -0.012210 0.000000
0.000000 0.000000 0.000000
-0.010323 -0.000947 0.000000
-0.000947 -0.012806 0.000000
0.000000 0.000000 0.000000
-0.011542 0.000409 0.000000
0.000409 -0.010552 0.000000
0.000000 0.000000 0.000000
0.014403 -0.012534 0.000000
-0.012534 0.010004 0.000000
0.000000 0.000000 0.000000
-0.002922 0.008337 0.000000
0.008337 -0.000005 0.000000
0.000000 0.000000 0.000000
0.006797 0.013665 0.000000
0.013665 -0.010621 0.000000
0.000000 0.000000 0.000000
-0.006865 0.001792 0.000000
0.001792 -0.011378 0.000000
0.000000 0.000000 0.000000
-0.017272 -0.010018 0.000000
-0.010018 -0.013935 0.000000
0.000000 0.000000 0.000000
-0.004994 -0.004857 0.000000
-0.004857 -0.001250 0.000000
0.000000 0.000000 0.000000
-0.002969 0.002604 0.000000
0.002604 -0.000913 0.000000
0.000000 0.000000 0.000000
0.000514 -0.001353 0.000000
-0.001353 0.009619 0.000000
0.000000 0.000000 0.000000
-0.009745 -0.003529 0.000000
-0.003529 -0.007551 0.000000
0.000000 0.000000 0.000000
0.002914 -0.001013 0.000000
-0.001013 0.003608 0.000000
0.000000 0.000000 0.000000
-0.006328 0.002606 0.000000
0.002606 -0.015199 0.000000
0.000000 0.000000 0.000000
0.017625 0.001987 0.000000
0.001987 0.010597 0.000000
0.000000 0.000000 0.000000
0.003203 0.001288 0.000000
0.001288 -0.002986 0.000000
0.000000 0.000000 0.000000
-0.014316 0.003225 0.000000
0.003225 0.005499 0.000000
0.000000 0.000000 0.000000
0.006374 -0.004570 0.000000
-0.004570 -0.015902 0.000000
0.000000 0.000000 0.000000
-0.014189 -0.001407 0.000000
-0.001407 0.007655 0.000000
0.000000 0.000000 0.000000
0.008740 -0.006744 0.000000
-0.006744 0.008234 0.000000
0.000000 0.000000 0.000000
0.007881 -0.003272 0.000000
-0.003272 0.007190 0.000000
0.000000 0.000000 0.000000
0.000840 0.001822 0.000000
0.001822 -0.004008 0.000000
0.000000 0.000000 0.000000
0.022678 -0.008311 0.000000
-0.008311 0.012323 0.000000
0.000000 0.000000 0.000000
0.013866 -0.003122 0.000000
-0.003122 0.011409 0.000000
0.000000 0.000000 0.000000
-0.008663 0.006068 0.000000
0.006068 -0.013327 0.000000
0.000000 0.000000 0.000000
0.000667 0.000985 0.000000
0.000985 -0.003437 0.000000
0.000000 0.000000 0.000000
0.015462 -0.008849 0.000000
-0.008849 0.011863 0.000000
0.000000 0.000000 0.000000
0.000803 0.009333 0.000000
0.009333 -0.004106 0.000000
0.000000 0.000000 0.000000
-0.002151 -0.000792 0.000000
-0.000792 -0.004993 0.000000
0.000000 0.000000 0.000000
-0.003378 0.011812 0.000000
0.011812 -0.009182 0.000000
0.000000 0.000000 0.000000
0.003661 -0.002780 0.000000
-0.002780 -0.002045 0.000000
0.000000 0.000000 0.000000
0.005207 0.003710 0.000000
0.003710 -0.008877 0.000000
0.000000 0.000000 0.000000
0.005883 0.001621 0.000000
0.001621 0.001167 0.000000
0.000000 0.000000 0.000000
-0.006291 0.003733 0.000000
0.003733 -0.011129 0.000000
0.000000 0.000000 0.000000
0.008117 -0.003116 0.000000
-0.003116 0.001267 0.000000
0.000000 0.000000 0.000000
-0.001556 -0.004343 0.000000
-0.004343 -0.002460 0.000000
0.000000 0.000000 0.000000
-0.004014 0.005762 0.000000
0.005762 0.007944 0.000000
0.000000 0.000000 0.000000
-0.010636 -0.005484 0.000000
-0.005484 0.004666 0.000000
0.000000 0.000000 0.000000
0.003758 0.001386 0.000000
0.001386 0.008667 0.000000
0.000000 0.000000 0.000000
-0.012093 -0.003154 0.000000
-0.003154 0.001198 0.000000
0.000000 0.000000 0.000000
0.000678 0.001387 0.000000
0.001387 -0.005762 0.000000
0.000000 0.000000 0.000000
-0.008382 -0.001085 0.000000
-0.001085 -0.004387 0.000000
0.000000 0.000000 0.000000
-0.000763 -0.005951 0.000000
-0.005951 0.003195 0.000000
0.000000 0.000000 0.000000
-0.002487 -0.006121 0.000000
-0.006121 0.002690 0.000000
0.000000 0.000000 0.000000
0.014337 -0.002377 0.000000
-0.002377 0.000360 0.000000
0.000000 0.000000 0.000000
-0.009052 0.002001 0.000000
0.002001 -0.006658 0.000000
0.000000 0.000000 0.000000
-0.001479 0.001756 0.000000
0.001756 -0.004007 0.000000
0.000000 0.000000 0.000000
0.001260 0.000135 0.000000
0.000135 0.002585 0.000000
0.000000 0.000000 0.000000
0.004098 0.003805 0.000000
0.003805 0.004314 0.000000
0.000000 0.000000 0.000000
0.005732 -0.000381 0.000000
-0.000381 0.000131 0.000000
0.000000 0.000000 0.000000
-0.004429 -0.000532 0.000000
-0.000532 -0.008363 0.000000
0.000000 0.000000 0.000000
-0.033320 -0.001563 0.000000
-0.001563 -0.022195 0.000000
0.000000 0.000000 0.000000
-0.016689 -0.013648 0.000000
-0.013648 -0.001882 0.000000
0.000000 0.000000 0.000000
-0.012379 0.008208 0.000000
0.008208 -0.005938 0.000000
0.000000 0.000000 0.000000
-0.008203 -0.007137 0.000000
-0.007137 -0.013928 0.000000
0.000000 0.000000 0.000000
-0.008380 0.001600 0.000000
0.001600 0.000087 0.000000
0.000000 0.000000 0.000000
-0.009006 0.003448 0.000000
0.003448 -0.007810 0.000000
0.000000 0.000000 0.000000
0.005898 0.004200 0.000000
0.004200 -0.002531 0.000000
0.000000 0.000000 0.000000
0.012311 0.008481 0.000000
0.008481 0.003138 0.000000
0.000000 0.000000 0.000000
0.010008 0.007434 0.000000
0.007434 0.007983 0.000000
0.000000 0.000000 0.000000
-0.001940 0.001930 0.000000
0.001930 0.011009 0.000000
0.000000 0.000000 0.000000
0.000791 -0.000378 0.000000
-0.000378 0.014597 0.000000
0.000000 0.000000 0.000000
-0.002044 0.004877 0.000000
0.004877 0.008839 0.000000
0.000000 0.000000 0.000000
0.006887 0.004912 0.000000
0.004912 0.000690 0.000000
0.000000 0.000000 0.000000
0.011186 0.006957 0.000000
0.006957 0.005346 0.000000
0.000000 0.000000 0.000000
0.007493 0.002324 0.000000
0.002324 0.001177 0.000000
0.000000 0.000000 0.000000
-0.012759 0.010017 0.000000
0.010017 -0.002784 0.000000
0.000000 0.000000 0.000000
-0.005495 0.005573 0.000000
0.005573 0.015535 0.000000
0.000000 0.000000 0.000000
-0.022804 -0.005200 0.000000
-0.005200 0.011595 0.000000
0.000000 0.000000 0.000000
0.019808 -0.000996 0.000000
-0.000996 -0.005741 0.000000
0.000000 0.000000 0.000000
0.008378 -0.003801 0.000000
-0.003801 0.006003 0.000000
0.000000 0.000000 0.000000
-0.003805 0.003128 0.000000
0.003128 -0.007442 0.000000
0.000000 0.000000 0.000000
-0.001210 -0.001881 0.000000
-0.001881 0.001961 0.000000
0.000000 0.000000 0.000000
0.005570 0.002150 0.000000
0.002150 -0.007584 0.000000
0.000000 0.000000 0.000000
0.011697 -0.002078 0.000000
-0.002078 0.000970 0.000000
0.000000 0.000000 0.000000
-0.006972 -0.001217 0.000000
-0.001217 -0.001260 0.000000
0.000000 0.000000 0.000000
-0.006554 -0.007677 0.000000
-0.007677 -0.004632 0.000000
0.000000 0.000000 0.000000
0.012242 0.003567 0.000000
0.003567 0.002101 0.000000
0.000000 0.000000 0.000000
0.008253 0.005665 0.000000
0.005665 0.003817 0.000000
0.000000 0.000000 0.000000
-0.017113 -0.001592 0.000000
-0.001592 -0.021684 0.000000
0.000000 0.000000 0.000000
-0.014986 -0.007110 0.000000
-0.007110 -0.020517 0.000000
0.000000 0.000000 0.000000
-0.004055 -0.001830 0.000000
-0.001830 0.005833 0.000000
0.000000 0.000000 0.000000
-0.003464 -0.002517 0.000000
-0.002517 -0.001871 0.000000
0.000000 0.000000 0.000000
-0.007643 0.002714 0.000000
0.002714 -0.003103 0.000000
0.000000 0.000000 0.000000
-0.000063 0.002645 0.000000
0.002645 0.017403 0.000000
0.000000 0.000000 0.000000
-0.001805 0.003640 0.000000
0.003640 0.006182 0.000000
0.000000 0.000000 0.000000
0.003669 -0.001909 0.000000
-0.001909 0.018804 0.000000
0.000000 0.000000 0.000000
0.003169 0.000751 0.000000
0.000751 0.002391 0.000000
0.000000 0.000000 0.000000
0.010859 0.004068 0.000000
0.004068 0.010649 0.000000
0.000000 0.000000 0.000000
-0.002234 0.003179 0.000000
0.003179 0.007378 0.000000
0.000000 0.000000 0.000000
0.012132 0.002178 0.000000
0.002178 0.003031 0.000000
0.000000 0.000000 0.000000
-0.013396 -0.003501 0.000000
-0.003501 -0.000607 0.000000
0.000000 0.000000 0.000000
0.000991 -0.000151 0.000000
-0.000151 -0.002791 0.000000
0.000000 0.000000 0.000000
0.000682 0.005314 0.000000
0.005314 0.015674 0.000000
0.000000 0.000000 0.000000
-0.002260 -0.006056 0.000000
-0.006056 0.002757 0.000000
0.000000 0.000000 0.000000
0.006183 0.012812 0.000000
0.012812 0.001775 0.000000
0.000000 0.000000 0.000000
-0.004186 0.001577 0.000000
0.001577 -0.014699 0.000000
0.000000 0.000000 0.000000
-0.001277 0.007191 0.000000
0.007191 -0.005938 0.000000
0.000000 0.000000 0.000000
0.004066 0.004974 0.000000
0.004974 -0.006159 0.000000
0.000000 0.000000 0.000000
-0.004192 -0.001915 0.000000
-0.001915 -0.007227 0.000000
0.000000 0.000000 0.000000
0.006511 0.003858 0.000000
0.003858 -0.004407 0.000000
0.000000 0.000000 0.000000
0.000455 -0.003750 0.000000
-0.003750 0.007475 0.000000
0.000000 0.000000 0.000000
-0.001742 -0.003939 0.000000
-0.003939 0.007901 0.000000
0.000000 0.000000 0.000000
-0.001760 0.003351 0.000000
0.003351 -0.002286 0.000000
0.000000 0.000000 0.000000
0.003006 -0.007009 0.000000
-0.007009 0.000853 0.000000
0.000000 0.000000 0.000000
-0.002127 0.008896 0.000000
0.008896 0.020738 0.000000
0.000000 0.000000 0.000000
-0.002244 0.003724 0.000000
0.003724 0.022521 0.000000
0.000000 0.000000 0.000000
0.016315 0.006379 0.000000
0.006379 0.015049 0.000000
0.000000 0.000000 0.000000
-0.021208 0.004088 0.000000
0.004088 -0.001023 0.000000
0.000000 0.000000 0.000000
-0.008115 -0.002409 0.000000
-0.002409 0.001490 0.000000
0.000000 0.000000 0.000000
-0.004585 -0.004585 0.000000
-0.004585 -0.003461 0.000000
0.000000 0.000000 0.000000
-0.020792 -0.010113 0.000000
-0.010113 -0.009994 0.000000
0.000000 0.000000 0.000000
0.020170 0.000335 0.000000
0.000335 -0.001833 0.000000
0.000000 0.000000 0.000000
0.000856 0.001459 0.000000
0.001459 -0.001395 0.000000
0.000000 0.000000 0.000000
-0.009148 -0.001085 0.000000
-0.001085 0.002579 0.000000
0.000000 0.000000 0.000000
-0.003827 -0.001309 0.000000
-0.001309 0.004058 0.000000
0.000000 0.000000 0.000000
-0.007999 0.002956 0.000000
0.002956 -0.004435 0.000000
0.000000 0.000000 0.000000
0.009580 0.001634 0.000000
0.001634 0.006324 0.000000
0.000000 0.000000 0.000000
0.017821 0.010272 0.000000
0.010272 0.002299 0.000000
0.000000 0.000000 0.000000
0.005164 -0.002835 0.000000
-0.002835 0.000073 0.000000
0.000000 0.000000 0.000000
0.002623 -0.002131 0.000000
-0.002131 0.006135 0.000000
0.000000 0.000000 0.000000
-0.006526 -0.000623 0.000000
-0.000623 0.002712 0.000000
0.000000 0.000000 0.000000
0.003539 0.001240 0.000000
0.001240 0.005800 0.000000
0.000000 0.000000 0.000000
0.011319 -0.000349 0.000000
-0.000349 0.006376 0.000000
0.000000 0.000000 0.000000
0.013359 -0.000073 0.000000
-0.000073 0.002743 0.000000
0.000000 0.000000 0.000000
-0.009528 -0.007923 0.000000
-0.007923 -0.009354 0.000000
0.000000 0.000000 0.000000
-0.000280 -0.005438 0.000000
-0.005438 -0.002932 0.000000
0.000000 0.000000 0.000000
-0.013953 -0.006927 0.000000
-0.006927 -0.006224 0.000000
0.000000 0.000000 0.000000
-0.004470 -0.004259 0.000000
-0.004259 -0.002812 0.000000
0.000000 0.000000 0.000000
-0.011220 -0.001384 0.000000
-0.001384 -0.020288 0.000000
0.000000 0.000000 0.000000
-0.004245 0.003069 0.000000
0.003069 -0.007146 0.000000
0.000000 0.000000 0.000000
-0.002525 -0.000419 0.000000
-0.000419 0.002285 0.000000
0.000000 0.000000 0.000000
0.000199 -0.000988 0.000000
-0.000988 0.003202 0.000000
0.000000 0.000000 0.000000
-0.011763 0.007458 0.000000
0.007458 -0.003570 0.000000
0.000000 0.000000 0.000000
-0.011290 -0.004178 0.000000
-0.004178 -0.012777 0.000000
0.000000 0.000000 0.000000
-0.006770 -0.004240 0.000000
-0.004240 0.005585 0.000000
0.000000 0.000000 0.000000
-0.008933 -0.003448 0.000000
-0.003448 -0.014510 0.000000
0.000000 0.000000 0.000000
0.008404 -0.001780 0.000000
-0.001780 0.002342 0.000000
0.000000 0.000000 0.000000
-0.004623 0.002929 0.000000
0.002929 0.000275 0.000000
0.000000 0.000000 0.000000
0.013199 -0.007658 0.000000
-0.007658 0.021668 0.000000
0.000000 0.000000 0.000000
0.008774 0.006704 0.000000
0.006704 0.015559 0.000000
0.000000 0.000000 0.000000
0.007979 0.003572 0.000000
0.003572 0.007010 0.000000
0.000000 0.000000 0.000000
0.001482 0.005126 0.000000
0.005126 -0.000326 0.000000
0.000000 0.000000 0.000000
0.003400 0.005690 0.000000
0.005690 -0.000488 0.000000
0.000000 0.000000 0.000000
-0.002448 0.011048 0.000000
0.011048 0.004833 0.000000
0.000000 0.000000 0.000000
0.001792 -0.001475 0.000000
-0.001475 0.007937 0.000000
0.000000 0.000000 0.000000
-0.000685 0.003843 0.000000
0.003843 -0.007886 0.000000
0.000000 0.000000 0.000000
-0.006681 0.007016 0.000000
0.007016 -0.003056 0.000000
0.000000 0.000000 0.000000
-0.004010 -0.008194 0.000000
-0.008194 0.010533 0.000000
0.000000 0.000000 0.000000
-0.006139 0.001286 0.000000
0.001286 0.007849 0.000000
0.000000 0.000000 0.000000
-0.002491 -0.001843 0.000000
-0.001843 -0.015599 0.000000
0.000000 0.000000 0.000000
-0.011796 0.004590 0.000000
0.004590 -0.010599 0.000000
0.000000 0.000000 0.000000
0.004132 0.003187 0.000000
0.003187 -0.002909 0.000000
0.000000 0.000000 0.000000
0.002511 0.000960 0.000000
0.000960 -0.002078 0.000000
0.000000 0.000000 0.000000
-0.001310 0.007046 0.000000
0.007046 0.014680 0.000000
0.000000 0.000000 0.000000
-0.008921 0.004243 0.000000
0.004243 0.003302 0.000000
0.000000 0.000000 0.000000
0.009491 0.006085 0.000000
0.006085 0.008895 0.000000
0.000000 0.000000 0.000000
0.002837 -0.000114 0.000000
-0.000114 -0.002943 0.000000
0.000000 0.000000 0.000000
0.002178 -0.000924 0.000000
-0.000924 -0.000721 0.000000
0.000000 0.000000 0.000000
-0.005448 -0.003088 0.000000
-0.003088 -0.002227 0.000000
0.000000 0.000000 0.000000
0.027038 0.015394 0.000000
0.015394 0.018933 0.000000
0.000000 0.000000 0.000000
0.008033 -0.006638 0.000000
-0.006638 0.007909 0.000000
0.000000 0.000000 0.000000
-0.011062 -0.003517 0.000000
-0.003517 -0.000294 0.000000
0.000000 0.000000 0.000000
0.003804 -0.011046 0.000000
-0.011046 0.011147 0.000000
0.000000 0.000000 0.000000
-0.025260 0.001812 0.000000
0.001812 -0.004174 0.000000
0.000000 0.000000 0.000000
-0.014162 -0.006704 0.000000
-0.006704 0.019518 0.000000
0.000000 0.000000 0.000000
-0.028500 -0.007436 0.000000
-0.007436 -0.018675 0.000000
0.000000 0.000000 0.000000
-0.017879 -0.007859 0.000000
-0.007859 -0.015519 0.000000
0.000000 0.000000 0.000000
0.022356 0.013531 0.000000
0.013531 -0.002561 0.000000
0.000000 0.000000 0.000000
-0.004358 -0.006597 0.000000
-0.006597 -0.006267 0.000000
0.000000 0.000000 0.000000
0.013743 0.004065 0.000000
0.004065 -0.018216 0.000000
0.000000 0.000000 0.000000
0.000350 -0.004555 0.000000
-0.004555 0.006747 0.000000
0.000000 0.000000 0.000000
0.004418 -0.010302 0.000000
-0.010302 -0.017117 0.000000
0.000000 0.000000 0.000000
0.005108 0.001667 0.000000
0.001667 0.009942 0.000000
0.000000 0.000000 0.000000
0.009955 -0.004161 0.000000
-0.004161 0.008661 0.000000
0.000000 0.000000 0.000000
-0.005237 0.004920 0.000000
0.004920 0.002645 0.000000
0.000000 0.000000 0.000000
-0.003878 0.002206 0.000000
0.002206 0.009048 0.000000
0.000000 0.000000 0.000000
-0.008983 0.007568 0.000000
0.007568 0.004054 0.000000
0.000000 0.000000 0.000000
-0.006639 0.001774 0.000000
0.001774 0.008134 0.000000
0.000000 0.000000 0.000000
-0.006838 0.007119 0.000000
0.007119 -0.009110 0.000000
0.000000 0.000000 0.000000
-0.016361 0.004126 0.000000
0.004126 0.002601 0.000000
0.000000 0.000000 0.000000
-0.024966 -0.009062 0.000000
-0.009062 -0.018755 0.000000
0.000000 0.000000 0.000000
-0.018393 -0.013813 0.000000
-0.013813 -0.008312 0.000000
0.000000 0.000000 0.000000
0.009122 0.001231 0.000000
0.001231 0.020242 0.000000
0.000000 0.000000 0.000000
-0.012324 0.011810 0.000000
0.011810 0.016750 0.000000
0.000000 0.000000 0.000000
0.005909 -0.001617 0.000000
-0.001617 -0.007853 0.000000
0.000000 0.000000 0.000000
0.008753 -0.000782 0.000000
-0.000782 0.005507 0.000000
0.000000 0.000000 0.000000
0.004698 -0.009001 0.000000
-0.009001 0.004092 0.000000
0.000000 0.000000 0.000000
-0.005281 -0.006033 0.000000
-0.006033 -0.007054 0.000000
0.000000 0.000000 0.000000
-0.013052 -0.007406 0.000000
-0.007406 -0.009400 0.000000
0.000000 0.000000 0.000000
0.009644 0.003032 0.000000
0.003032 0.005714 0.000000
0.000000 0.000000 0.000000
0.013705 0.000697 0.000000
0.000697 0.010601 0.000000
0.000000 0.000000 0.000000
0.011894 0.003231 0.000000
0.003231 0.007125 0.000000
0.000000 0.000000 0.000000
0.000521 0.001184 0.000000
0.001184 0.002824 0.000000
0.000000 0.000000 0.000000
0.012933 0.004889 0.000000
0.004889 0.005159 0.000000
0.000000 0.000000 0.000000
-0.001175 0.010217 0.000000
0.010217 0.006012 0.000000
0.000000 0.000000 0.000000
0.003267 -0.000060 0.000000
-0.000060 0.004567 0.000000
0.000000 0.000000 0.000000
0.014280 0.000453 0.000000
0.000453 0.010125 0.000000
0.000000 0.000000 0.000000
-0.008124 0.001375 0.000000
0.001375 -0.005280 0.000000
0.000000 0.000000 0.000000
0.009425 -0.004871 0.000000
-0.004871 -0.004260 0.000000
0.000000 0.000000 0.000000
0.005635 -0.000694 0.000000
-0.000694 0.011752 0.000000
0.000000 0.000000 0.000000
-0.009366 0.003446 0.000000
0.003446 -0.005765 0.000000
0.000000 0.000000 0.000000
-0.006422 -0.009131 0.000000
-0.009131 0.002661 0.000000
0.000000 0.000000 0.000000
-0.008933 0.001990 0.000000
0.001990 0.003001 0.000000
0.000000 0.000000 0.000000
0.013021 0.005625 0.000000
0.005625 0.002921 0.000000
0.000000 0.000000 0.000000
-0.004577 0.003319 0.000000
0.003319 0.013515 0.000000
0.000000 0.000000 0.000000
0.011532 0.004725 0.000000
0.004725 0.000960 0.000000
0.000000 0.000000 0.000000
0.003785 -0.001196 0.000000
-0.001196 0.006368 0.000000
0.000000 0.000000 0.000000
0.010201 0.008623 0.000000
0.008623 0.004635 0.000000
0.000000 0.000000 0.000000
-0.003474 0.004218 0.000000
0.004218 0.001197 0.000000
0.000000 0.000000 0.000000
-0.002675 -0.002339 0.000000
-0.002339 -0.005752 0.000000
0.000000 0.000000 0.000000
0.002448 -0.003064 0.000000
-0.003064 -0.003160 0.000000
0.000000 0.000000 0.000000
0.019448 -0.003821 0.000000
-0.003821 0.028547 0.000000
0.000000 0.000000 0.000000
-0.005134 -0.000168 0.000000
-0.000168 -0.008617 0.000000
0.000000 0.000000 0.000000
0.009751 0.000534 0.000000
0.000534 -0.002542 0.000000
0.000000 0.000000 0.000000
0.000361 -0.001338 0.000000
-0.001338 -0.014101 0.000000
0.000000 0.000000 0.000000
0.003507 -0.001148 0.000000
-0.001148 -0.011512 0.000000
0.000000 0.000000 0.000000
-0.004512 -0.005900 0.000000
-0.005900 -0.005332 0.000000
0.000000 0.000000 0.000000
-0.004861 0.007040 0.000000
0.007040 0.006116 0.000000
0.000000 0.000000 0.000000
0.007173 0.002133 0.000000
0.002133 0.004524 0.000000
0.000000 0.000000 0.000000
-0.008406 0.008323 0.000000
0.008323 -0.004966 0.000000
0.000000 0.000000 0.000000
0.009173 -0.001074 0.000000
-0.001074 0.007257 0.000000
0.000000 0.000000 0.000000
0.006636 0.004576 0.000000
0.004576 0.005812 0.000000
0.000000 0.000000 0.000000
0.005703 -0.006256 0.000000
-0.006256 0.016383 0.000000
0.000000 0.000000 0.000000
0.000095 0.008101 0.000000
0.008101 0.001519 0.000000
0.000000 0.000000 0.000000
-0.002958 0.009690 0.000000
0.009690 0.002574 0.000000
0.000000 0.000000 0.000000
-0.002018 0.001979 0.000000
0.001979 -0.006279 0.000000
0.000000 0.000000 0.000000
0.003247 0.006751 0.000000
0.006751 0.005274 0.000000
0.000000 0.000000 0.000000
0.004623 -0.000057 0.000000
-0.000057 -0.006953 0.000000
0.000000 0.000000 0.000000
0.009192 0.000364 0.000000
0.000364 0.000524 0.000000
0.000000 0.000000 0.000000
0.002813 -0.006835 0.000000
-0.006835 0.006119 0.000000
0.000000 0.000000 0.000000
0.030018 -0.011899 0.000000
-0.011899 -0.011681 0.000000
0.000000 0.000000 0.000000
-0.002341 0.001173 0.000000
0.001173 -0.015861 0.000000
0.000000 0.000000 0.000000
-0.001505 0.011238 0.000000
0.011238 -0.008194 0.000000
0.000000 0.000000 0.000000
-0.001581 -0.005391 0.000000
-0.005391 -0.010657 0.000000
0.000000 0.000000 0.000000
-0.009882 -0.003854 0.000000
-0.003854 0.000122 0.000000
0.000000 0.000000 0.000000
-0.016629 0.006654 0.000000
0.006654 -0.005065 0.000000
0.000000 0.000000 0.000000
-0.014199 0.006264 0.000000
0.006264 -0.005532 0.000000
0.000000 0.000000 0.000000
-0.000651 0.000976 0.000000
0.000976 -0.005049 0.000000
0.000000 0.000000 0.000000
0.000147 0.004903 0.000000
0.004903 0.019175 0.000000
0.000000 0.000000 0.000000
0.018696 -0.008825 0.000000
-0.008825 -0.026172 0.000000
0.000000 0.000000 0.000000
-0.006724 0.001806 0.000000
0.001806 -0.016617 0.000000
0.000000 0.000000 0.000000
-0.008502 0.001377 0.000000
0.001377 0.005308 0.000000
0.000000 0.000000 0.000000
-0.018207 0.000662 0.000000
0.000662 -0.019145 0.000000
0.000000 0.000000 0.000000
0.007785 -0.000461 0.000000
-0.000461 0.002539 0.000000
0.000000 0.000000 0.000000
0.003054 -0.003301 0.000000
-0.003301 0.004116 0.000000
0.000000 0.000000 0.000000
-0.003095 0.001623 0.000000
0.001623 -0.006573 0.000000
0.000000 0.000000 0.000000
-0.003913 0.001503 0.000000
0.001503 -0.010018 0.000000
0.000000 0.000000 0.000000
-0.003732 -0.005677 0.000000
-0.005677 0.007343 0.000000
0.000000 0.000000 0.000000
0.004863 0.003019 0.000000
0.003019 -0.006728 0.000000
0.000000 0.000000 0.000000
-0.011601 0.004066 0.000000
0.004066 -0.012995 0.000000
0.000000 0.000000 0.000000
-0.005573 -0.001508 0.000000
-0.001508 0.003808 0.000000
0.000000 0.000000 0.000000
-0.000024 -0.004641 0.000000
-0.004641 0.001524 0.000000
0.000000 0.000000 0.000000
0.000449 0.005189 0.000000
0.005189 0.007585 0.000000
0.000000 0.000000 0.000000
0.001852 0.007034 0.000000
0.007034 -0.005770 0.000000
0.000000 0.000000 0.000000
-0.001544 0.003688 0.000000
0.003688 -0.005210 0.000000
0.000000 0.000000 0.000000
0.003531 0.000625 0.000000
0.000625 0.006901 0.000000
0.000000 0.000000 0.000000
-0.003959 0.003565 0.000000
0.003565 -0.022044 0.000000
0.000000 0.000000 0.000000
0.016401 -0.006587 0.000000
-0.006587 0.007432 0.000000
0.000000 0.000000 0.000000
-0.003851 0.000531 0.000000
0.000531 -0.002851 0.000000
0.000000 0.000000 0.000000
-0.001118 0.006111 0.000000
0.006111 0.011434 0.000000
0.000000 0.000000 0.000000
0.011301 0.001910 0.000000
0.001910 -0.006774 0.000000
0.000000 0.000000 0.000000
-0.005914 -0.006434 0.000000
-0.006434 0.017882 0.000000
0.000000 0.000000 0.000000
-0.002690 0.004309 0.000000
0.004309 0.007718 0.000000
0.000000 0.000000 0.000000
0.015418 0.004030 0.000000
0.004030 -0.003002 0.000000
0.000000 0.000000 0.000000
-0.002812 -0.000250 0.000000
-0.000250 0.007873 0.000000
0.000000 0.000000 0.000000
0.016350 0.001070 0.000000
0.001070 0.007106 0.000000
0.000000 0.000000 0.000000
-0.015159 -0.007471 0.000000
-0.007471 -0.012202 0.000000
0.000000 0.000000 0.000000
0.002105 0.002635 0.000000
0.002635 0.010166 0.000000
0.000000 0.000000 0.000000
0.003177 -0.004278 0.000000
-0.004278 -0.005099 0.000000
0.000000 0.000000 0.000000
0.003141 -0.000850 0.000000
-0.000850 0.008154 0.000000
0.000000 0.000000 0.000000
-0.001302 0.003400 0.000000
0.003400 0.005338 0.000000
0.000000 0.000000 0.000000
-0.000856 0.003975 0.000000
0.003975 -0.006228 0.000000
0.000000 0.000000 0.000000
0.002614 0.003791 0.000000
0.003791 0.004595 0.000000
0.000000 0.000000 0.000000
-0.001039 0.000057 0.000000
0.000057 0.009375 0.000000
0.000000 0.000000 0.000000
0.000023 -0.003857 0.000000
-0.003857 0.001707 0.000000
0.000000 0.000000 0.000000
-0.004397 -0.013061 0.000000
-0.013061 0.005525 0.000000
0.000000 0.000000 0.000000
-0.002451 -0.006883 0.000000
-0.006883 0.015594 0.000000
0.000000 0.000000 0.000000
0.008008 0.000602 0.000000
0.000602 -0.002026 0.000000
0.000000 0.000000 0.000000
-0.007663 -0.010016 0.000000
-0.010016 -0.024580 0.000000
0.000000 0.000000 0.000000
-0.005607 0.008512 0.000000
0.008512 -0.002272 0.000000
0.000000 0.000000 0.000000
0.022216 -0.004479 0.000000
-0.004479 0.008082 0.000000
0.000000 0.000000 0.000000
0.036091 -0.005273 0.000000
-0.005273 -0.002559 0.000000
0.000000 0.000000 0.000000
0.004671 0.007207 0.000000
0.007207 0.005545 0.000000
0.000000 0.000000 0.000000
0.016426 -0.001033 0.000000
-0.001033 -0.008422 0.000000
0.000000 0.000000 0.000000
0.005095 -0.001971 0.000000
-0.001971 0.003761 0.000000
0.000000 0.000000 0.000000
-0.000501 -0.007212 0.000000
-0.007212 0.012311 0.000000
0.000000 0.000000 0.000000
-0.025189 -0.004999 0.000000
-0.004999 -0.004008 0.000000
0.000000 0.000000 0.000000
0.001941 -0.008307 0.000000
-0.008307 -0.004992 0.000000
0.000000 0.000000 0.000000
0.021288 -0.019167 0.000000
-0.019167 0.008070 0.000000
0.000000 0.000000 0.000000
0.000992 0.003302 0.000000
0.003302 0.006673 0.000000
0.000000 0.000000 0.000000
0.003341 -0.004522 0.000000
-0.004522 -0.016675 0.000000
0.000000 0.000000 0.000000
0.003211 -0.004177 0.000000
-0.004177 0.004855 0.000000
0.000000 0.000000 0.000000
-0.001004 0.001324 0.000000
0.001324 -0.017178 0.000000
0.000000 0.000000 0.000000
-0.000727 -0.001750 0.000000
-0.001750 0.019696 0.000000
0.000000 0.000000 0.000000
0.008682 0.003900 0.000000
0.003900 0.020150 0.000000
0.000000 0.000000 0.000000
-0.008986 -0.003939 0.000000
-0.003939 -0.014782 0.000000
0.000000 0.000000 0.000000
-0.001179 0.001227 0.000000
0.001227 0.002383 0.000000
0.000000 0.000000 0.000000
-0.001175 0.000524 0.000000
0.000524 -0.000007 0.000000
0.000000 0.000000 0.000000
0.000022 0.002566 0.000000
0.002566 -0.001981 0.000000
0.000000 0.000000 0.000000
0.005132 0.001267 0.000000
0.001267 0.007257 0.000000
0.000000 0.000000 0.000000
-0.001812 -0.000838 0.000000
-0.000838 0.005105 0.000000
0.000000 0.000000 0.000000
0.028767 -0.009682 0.000000
-0.009682 0.012088 0.000000
0.000000 0.000000 0.000000
-0.009981 -0.003519 0.000000
-0.003519 -0.021676 0.000000
0.000000 0.000000 0.000000
-0.013242 0.005882 0.000000
0.005882 -0.008879 0.000000
0.000000 0.000000 0.000000
-0.016866 0.012097 0.000000
0.012097 -0.015295 0.000000
0.000000 0.000000 0.000000
0.010051 0.002736 0.000000
0.002736 0.001646 0.000000
0.000000 0.000000 0.000000
0.006652 0.000921 0.000000
0.000921 0.014371 0.000000
0.000000 0.000000 0.000000
0.011580 0.000119 0.000000
0.000119 0.013094 0.000000
0.000000 0.000000 0.000000
0.004914 0.001679 0.000000
0.001679 0.001831 0.000000
0.000000 0.000000 0.000000
-0.016966 -0.000491 0.000000
-0.000491 -0.005616 0.000000
0.000000 0.000000 0.000000
-0.010152 -0.003090 0.000000
-0.003090 -0.003106 0.000000
0.000000 0.000000 0.000000
-0.012478 0.003328 0.000000
0.003328 -0.006908 0.000000
0.000000 0.000000 0.000000
0.024874 -0.003029 0.000000
-0.003029 0.002826 0.000000
0.000000 0.000000 0.000000
0.001702 -0.003836 0.000000
-0.003836 -0.011134 0.000000
0.000000 0.000000 0.000000
0.003291 -0.000946 0.000000
-0.000946 0.010562 0.000000
0.000000 0.000000 0.000000
0.002859 -0.001262 0.000000
-0.001262 0.000609 0.000000
0.000000 0.000000 0.000000
0.001722 -0.002743 0.000000
-0.002743 0.007159 0.000000
0.000000 0.000000 0.000000
0.004403 0.000267 0.000000
0.000267 0.004405 0.000000
0.000000 0.000000 0.000000
0.012416 -0.006471 0.000000
-0.006471 0.018190 0.000000
0.000000 0.000000 0.000000
0.017277 0.003432 0.000000
0.003432 0.018785 0.000000
0.000000 0.000000 0.000000
0.023009 -0.002446 0.000000
-0.002446 0.017435 0.000000
0.000000 0.000000 0.000000
0.035111 -0.005657 0.000000
-0.005657 0.017970 0.000000
0.000000 0.000000 0.000000
0.025850 -0.004519 0.000000
-0.004519 0.010002 0.000000
0.000000 0.000000 0.000000
0.005012 -0.002560 0.000000
-0.002560 0.008402 0.000000
0.000000 0.000000 0.000000
-0.005074 -0.006475 0.000000
-0.006475 -0.001763 0.000000
0.000000 0.000000 0.000000
0.001338 -0.001847 0.000000
-0.001847 0.004366 0.000000
0.000000 0.000000 0.000000
-0.001886 0.006949 0.000000
0.006949 -0.001487 0.000000
0.000000 0.000000 0.000000
-0.003504 -0.006563 0.000000
-0.006563 0.001535 0.000000
0.000000 0.000000 0.000000
-0.010245 -0.006308 0.000000
-0.006308 0.001165 0.000000
0.000000 0.000000 0.000000
0.003932 -0.001981 0.000000
-0.001981 0.002655 0.000000
0.000000 0.000000 0.000000
-0.000325 0.000791 0.000000
0.000791 0.002410 0.000000
0.000000 0.000000 0.000000
-0.005383 0.002098 0.000000
0.002098 -0.003729 0.000000
0.000000 0.000000 0.000000
-0.002492 -0.005474 0.000000
-0.005474 0.008748 0.000000
0.000000 0.000000 0.000000
-0.001204 0.003687 0.000000
0.003687 -0.021014 0.000000
0.000000 0.000000 0.000000
-0.005623 -0.001616 0.000000
-0.001616 -0.009478 0.000000
0.000000 0.000000 0.000000
-0.000032 0.003652 0.000000
0.003652 0.000106 0.000000
0.000000 0.000000 0.000000
-0.007885 -0.012532 0.000000
-0.012532 -0.004148 0.000000
0.000000 0.000000 0.000000
0.000468 0.001353 0.000000
0.001353 0.007468 0.000000
0.000000 0.000000 0.000000
0.000431 0.008780 0.000000
0.008780 -0.015210 0.000000
0.000000 0.000000 0.000000
-0.000420 -0.004576 0.000000
-0.004576 -0.001213 0.000000
0.000000 0.000000 0.000000
0.002115 -0.009199 0.000000
-0.009199 0.006699 0.000000
0.000000 0.000000 0.000000
-0.005587 -0.000007 0.000000
-0.000007 0.000676 0.000000
0.000000 0.000000 0.000000
-0.004109 -0.002192 0.000000
-0.002192 -0.000538 0.000000
0.000000 0.000000 0.000000
0.004617 -0.007670 0.000000
-0.007670 0.008235 0.000000
0.000000 0.000000 0.000000
-0.001690 -0.002183 0.000000
-0.002183 -0.000333 0.000000
0.000000 0.000000 0.000000
-0.022734 0.005685 0.000000
0.005685 -0.014450 0.000000
0.000000 0.000000 0.000000
0.011964 -0.006129 0.000000
-0.006129 0.001863 0.000000
0.000000 0.000000 0.000000
0.007788 -0.010976 0.000000
-0.010976 -0.002166 0.000000
0.000000 0.000000 0.000000
0.005970 -0.001931 0.000000
-0.001931 -0.008803 0.000000
0.000000 0.000000 0.000000
-0.005215 0.001645 0.000000
0.001645 0.001302 0.000000
0.000000 0.000000 0.000000
0.001245 0.003129 0.000000
0.003129 -0.013727 0.000000
0.000000 0.000000 0.000000
-0.008779 0.003759 0.000000
0.003759 -0.008871 0.000000
0.000000 0.000000 0.000000
-0.004980 -0.000460 0.000000
-0.000460 -0.012372 0.000000
0.000000 0.000000 0.000000
0.008195 0.011644 0.000000
0.011644 0.013839 0.000000
0.000000 0.000000 0.000000
0.008973 -0.001486 0.000000
-0.001486 0.006032 0.000000
0.000000 0.000000 0.000000
-0.012769 0.002105 0.000000
0.002105 0.018685 0.000000
0.000000 0.000000 0.000000
-0.002155 0.002607 0.000000
0.002607 0.021417 0.000000
0.000000 0.000000 0.000000
0.004288 0.007087 0.000000
0.007087 -0.003898 0.000000
0.000000 0.000000 0.000000
-0.004436 0.000838 0.000000
0.000838 0.000700 0.000000
0.000000 0.000000 0.000000
0.011432 0.003527 0.000000
0.003527 0.003944 0.000000
0.000000 0.000000 0.000000
0.008928 0.003035 0.000000
0.003035 0.007236 0.000000
0.000000 0.000000 0.000000
-0.007306 -0.002728 0.000000
-0.002728 0.003958 0.000000
0.000000 0.000000 0.000000
-0.007532 -0.005494 0.000000
-0.005494 0.007742 0.000000
0.000000 0.000000 0.000000
0.005521 -0.002141 0.000000
-0.002141 0.000252 0.000000
0.000000 0.000000 0.000000
-0.018187 0.001352 0.000000
0.001352 -0.009207 0.000000
0.000000 0.000000 0.000000
0.002175 -0.005023 0.000000
-0.005023 -0.003663 0.000000
0.000000 0.000000 0.000000
0.007979 -0.013177 0.000000
-0.013177 -0.014400 0.000000
0.000000 0.000000 0.000000
0.006763 0.010902 0.000000
0.010902 -0.007726 0.000000
0.000000 0.000000 0.000000
-0.002268 -0.009232 0.000000
-0.009232 0.003553 0.000000
0.000000 0.000000 0.000000
-0.006101 -0.000429 0.000000
-0.000429 -0.000812 0.000000
0.000000 0.000000 0.000000
-0.013859 -0.005160 0.000000
-0.005160 -0.003814 0.000000
0.000000 0.000000 0.000000
-0.007546 -0.002952 0.000000
-0.002952 -0.009386 0.000000
0.000000 0.000000 0.000000
0.027666 0.004425 0.000000
0.004425 -0.002801 0.000000
0.000000 0.000000 0.000000
-0.003207 0.003973 0.000000
0.003973 0.015812 0.000000
0.000000 0.000000 0.000000
0.031853 -0.000081 0.000000
-0.000081 0.001243 0.000000
0.000000 0.000000 0.000000
0.004694 0.006468 0.000000
0.006468 -0.009121 0.000000
0.000000 0.000000 0.000000
0.001844 0.000195 0.000000
0.000195 0.001968 0.000000
0.000000 0.000000 0.000000
-0.023315 0.006713 0.000000
0.006713 -0.015374 0.000000
0.000000 0.000000 0.000000
-0.006386 0.008917 0.000000
0.008917 -0.011570 0.000000
0.000000 0.000000 0.000000
0.005592 -0.003964 0.000000
-0.003964 -0.000179 0.000000
0.000000 0.000000 0.000000
-0.002595 0.009921 0.000000
0.009921 0.001327 0.000000
0.000000 0.000000 0.000000
0.008720 -0.003199 0.000000
-0.003199 0.001436 0.000000
0.000000 0.000000 0.000000
0.003352 -0.008206 0.000000
-0.008206 -0.002446 0.000000
0.000000 0.000000 0.000000
-0.005823 -0.008678 0.000000
-0.008678 0.013694 0.000000
0.000000 0.000000 0.000000
-0.000203 -0.000474 0.000000
-0.000474 -0.006611 0.000000
0.000000 0.000000 0.000000
-0.001640 -0.003158 0.000000
-0.003158 -0.001100 0.000000
0.000000 0.000000 0.000000
-0.003109 -0.002328 0.000000
-0.002328 -0.002685 0.000000
0.000000 0.000000 0.000000
-0.004468 0.003327 0.000000
0.003327 0.006056 0.000000
0.000000 0.000000 0.000000
0.003806 -0.002386 0.000000
-0.002386 -0.003384 0.000000
0.000000 0.000000 0.000000
0.008799 0.003909 0.000000
0.003909 0.007574 0.000000
0.000000 0.000000 0.000000
0.017336 -0.003627 0.000000
-0.003627 0.006191 0.000000
0.000000 0.000000 0.000000
0.008254 0.003668 0.000000
0.003668 0.004012 0.000000
0.000000 0.000000 0.000000
0.016824 0.001569 0.000000
0.001569 0.006729 0.000000
0.000000 0.000000 0.000000
-0.000631 0.010223 0.000000
0.010223 0.007536 0.000000
0.000000 0.000000 0.000000
-0.003370 -0.001196 0.000000
-0.001196 -0.008597 0.000000
0.000000 0.000000 0.000000
0.001565 0.017295 0.000000
0.017295 0.007025 0.000000
0.000000 0.000000 0.000000
0.000276 -0.002597 0.000000
-0.002597 -0.006391 0.000000
0.000000 0.000000 0.000000
0.035575 -0.002483 0.000000
-0.002483 0.010499 0.000000
0.000000 0.000000 0.000000
0.005845 -0.006726 0.000000
-0.006726 0.003565 0.000000
0.000000 0.000000 0.000000
0.008057 -0.007842 0.000000
-0.007842 0.005389 0.000000
0.000000 0.000000 0.000000
0.009626 0.010201 0.000000
0.010201 0.006483 0.000000
0.000000 0.000000 0.000000
0.004020 -0.001013 0.000000
-0.001013 -0.025574 0.000000
0.000000 0.000000 0.000000
0.026067 -0.005693 0.000000
-0.005693 0.009819 0.000000
0.000000 0.000000 0.000000
0.009955 -0.001953 0.000000
-0.001953 0.005252 0.000000
0.000000 0.000000 0.000000
0.021049 0.006698 0.000000
0.006698 0.008900 0.000000
0.000000 0.000000 0.000000
0.003989 0.004836 0.000000
0.004836 -0.003827 0.000000
0.000000 0.000000 0.000000
0.006054 -0.010736 0.000000
-0.010736 0.010199 0.000000
0.000000 0.000000 0.000000
0.004483 0.006176 0.000000
0.006176 0.012506 0.000000
0.000000 0.000000 0.000000
0.007050 -0.000521 0.000000
-0.000521 0.007946 0.000000
0.000000 0.000000 0.000000
0.007830 0.000747 0.000000
0.000747 0.007204 0.000000
0.000000 0.000000 0.000000
0.005512 -0.001408 0.000000
-0.001408 0.012611 0.000000
0.000000 0.000000 0.000000
0.015701 0.003548 0.000000
0.003548 0.014693 0.000000
0.000000 0.000000 0.000000
-0.001954 -0.002087 0.000000
-0.002087 -0.000222 0.000000
0.000000 0.000000 0.000000
0.032241 -0.000852 0.000000
-0.000852 0.016637 0.000000
0.000000 0.000000 0.000000
0.011108 0.002386 0.000000
0.002386 0.025858 0.000000
0.000000 0.000000 0.000000
0.000914 -0.003546 0.000000
-0.003546 0.007056 0.000000
0.000000 0.000000 0.000000
0.010870 -0.006434 0.000000
-0.006434 -0.001597 0.000000
0.000000 0.000000 0.000000
0.007052 0.002923 0.000000
0.002923 0.005158 0.000000
0.000000 0.000000 0.000000
0.010589 0.003154 0.000000
0.003154 -0.000920 0.000000
0.000000 0.000000 0.000000
-0.000386 -0.007711 0.000000
-0.007711 0.005452 0.000000
0.000000 0.000000 0.000000
0.011527 0.002683 0.000000
0.002683 0.003732 0.000000
0.000000 0.000000 0.000000
-0.005774 0.001818 0.000000
0.001818 0.007923 0.000000
0.000000 0.000000 0.000000
0.000950 -0.004447 0.000000
-0.004447 -0.014173 0.000000
0.000000 0.000000 0.000000
0.000837 0.008804 0.000000
0.008804 -0.016638 0.000000
0.000000 0.000000 0.000000
0.000832 0.006909 0.000000
0.006909 -0.012078 0.000000
0.000000 0.000000 0.000000
0.002221 0.002360 0.000000
0.002360 -0.008470 0.000000
0.000000 0.000000 0.000000
0.009414 -0.001427 0.000000
-0.001427 0.011403 0.000000
0.000000 0.000000 0.000000
-0.005250 0.009584 0.000000
0.009584 -0.007032 0.000000
0.000000 0.000000 0.000000
0.002905 0.004810 0.000000
0.004810 -0.014990 0.000000
0.000000 0.000000 0.000000
-0.001680 0.000892 0.000000
0.000892 0.005885 0.000000
0.000000 0.000000 0.000000
-0.004339 0.002248 0.000000
0.002248 -0.001455 0.000000
0.000000 0.000000 0.000000
0.016626 0.010768 0.000000
0.010768 0.006100 0.000000
0.000000 0.000000 0.000000
0.007821 -0.010332 0.000000
-0.010332 0.015118 0.000000
0.000000 0.000000 0.000000
-0.003203 0.009405 0.000000
0.009405 0.003980 0.000000
0.000000 0.000000 0.000000
-0.001939 0.002676 0.000000
0.002676 -0.005753 0.000000
0.000000 0.000000 0.000000
0.012040 0.010256 0.000000
0.010256 -0.003521 0.000000
0.000000 0.000000 0.000000
-0.011470 0.004317 0.000000
0.004317 -0.007663 0.000000
0.000000 0.000000 0.000000
-0.017656 -0.009355 0.000000
-0.009355 -0.018814 0.000000
0.000000 0.000000 0.000000
-0.005290 0.004566 0.000000
0.004566 -0.021966 0.000000
0.000000 0.000000 0.000000
-0.013809 -0.006995 0.000000
-0.006995 -0.009608 0.000000
0.000000 0.000000 0.000000
0.004141 -0.006884 0.000000
-0.006884 -0.013966 0.000000
0.000000 0.000000 0.000000
0.008385 0.000531 0.000000
0.000531 -0.016105 0.000000
0.000000 0.000000 0.000000
0.002546 -0.007346 0.000000
-0.007346 -0.008387 0.000000
0.000000 0.000000 0.000000
0.000172 -0.000018 0.000000
-0.000018 -0.003556 0.000000
0.000000 0.000000 0.000000
0.005878 0.000366 0.000000
0.000366 0.015626 0.000000
0.000000 0.000000 0.000000
0.017130 -0.003485 0.000000
-0.003485 0.006540 0.000000
0.000000 0.000000 0.000000
0.001774 -0.003625 0.000000
-0.003625 -0.005487 0.000000
0.000000 0.000000 0.000000
0.025664 0.010689 0.000000
0.010689 0.013370 0.000000
0.000000 0.000000 0.000000
0.023392 0.010538 0.000000
0.010538 0.015083 0.000000
0.000000 0.000000 0.000000
0.013862 -0.006872 0.000000
-0.006872 0.015388 0.000000
0.000000 0.000000 0.000000
0.015473 0.000307 0.000000
0.000307 0.011728 0.000000
0.000000 0.000000 0.000000
-0.002233 -0.004964 0.000000
-0.004964 0.000701 0.000000
0.000000 0.000000 0.000000
-0.002443 0.003700 0.000000
0.003700 0.003794 0.000000
0.000000 0.000000 0.000000
-0.012027 0.002479 0.000000
0.002479 -0.005320 0.000000
0.000000 0.000000 0.000000
-0.005102 -0.004264 0.000000
-0.004264 -0.000488 0.000000
0.000000 0.000000 0.000000
-0.010393 0.001787 0.000000
0.001787 -0.005686 0.000000
0.000000 0.000000 0.000000
0.019601 0.009282 0.000000
0.009282 0.014228 0.000000
0.000000 0.000000 0.000000
0.016075 -0.007669 0.000000
-0.007669 -0.002254 0.000000
0.000000 0.000000 0.000000
0.008613 0.001586 0.000000
0.001586 -0.025558 0.000000
0.000000 0.000000 0.000000
0.018514 0.012299 0.000000
0.012299 0.008249 0.000000
0.000000 0.000000 0.000000
-0.010340 0.018910 0.000000
0.018910 -0.020149 0.000000
0.000000 0.000000 0.000000
-0.007405 0.012982 0.000000
0.012982 0.014221 0.000000
0.000000 0.000000 0.000000
0.002352 -0.002184 0.000000
-0.002184 -0.006302 0.000000
0.000000 0.000000 0.000000
0.010491 -0.006342 0.000000
-0.006342 -0.003333 0.000000
0.000000 0.000000 0.000000
0.001761 0.002456 0.000000
0.002456 0.010953 0.000000
0.000000 0.000000 0.000000
-0.006301 0.000701 0.000000
0.000701 -0.002569 0.000000
0.000000 0.000000 0.000000
0.004229 -0.004068 0.000000
-0.004068 -0.006145 0.000000
0.000000 0.000000 0.000000
0.017708 0.009519 0.000000
0.009519 -0.004690 0.000000
0.000000 0.000000 0.000000
0.000515 -0.002258 0.000000
-0.002258 0.003032 0.000000
0.000000 0.000000 0.000000
0.000098 -0.004310 0.000000
-0.004310 -0.006116 0.000000
0.000000 0.000000 0.000000
0.001150 0.003028 0.000000
0.003028 0.001406 0.000000
0.000000 0.000000 0.000000
-0.007612 0.003125 0.000000
0.003125 -0.003189 0.000000
0.000000 0.000000 0.000000
-0.009261 -0.000558 0.000000
-0.000558 -0.007006 0.000000
0.000000 0.000000 0.000000
-0.008962 0.001944 0.000000
0.001944 -0.008401 0.000000
0.000000 0.000000 0.000000
-0.006865 -0.000314 0.000000
-0.000314 0.002594 0.000000
0.000000 0.000000 0.000000
0.002119 -0.009568 0.000000
-0.009568 0.016906 0.000000
0.000000 0.000000 0.000000
-0.006326 0.000045 0.000000
0.000045 -0.002689 0.000000
0.000000 0.000000 0.000000
0.018797 -0.009902 0.000000
-0.009902 0.004634 0.000000
0.000000 0.000000 0.000000
0.006070 -0.002851 0.000000
-0.002851 0.008784 0.000000
0.000000 0.000000 0.000000
-0.002104 -0.005803 0.000000
-0.005803 -0.001911 0.000000
0.000000 0.000000 0.000000
0.006042 0.006524 0.000000
0.006524 -0.003090 0.000000
0.000000 0.000000 0.000000
-0.004408 -0.015900 0.000000
-0.015900 -0.005820 0.000000
0.000000 0.000000 0.000000
-0.013957 -0.008957 0.000000
-0.008957 0.000518 0.000000
0.000000 0.000000 0.000000
-0.000985 0.001529 0.000000
0.001529 -0.001542 0.000000
0.000000 0.000000 0.000000
-0.006689 -0.005731 0.000000
-0.005731 -0.006966 0.000000
0.000000 0.000000 0.000000
-0.001800 -0.000562 0.000000
-0.000562 -0.005902 0.000000
0.000000 0.000000 0.000000
0.005184 -0.002615 0.000000
-0.002615 -0.012374 0.000000
0.000000 0.000000 0.000000
-0.001496 -0.004067 0.000000
-0.004067 0.006435 0.000000
0.000000 0.000000 0.000000
0.026146 0.008827 0.000000
0.008827 -0.004133 0.000000
0.000000 0.000000 0.000000
-0.019861 0.008679 0.000000
0.008679 0.006916 0.000000
0.000000 0.000000 0.000000
0.010148 0.013014 0.000000
0.013014 -0.010994 0.000000
0.000000 0.000000 0.000000
-0.024537 -0.005292 0.000000
-0.005292 0.011907 0.000000
0.000000 0.000000 0.000000
0.020553 0.012235 0.000000
0.012235 0.012278 0.000000
0.000000 0.000000 0.000000
-0.017105 -0.005333 0.000000
-0.005333 -0.005767 0.000000
0.000000 0.000000 0.000000
-0.005016 -0.002857 0.000000
-0.002857 -0.000689 0.000000
0.000000 0.000000 0.000000
0.002086 0.003838 0.000000
0.003838 -0.009306 0.000000
0.000000 0.000000 0.000000
-0.010791 -0.000270 0.000000
-0.000270 -0.001218 0.000000
0.000000 0.000000 0.000000
0.005221 0.003141 0.000000
0.003141 0.013699 0.000000
0.000000 0.000000 0.000000
0.016245 -0.004216 0.000000
-0.004216 0.013006 0.000000
0.000000 0.000000 0.000000
-0.015543 -0.005502 0.000000
-0.005502 -0.005764 0.000000
0.000000 0.000000 0.000000
0.016125 0.000384 0.000000
0.000384 0.016730 0.000000
0.000000 0.000000 0.000000
-0.014303 -0.010043 0.000000
-0.010043 -0.016994 0.000000
0.000000 0.000000 0.000000
0.004230 0.004889 0.000000
0.004889 0.008435 0.000000
0.000000 0.000000 0.000000
-0.009264 -0.005309 0.000000
-0.005309 -0.006351 0.000000
0.000000 0.000000 0.000000
-0.010523 0.012534 0.000000
0.012534 0.014047 0.000000
0.000000 0.000000 0.000000
0.014407 0.000252 0.000000
0.000252 0.007007 0.000000
0.000000 0.000000 0.000000
-0.000235 0.001496 0.000000
0.001496 -0.016386 0.000000
0.000000 0.000000 0.000000
0.006809 0.006146 0.000000
0.006146 0.022176 0.000000
0.000000 0.000000 0.000000
0.003423 0.003420 0.000000
0.003420 -0.004261 0.000000
0.000000 0.000000 0.000000
0.008664 -0.007842 0.000000
-0.007842 0.013440 0.000000
0.000000 0.000000 0.000000
-0.006342 -0.000065 0.000000
-0.000065 -0.001761 0.000000
0.000000 0.000000 0.000000
0.001863 -0.005364 0.000000
-0.005364 -0.001455 0.000000
0.000000 0.000000 0.000000
-0.001720 -0.004547 0.000000
-0.004547 0.001903 0.000000
0.000000 0.000000 0.000000
-0.010929 -0.000549 0.000000
-0.000549 -0.013127 0.000000
0.000000 0.000000 0.000000
-0.019962 -0.001146 0.000000
-0.001146 -0.002170 0.000000
0.000000 0.000000 0.000000
-0.006173 0.002374 0.000000
0.002374 0.016255 0.000000
0.000000 0.000000 0.000000
-0.011234 -0.001022 0.000000
-0.001022 -0.016303 0.000000
0.000000 0.000000 0.000000
0.000779 0.002857 0.000000
0.002857 -0.006882 0.000000
0.000000 0.000000 0.000000
-0.005627 0.002098 0.000000
0.002098 -0.007727 0.000000
0.000000 0.000000 0.000000
0.010247 -0.002838 0.000000
-0.002838 0.005431 0.000000
0.000000 0.000000 0.000000
-0.004549 -0.002377 0.000000
-0.002377 -0.010188 0.000000
0.000000 0.000000 0.000000
-0.000561 -0.007481 0.000000
-0.007481 -0.000915 0.000000
0.000000 0.000000 0.000000
-0.000554 -0.005806 0.000000
-0.005806 0.000608 0.000000
0.000000 0.000000 0.000000
0.018580 0.007507 0.000000
0.007507 0.008273 0.000000
0.000000 0.000000 0.000000
-0.002062 -0.000972 0.000000
-0.000972 -0.008994 0.000000
0.000000 0.000000 0.000000
-0.005937 -0.000609 0.000000
-0.000609 -0.010219 0.000000
0.000000 0.000000 0.000000
-0.003291 0.010016 0.000000
0.010016 0.003283 0.000000
0.000000 0.000000 0.000000
0.002415 -0.003694 0.000000
-0.003694 -0.001234 0.000000
0.000000 0.000000 0.000000
-0.005713 -0.002441 0.000000
-0.002441 -0.008483 0.000000
0.000000 0.000000 0.000000
-0.001410 -0.000118 0.000000
-0.000118 0.008209 0.000000
0.000000 0.000000 0.000000
0.005496 -0.002425 0.000000
-0.002425 0.009195 0.000000
0.000000 0.000000 0.000000
0.004947 0.000295 0.000000
0.000295 0.002884 0.000000
0.000000 0.000000 0.000000
-0.015707 0.001363 0.000000
0.001363 0.006365 0.000000
0.000000 0.000000 0.000000
-0.019596 0.002318 0.000000
0.002318 -0.007773 0.000000
0.000000 0.000000 0.000000
-0.006412 0.000732 0.000000
0.000732 -0.017575 0.000000
0.000000 0.000000 0.000000
0.006734 0.000876 0.000000
0.000876 0.006932 0.000000
0.000000 0.000000 0.000000
0.004744 0.005743 0.000000
0.005743 0.016733 0.000000
0.000000 0.000000 0.000000
0.011188 -0.002159 0.000000
-0.002159 0.000426 0.000000
0.000000 0.000000 0.000000
-0.018905 0.003546 0.000000
0.003546 -0.002793 0.000000
0.000000 0.000000 0.000000
0.010589 0.004881 0.000000
0.004881 0.004748 0.000000
0.000000 0.000000 0.000000
-0.010308 0.005095 0.000000
0.005095 -0.010197 0.000000
0.000000 0.000000 0.000000
0.004236 -0.005623 0.000000
-0.005623 0.008218 0.000000
0.000000 0.000000 0.000000
0.006683 -0.005460 0.000000
-0.005460 0.008688 0.000000
0.000000 0.000000 0.000000
0.015248 -0.001583 0.000000
-0.001583 -0.002650 0.000000
0.000000 0.000000 0.000000
0.004559 0.007591 0.000000
0.007591 -0.000068 0.000000
0.000000 0.000000 0.000000
-0.001272 -0.006912 0.000000
-0.006912 0.015208 0.000000
0.000000 0.000000 0.000000
0.004914 -0.003979 0.000000
-0.003979 0.002870 0.000000
0.000000 0.000000 0.000000
-0.004255 0.001930 0.000000
0.001930 -0.007284 0.000000
0.000000 0.000000 0.000000
0.012655 -0.005700 0.000000
-0.005700 -0.006602 0.000000
0.000000 0.000000 0.000000
-0.003484 -0.006805 0.000000
-0.006805 0.017680 0.000000
0.000000 0.000000 0.000000
0.004591 0.007537 0.000000
0.007537 0.002890 0.000000
0.000000 0.000000 0.000000
0.010086 -0.003105 0.000000
-0.003105 0.005656 0.000000
0.000000 0.000000 0.000000
0.002796 -0.003463 0.000000
-0.003463 0.003317 0.000000
0.000000 0.000000 0.000000
-0.011266 0.009189 0.000000
0.009189 -0.010954 0.000000
0.000000 0.000000 0.000000
0.002541 0.006506 0.000000
0.006506 -0.005895 0.000000
0.000000 0.000000 0.000000
0.012840 0.006376 0.000000
0.006376 0.005519 0.000000
0.000000 0.000000 0.000000
0.014434 -0.002325 0.000000
-0.002325 -0.009836 0.000000
0.000000 0.000000 0.000000
-0.006181 -0.005631 0.000000
-0.005631 0.010585 0.000000
0.000000 0.000000 0.000000
-0.000757 0.011061 0.000000
0.011061 -0.013339 0.000000
0.000000 0.000000 0.000000
-0.023769 0.005055 0.000000
0.005055 -0.012137 0.000000
0.000000 0.000000 0.000000
0.000829 -0.004336 0.000000
-0.004336 -0.007676 0.000000
0.000000 0.000000 0.000000
-0.005049 -0.005248 0.000000
-0.005248 0.001650 0.000000
0.000000 0.000000 0.000000
0.003589 -0.000510 0.000000
-0.000510 -0.001964 0.000000
0.000000 0.000000 0.000000
-0.010830 -0.009566 0.000000
-0.009566 -0.001068 0.000000
0.000000 0.000000 0.000000
-0.013437 0.003348 0.000000
0.003348 -0.014184 0.000000
0.000000 0.000000 0.000000
-0.007279 0.000863 0.000000
0.000863 0.009175 0.000000
0.000000 0.000000 0.000000
-0.011126 0.003772 0.000000
0.003772 -0.004693 0.000000
0.000000 0.000000 0.000000
0.001403 0.002618 0.000000
0.002618 0.003849 0.000000
0.000000 0.000000 0.000000
-0.001693 0.006986 0.000000
0.006986 -0.000814 0.000000
0.000000 0.000000 0.000000
-0.002326 0.004938 0.000000
0.004938 -0.007455 0.000000
0.000000 0.000000 0.000000
0.002725 0.000089 0.000000
0.000089 -0.008695 0.000000
0.000000 0.000000 0.000000
0.013495 -0.009724 0.000000
-0.009724 -0.017829 0.000000
0.000000 0.000000 0.000000
0.002888 -0.000184 0.000000
-0.000184 -0.000563 0.000000
0.000000 0.000000 0.000000
0.004664 -0.007179 0.000000
-0.007179 -0.017983 0.000000
0.000000 0.000000 0.000000
-0.006859 -0.007631 0.000000
-0.007631 0.002442 0.000000
0.000000 0.000000 0.000000
-0.005755 0.003096 0.000000
0.003096 0.001247 0.000000
0.000000 0.000000 0.000000
0.006579 0.000515 0.000000
0.000515 0.003797 0.000000
0.000000 0.000000 0.000000
-0.000345 0.006225 0.000000
0.006225 0.003890 0.000000
0.000000 0.000000 0.000000
-0.010044 -0.012064 0.000000
-0.012064 -0.009137 0.000000
0.000000 0.000000 0.000000
-0.019051 0.005940 0.000000
0.005940 0.003994 0.000000
0.000000 0.000000 0.000000
-0.021422 0.010063 0.000000
0.010063 0.000861 0.000000
0.000000 0.000000 0.000000
-0.003918 -0.001520 0.000000
-0.001520 0.000617 0.000000
0.000000 0.000000 0.000000
-0.020213 -0.005438 0.000000
-0.005438 -0.005954 0.000000
0.000000 0.000000 0.000000
-0.008610 -0.000536 0.000000
-0.000536 0.002172 0.000000
0.000000 0.000000 0.000000
-0.026533 0.001210 0.000000
0.001210 -0.026530 0.000000
0.000000 0.000000 0.000000
0.002387 -0.004315 0.000000
-0.004315 -0.013702 0.000000
0.000000 0.000000 0.000000
0.014043 -0.004912 0.000000
-0.004912 0.002575 0.000000
0.000000 0.000000 0.000000
-0.009520 0.003544 0.000000
0.003544 0.000340 0.000000
0.000000 0.000000 0.000000
0.000197 0.001502 0.000000
0.001502 0.004671 0.000000
0.000000 0.000000 0.000000
0.000263 -0.003728 0.000000
-0.003728 -0.010177 0.000000
0.000000 0.000000 0.000000
-0.008272 0.000884 0.000000
0.000884 -0.002274 0.000000
0.000000 0.000000 0.000000
0.001572 0.003331 0.000000
0.003331 0.009536 0.000000
0.000000 0.000000 0.000000
-0.021499 0.006525 0.000000
0.006525 -0.015836 0.000000
0.000000 0.000000 0.000000
-0.008404 -0.000319 0.000000
-0.000319 0.003877 0.000000
0.000000 0.000000 0.000000
-0.004813 0.003187 0.000000
0.003187 0.004520 0.000000
0.000000 0.000000 0.000000
-0.019696 -0.008591 0.000000
-0.008591 0.007550 0.000000
0.000000 0.000000 0.000000
-0.002796 0.000378 0.000000
0.000378 -0.003267 0.000000
0.000000 0.000000 0.000000
-0.000685 -0.004924 0.000000
-0.004924 0.007403 0.000000
0.000000 0.000000 0.000000
-0.004541 -0.001557 0.000000
-0.001557 -0.002044 0.000000
0.000000 0.000000 0.000000
-0.015359 0.006688 0.000000
0.006688 -0.002211 0.000000
0.000000 0.000000 0.000000
-0.001430 -0.003348 0.000000
-0.003348 0.005363 0.000000
0.000000 0.000000 0.000000
-0.013615 -0.008132 0.000000
-0.008132 -0.004157 0.000000
0.000000 0.000000 0.000000
0.017721 0.013933 0.000000
0.013933 0.020309 0.000000
0.000000 0.000000 0.000000
-0.017647 -0.007918 0.000000
-0.007918 0.002257 0.000000
0.000000 0.000000 0.000000
0.001093 -0.002954 0.000000
-0.002954 0.008211 0.000000
0.000000 0.000000 0.000000
-0.019715 -0.000247 0.000000
-0.000247 -0.000147 0.000000
0.000000 0.000000 0.000000
-0.005654 -0.001183 0.000000
-0.001183 0.008243 0.000000
0.000000 0.000000 0.000000
-0.015661 0.000892 0.000000
0.000892 0.009711 0.000000
0.000000 0.000000 0.000000
-0.010780 0.006308 0.000000
0.006308 -0.011817 0.000000
0.000000 0.000000 0.000000
-0.006647 0.001562 0.000000
0.001562 -0.009855 0.000000
0.000000 0.000000 0.000000
-0.002745 -0.004272 0.000000
-0.004272 -0.008465 0.000000
0.000000 0.000000 0.000000
-0.013848 0.004376 0.000000
0.004376 -0.015842 0.000000
0.000000 0.000000 0.000000
-0.016713 0.006606 0.000000
0.006606 -0.004144 0.000000
0.000000 0.000000 0.000000
0.004286 -0.004682 0.000000
-0.004682 0.001574 0.000000
0.000000 0.000000 0.000000
-0.002258 -0.006129 0.000000
-0.006129 -0.003321 0.000000
0.000000 0.000000 0.000000
0.013231 -0.003870 0.000000
-0.003870 0.007305 0.000000
0.000000 0.000000 0.000000
0.010945 0.002026 0.000000
0.002026 0.011648 0.000000
0.000000 0.000000 0.000000
0.015643 -0.007762 0.000000
-0.007762 -0.011411 0.000000
0.000000 0.000000 0.000000
0.001047 -0.003842 0.000000
-0.003842 -0.003161 0.000000
0.000000 0.000000 0.000000
0.002217 -0.000667 0.000000
-0.000667 0.007301 0.000000
0.000000 0.000000 0.000000
-0.003551 0.002834 0.000000
0.002834 -0.019766 0.000000
0.000000 0.000000 0.000000
-0.000614 -0.000388 0.000000
-0.000388 -0.001961 0.000000
0.000000 0.000000 0.000000
-0.000974 -0.002421 0.000000
-0.002421 -0.008203 0.000000
0.000000 0.000000 0.000000
-0.007951 -0.000890 0.000000
-0.000890 0.000332 0.000000
0.000000 0.000000 0.000000
0.008727 0.010751 0.000000
0.010751 0.010592 0.000000
0.000000 0.000000 0.000000
0.015199 0.002367 0.000000
0.002367 0.007441 0.000000
0.000000 0.000000 0.000000
0.003961 -0.000078 0.000000
-0.000078 0.006385 0.000000
0.000000 0.000000 0.000000
0.021229 0.005544 0.000000
0.005544 0.013120 0.000000
0.000000 0.000000 0.000000
0.001349 0.000647 0.000000
0.000647 -0.001861 0.000000
0.000000 0.000000 0.000000
0.002997 -0.009369 0.000000
-0.009369 -0.007859 0.000000
0.000000 0.000000 0.000000
0.008705 -0.000991 0.000000
-0.000991 0.006668 0.000000
0.000000 0.000000 0.000000
-0.019994 0.000789 0.000000
0.000789 -0.009673 0.000000
0.000000 0.000000 0.000000
0.012010 -0.002700 0.000000
-0.002700 -0.003855 0.000000
0.000000 0.000000 0.000000
0.025812 -0.011981 0.000000
-0.011981 -0.003134 0.000000
0.000000 0.000000 0.000000
0.010521 0.002191 0.000000
0.002191 -0.001798 0.000000
0.000000 0.000000 0.000000
-0.003804 0.002163 0.000000
0.002163 -0.007041 0.000000
0.000000 0.000000 0.000000
0.007475 0.000593 0.000000
0.000593 -0.002206 0.000000
0.000000 0.000000 0.000000
0.011715 -0.010082 0.000000
-0.010082 -0.002223 0.000000
0.000000 0.000000 0.000000
-0.018783 -0.006268 0.000000
-0.006268 -0.015473 0.000000
0.000000 0.000000 0.000000
-0.004321 0.001461 0.000000
0.001461 0.009600 0.000000
0.000000 0.000000 0.000000
0.013149 0.000802 0.000000
0.000802 -0.000595 0.000000
0.000000 0.000000 0.000000
-0.015474 0.000801 0.000000
0.000801 -0.009891 0.000000
0.000000 0.000000 0.000000
0.001252 0.002655 0.000000
0.002655 0.003315 0.000000
0.000000 0.000000 0.000000
-0.006816 -0.002557 0.000000
-0.002557 -0.014310 0.000000
0.000000 0.000000 0.000000
0.020186 0.007013 0.000000
0.007013 0.011429 0.000000
0.000000 0.000000 0.000000
-0.000989 0.008519 0.000000
0.008519 -0.000526 0.000000
0.000000 0.000000 0.000000
0.007919 -0.009484 0.000000
-0.009484 -0.008076 0.000000
0.000000 0.000000 0.000000
0.000784 0.004585 0.000000
0.004585 -0.013099 0.000000
0.000000 0.000000 0.000000
0.009400 0.001885 0.000000
0.001885 0.005292 0.000000
0.000000 0.000000 0.000000
-0.015386 0.004982 0.000000
0.004982 -0.002602 0.000000
0.000000 0.000000 0.000000
0.004147 -0.005590 0.000000
-0.005590 -0.005054 0.000000
0.000000 0.000000 0.000000
-0.008998 -0.011525 0.000000
-0.011525 -0.002208 0.000000
0.000000 0.000000 0.000000
0.008349 0.002239 0.000000
0.002239 0.001942 0.000000
0.000000 0.000000 0.000000
-0.006927 -0.005957 0.000000
-0.005957 -0.004204 0.000000
0.000000 0.000000 0.000000
0.021820 0.005440 0.000000
0.005440 0.013108 0.000000
0.000000 0.000000 0.000000
0.015582 0.009055 0.000000
0.009055 0.010954 0.000000
0.000000 0.000000 0.000000
0.007252 -0.000921 0.000000
-0.000921 0.012486 0.000000
0.000000 0.000000 0.000000
0.012038 0.005385 0.000000
0.005385 0.008473 0.000000
0.000000 0.000000 0.000000
-0.003559 -0.005528 0.000000
-0.005528 0.006133 0.000000
0.000000 0.000000 0.000000
0.008638 -0.002017 0.000000
-0.002017 0.004135 0.000000
0.000000 0.000000 0.000000
0.004156 -0.003435 0.000000
-0.003435 -0.002253 0.000000
0.000000 0.000000 0.000000
-0.004380 0.000438 0.000000
0.000438 0.002231 0.000000
0.000000 0.000000 0.000000
0.005659 -0.005349 0.000000
-0.005349 0.003856 0.000000
0.000000 0.000000 0.000000
-0.008820 0.002634 0.000000
0.002634 -0.006229 0.000000
0.000000 0.000000 0.000000
0.007176 -0.000010 0.000000
-0.000010 -0.007212 0.000000
0.000000 0.000000 0.000000
0.016889 -0.004730 0.000000
-0.004730 0.020440 0.000000
0.000000 0.000000 0.000000
0.001748 -0.001189 0.000000
-0.001189 -0.008985 0.000000
0.000000 0.000000 0.000000
0.008694 0.000818 0.000000
0.000818 0.003071 0.000000
0.000000 0.000000 0.000000
-0.004323 -0.010838 0.000000
-0.010838 0.005817 0.000000
0.000000 0.000000 0.000000
0.010184 0.005176 0.000000
0.005176 0.026783 0.000000
0.000000 0.000000 0.000000
-0.002070 0.001691 0.000000
0.001691 -0.004910 0.000000
0.000000 0.000000 0.000000
-0.001921 -0.009293 0.000000
-0.009293 -0.000646 0.000000
0.000000 0.000000 0.000000
-0.000652 -0.001591 0.000000
-0.001591 0.009301 0.000000
0.000000 0.000000 0.000000
-0.002590 0.003707 0.000000
0.003707 0.003688 0.000000
0.000000 0.000000 0.000000
0.012182 0.000771 0.000000
0.000771 -0.010507 0.000000
0.000000 0.000000 0.000000
-0.009038 -0.005066 0.000000
-0.005066 0.003846 0.000000
0.000000 0.000000 0.000000
-0.003482 0.003694 0.000000
0.003694 0.010123 0.000000
0.000000 0.000000 0.000000
0.006813 -0.002629 0.000000
-0.002629 0.000853 0.000000
0.000000 0.000000 0.000000
-0.000812 0.007558 0.000000
0.007558 -0.002674 0.000000
0.000000 0.000000 0.000000
-0.001794 0.006121 0.000000
0.006121 0.007292 0.000000
0.000000 0.000000 0.000000
0.001670 0.001891 0.000000
0.001891 0.000105 0.000000
0.000000 0.000000 0.000000
0.006783 0.004036 0.000000
0.004036 -0.002666 0.000000
0.000000 0.000000 0.000000
-0.001103 -0.001606 0.000000
-0.001606 0.011963 0.000000
0.000000 0.000000 0.000000
0.007200 0.001532 0.000000
0.001532 0.005958 0.000000
0.000000 0.000000 0.000000
-0.004388 0.000523 0.000000
0.000523 0.002336 0.000000
0.000000 0.000000 0.000000
0.010791 -0.001548 0.000000
-0.001548 0.015494 0.000000
0.000000 0.000000 0.000000
0.004625 0.011826 0.000000
0.011826 0.007801 0.000000
0.000000 0.000000 0.000000
-0.004550 -0.002801 0.000000
-0.002801 0.003221 0.000000
0.000000 0.000000 0.000000
0.003498 0.000558 0.000000
0.000558 0.010973 0.000000
0.000000 0.000000 0.000000
-0.008673 -0.007598 0.000000
-0.007598 0.006528 0.000000
0.000000 0.000000 0.000000
0.001849 0.001353 0.000000
0.001353 -0.001076 0.000000
0.000000 0.000000 0.000000
-0.016244 -0.002228 0.000000
-0.002228 -0.005784 0.000000
0.000000 0.000000 0.000000
0.000867 -0.002384 0.000000
-0.002384 -0.000834 0.000000
0.000000 0.000000 0.000000
-0.005000 0.005730 0.000000
0.005730 -0.011320 0.000000
0.000000 0.000000 0.000000
-0.014176 0.002227 0.000000
0.002227 -0.013985 0.000000
0.000000 0.000000 0.000000
-0.007239 0.006930 0.000000
0.006930 -0.013528 0.000000
0.000000 0.000000 0.000000
-0.010531 -0.009633 0.000000
-0.009633 -0.013204 0.000000
0.000000 0.000000 0.000000
-0.014286 0.001965 0.000000
0.001965 0.005496 0.000000
0.000000 0.000000 0.000000
-0.019603 -0.000092 0.000000
-0.000092 0.002343 0.000000
0.000000 0.000000 0.000000
0.018041 0.007888 0.000000
0.007888 0.023311 0.000000
0.000000 0.000000 0.000000
0.010309 0.005597 0.000000
0.005597 0.000758 0.000000
0.000000 0.000000 0.000000
0.011593 0.003579 0.000000
0.003579 0.004935 0.000000
0.000000 0.000000 0.000000
0.002683 -0.001019 0.000000
-0.001019 -0.003360 0.000000
0.000000 0.000000 0.000000
0.002837 0.005619 0.000000
0.005619 0.001893 0.000000
0.000000 0.000000 0.000000
-0.000519 0.005447 0.000000
0.005447 -0.010433 0.000000
0.000000 0.000000 0.000000
0.000359 -0.003123 0.000000
-0.003123 -0.004712 0.000000
0.000000 0.000000 0.000000
-0.003916 -0.000334 0.000000
-0.000334 -0.014266 0.000000
0.000000 0.000000 0.000000
-0.004920 0.001111 0.000000
0.001111 -0.006296 0.000000
0.000000 0.000000 0.000000
0.003814 0.000698 0.000000
0.000698 -0.009531 0.000000
0.000000 0.000000 0.000000
-0.001260 0.005145 0.000000
0.005145 0.005531 0.000000
0.000000 0.000000 0.000000
0.005869 0.004852 0.000000
0.004852 0.005790 0.000000
0.000000 0.000000 0.000000
-0.001151 0.001577 0.000000
0.001577 -0.007815 0.000000
0.000000 0.000000 0.000000
0.005457 0.000991 0.000000
0.000991 -0.000616 0.000000
0.000000 0.000000 0.000000
0.003016 -0.004600 0.000000
-0.004600 0.014378 0.000000
0.000000 0.000000 0.000000
0.010725 0.001517 0.000000
0.001517 -0.014664 0.000000
0.000000 0.000000 0.000000
0.009604 -0.001050 0.000000
-0.001050 -0.006550 0.000000
0.000000 0.000000 0.000000
0.011016 -0.001060 0.000000
-0.001060 0.018953 0.000000
0.000000 0.000000 0.000000
-0.030523 -0.001848 0.000000
-0.001848 -0.016588 0.000000
0.000000 0.000000 0.000000
0.011525 -0.006872 0.000000
-0.006872 0.004424 0.000000
0.000000 0.000000 0.000000
0.002380 -0.002306 0.000000
-0.002306 -0.009233 0.000000
0.000000 0.000000 0.000000
0.001201 0.000886 0.000000
0.000886 0.013471 0.000000
0.000000 0.000000 0.000000
-0.004946 0.000022 0.000000
0.000022 -0.009170 0.000000
0.000000 0.000000 0.000000
0.000565 0.003486 0.000000
0.003486 -0.000905 0.000000
0.000000 0.000000 0.000000
0.012701 -0.010343 0.000000
-0.010343 -0.003089 0.000000
0.000000 0.000000 0.000000
0.004620 -0.003782 0.000000
-0.003782 0.007962 0.000000
0.000000 0.000000 0.000000
-0.004548 0.005798 0.000000
0.005798 -0.006195 0.000000
0.000000 0.000000 0.000000
-0.017781 -0.002928 0.000000
-0.002928 -0.009886 0.000000
0.000000 0.000000 0.000000
0.005946 -0.004598 0.000000
-0.004598 0.000633 0.000000
0.000000 0.000000 0.000000
0.011147 0.000169 0.000000
0.000169 0.001278 0.000000
0.000000 0.000000 0.000000
0.008442 -0.006513 0.000000
-0.006513 0.011981 0.000000
0.000000 0.000000 0.000000
0.013765 -0.010285 0.000000
-0.010285 0.002145 0.000000
0.000000 0.000000 0.000000
0.002305 0.001919 0.000000
0.001919 0.000131 0.000000
0.000000 0.000000 0.000000
0.006955 0.000801 0.000000
0.000801 -0.005226 0.000000
0.000000 0.000000 0.000000
0.017864 -0.000345 0.000000
-0.000345 0.007434 0.000000
0.000000 0.000000 0.000000
-0.000398 0.006642 0.000000
0.006642 0.032808 0.000000
0.000000 0.000000 0.000000
0.001872 -0.006347 0.000000
-0.006347 0.004666 0.000000
0.000000 0.000000 0.000000
-0.005920 0.000474 0.000000
0.000474 0.003629 0.000000
0.000000 0.000000 0.000000
-0.018407 -0.002134 0.000000
-0.002134 -0.013378 0.000000
0.000000 0.000000 0.000000
-0.011155 -0.001316 0.000000
-0.001316 0.007932 0.000000
0.000000 0.000000 0.000000
-0.004073 -0.000791 0.000000
-0.000791 0.011145 0.000000
0.000000 0.000000 0.000000
0.004486 -0.000076 0.000000
-0.000076 -0.006189 0.000000
0.000000 0.000000 0.000000
0.029241 0.006451 0.000000
0.006451 0.005236 0.000000
0.000000 0.000000 0.000000
0.005955 0.001357 0.000000
0.001357 0.019214 0.000000
0.000000 0.000000 0.000000
0.005328 -0.002398 0.000000
-0.002398 -0.015249 0.000000
0.000000 0.000000 0.000000
0.005098 0.002517 0.000000
0.002517 0.006070 0.000000
0.000000 0.000000 0.000000
-0.011884 0.013614 0.000000
0.013614 0.024048 0.000000
0.000000 0.000000 0.000000
0.020915 0.005940 0.000000
0.005940 -0.000799 0.000000
0.000000 0.000000 0.000000
0.023188 -0.000105 0.000000
-0.000105 0.011641 0.000000
0.000000 0.000000 0.000000
-0.008286 -0.006983 0.000000
-0.006983 0.005172 0.000000
0.000000 0.000000 0.000000
-0.006312 0.002728 0.000000
0.002728 -0.000046 0.000000
0.000000 0.000000 0.000000
-0.004471 0.004024 0.000000
0.004024 0.004309 0.000000
0.000000 0.000000 0.000000
-0.009255 -0.006198 0.000000
-0.006198 -0.000586 0.000000
0.000000 0.000000 0.000000
-0.009954 0.000463 0.000000
0.000463 -0.007076 0.000000
0.000000 0.000000 0.000000
-0.003903 0.000878 0.000000
0.000878 0.003605 0.000000
0.000000 0.000000 0.000000
0.004918 -0.001197 0.000000
-0.001197 -0.012317 0.000000
0.000000 0.000000 0.000000
-0.003365 0.008849 0.000000
0.008849 -0.014159 0.000000
0.000000 0.000000 0.000000
0.001407 -0.004552 0.000000
-0.004552 0.003599 0.000000
0.000000 0.000000 0.000000
0.000662 0.004456 0.000000
0.004456 0.013587 0.000000
0.000000 0.000000 0.000000
-0.005870 -0.000507 0.000000
-0.000507 -0.000269 0.000000
0.000000 0.000000 0.000000
-0.004229 -0.008764 0.000000
-0.008764 -0.006932 0.000000
0.000000 0.000000 0.000000
-0.003185 0.002100 0.000000
0.002100 0.001829 0.000000
0.000000 0.000000 0.000000
0.001498 -0.000909 0.000000
-0.000909 -0.006150 0.000000
0.000000 0.000000 0.000000
-0.012983 -0.006463 0.000000
-0.006463 -0.003514 0.000000
0.000000 0.000000 0.000000
0.006841 -0.002230 0.000000
-0.002230 0.008747 0.000000
0.000000 0.000000 0.000000
-0.000353 0.000089 0.000000
0.000089 -0.012190 0.000000
0.000000 0.000000 0.000000
-0.001461 0.006355 0.000000
0.006355 0.008072 0.000000
0.000000 0.000000 0.000000
-0.007570 -0.004689 0.000000
-0.004689 -0.006223 0.000000
0.000000 0.000000 0.000000
-0.000844 -0.000192 0.000000
-0.000192 -0.005521 0.000000
0.000000 0.000000 0.000000
-0.005325 0.000000 0.000000
0.000000 -0.004707 0.000000
0.000000 0.000000 0.000000
0.007509 0.004451 0.000000
0.004451 -0.001399 0.000000
0.000000 0.000000 0.000000
-0.004730 -0.003700 0.000000
-0.003700 -0.010725 0.000000
0.000000 0.000000 0.000000
0.016155 0.005904 0.000000
0.005904 0.001170 0.000000
0.000000 0.000000 0.000000
0.001647 -0.000400 0.000000
-0.000400 -0.008354 0.000000
0.000000 0.000000 0.000000
-0.009210 -0.003160 0.000000
-0.003160 0.005421 0.000000
0.000000 0.000000 0.000000
0.000692 -0.005562 0.000000
-0.005562 -0.012070 0.000000
0.000000 0.000000 0.000000
0.000165 -0.007622 0.000000
-0.007622 -0.006327 0.000000
0.000000 0.000000 0.000000
0.011093 0.007743 0.000000
0.007743 0.004416 0.000000
0.000000 0.000000 0.000000
-0.024191 -0.000804 0.000000
-0.000804 0.007793 0.000000
0.000000 0.000000 0.000000
0.000259 0.003087 0.000000
0.003087 0.009765 0.000000
0.000000 0.000000 0.000000
-0.025875 0.003185 0.000000
0.003185 0.000279 0.000000
0.000000 0.000000 0.000000
-0.004849 0.010332 0.000000
0.010332 -0.005981 0.000000
0.000000 0.000000 0.000000
-0.007872 -0.001190 0.000000
-0.001190 0.000878 0.000000
0.000000 0.000000 0.000000
0.005381 0.004235 0.000000
0.004235 -0.003567 0.000000
0.000000 0.000000 0.000000
-0.016389 0.004745 0.000000
0.004745 -0.014736 0.000000
0.000000 0.000000 0.000000
-0.002016 -0.008325 0.000000
-0.008325 -0.000523 0.000000
0.000000 0.000000 0.000000
-0.006461 -0.004806 0.000000
-0.004806 -0.002013 0.000000
0.000000 0.000000 0.000000
0.000809 -0.004726 0.000000
-0.004726 0.005513 0.000000
0.000000 0.000000 0.000000
-0.010508 -0.003820 0.000000
-0.003820 -0.000527 0.000000
0.000000 0.000000 0.000000
-0.017878 0.004350 0.000000
0.004350 -0.007203 0.000000
0.000000 0.000000 0.000000
0.013122 -0.006776 0.000000
-0.006776 -0.005601 0.000000
0.000000 0.000000 0.000000
-0.004932 -0.007738 0.000000
-0.007738 0.000672 0.000000
0.000000 0.000000 0.000000
-0.020557 0.001588 0.000000
0.001588 -0.012000 0.000000
0.000000 0.000000 0.000000
-0.003245 0.003313 0.000000
0.003313 -0.005647 0.000000
0.000000 0.000000 0.000000
0.001110 -0.005263 0.000000
-0.005263 0.012951 0.000000
0.000000 0.000000 0.000000
0.005896 -0.008725 0.000000
-0.008725 -0.004264 0.000000
0.000000 0.000000 0.000000
-0.014705 -0.006135 0.000000
-0.006135 0.009751 0.000000
0.000000 0.000000 0.000000
-0.008575 0.002240 0.000000
0.002240 0.006065 0.000000
0.000000 0.000000 0.000000
0.040164 -0.001366 0.000000
-0.001366 0.003198 0.000000
0.000000 0.000000 0.000000
0.016894 -0.014400 0.000000
-0.014400 -0.000691 0.000000
0.000000 0.000000 0.000000
0.001126 -0.004330 0.000000
-0.004330 -0.002614 0.000000
0.000000 0.000000 0.000000
0.001234 0.000082 0.000000
0.000082 -0.004890 0.000000
0.000000 0.000000 0.000000
0.023501 0.004983 0.000000
0.004983 0.015303 0.000000
0.000000 0.000000 0.000000
-0.010229 -0.003255 0.000000
-0.003255 0.012654 0.000000
0.000000 0.000000 0.000000
0.010129 0.002928 0.000000
0.002928 -0.000993 0.000000
0.000000 0.000000 0.000000
0.001208 -0.006126 0.000000
-0.006126 -0.004381 0.000000
0.000000 0.000000 0.000000
-0.013852 0.006691 0.000000
0.006691 -0.010419 0.000000
0.000000 0.000000 0.000000
0.009782 -0.007091 0.000000
-0.007091 0.007001 0.000000
0.000000 0.000000 0.000000
-0.001536 -0.004816 0.000000
-0.004816 0.006178 0.000000
0.000000 0.000000 0.000000
0.003467 0.000365 0.000000
0.000365 0.007253 0.000000
0.000000 0.000000 0.000000
0.000188 0.006642 0.000000
0.006642 -0.006479 0.000000
0.000000 0.000000 0.000000
0.006214 -0.004834 0.000000
-0.004834 -0.001958 0.000000
0.000000 0.000000 0.000000
0.007974 -0.006380 0.000000
-0.006380 0.007118 0.000000
0.000000 0.000000 0.000000
-0.020099 -0.002027 0.000000
-0.002027 -0.012946 0.000000
0.000000 0.000000 0.000000
-0.020048 0.002640 0.000000
0.002640 -0.011693 0.000000
0.000000 0.000000 0.000000
-0.013765 -0.000598 0.000000
-0.000598 -0.014013 0.000000
0.000000 0.000000 0.000000
-0.018389 0.003331 0.000000
0.003331 -0.005416 0.000000
0.000000 0.000000 0.000000
-0.002616 -0.005403 0.000000
-0.005403 0.004670 0.000000
0.000000 0.000000 0.000000
-0.006703 -0.001153 0.000000
-0.001153 -0.004349 0.000000
0.000000 0.000000 0.000000
-0.001213 -0.004755 0.000000
-0.004755 0.005747 0.000000
0.000000 0.000000 0.000000
0.007431 -0.001712 0.000000
-0.001712 0.002332 0.000000
0.000000 0.000000 0.000000
0.005613 0.004342 0.000000
0.004342 -0.005920 0.000000
0.000000 0.000000 0.000000
0.005377 -0.000266 0.000000
-0.000266 -0.001535 0.000000
0.000000 0.000000 0.000000
-0.013205 -0.001107 0.000000
-0.001107 0.000750 0.000000
0.000000 0.000000 0.000000
-0.005073 -0.000250 0.000000
-0.000250 -0.000899 0.000000
0.000000 0.000000 0.000000
-0.003937 0.006305 0.000000
0.006305 -0.019304 0.000000
0.000000 0.000000 0.000000
-0.000205 0.002305 0.000000
0.002305 0.000425 0.000000
0.000000 0.000000 0.000000
0.002574 -0.001613 0.000000
-0.001613 0.001843 0.000000
0.000000 0.000000 0.000000
-0.007371 -0.000225 0.000000
-0.000225 -0.000894 0.000000
0.000000 0.000000 0.000000
0.013038 0.004032 0.000000
0.004032 0.002595 0.000000
0.000000 0.000000 0.000000
0.004689 0.006124 0.000000
0.006124 0.002387 0.000000
0.000000 0.000000 0.000000
0.010747 0.005294 0.000000
0.005294 0.001280 0.000000
0.000000 0.000000 0.000000
-0.006722 -0.002042 0.000000
-0.002042 -0.012914 0.000000
0.000000 0.000000 0.000000
0.001730 0.004403 0.000000
0.004403 -0.000890 0.000000
0.000000 0.000000 0.000000
0.005684 0.001260 0.000000
0.001260 0.001825 0.000000
0.000000 0.000000 0.000000
0.007791 0.003832 0.000000
0.003832 -0.005825 0.000000
0.000000 0.000000 0.000000
-0.003003 -0.000477 0.000000
-0.000477 0.007663 0.000000
0.000000 0.000000 0.000000
-0.019876 -0.006590 0.000000
-0.006590 -0.015710 0.000000
0.000000 0.000000 0.000000
-0.012566 0.004336 0.000000
0.004336 -0.009059 0.000000
0.000000 0.000000 0.000000
0.003475 0.006608 0.000000
0.006608 0.003509 0.000000
0.000000 0.000000 0.000000
-0.003291 -0.001282 0.000000
-0.001282 0.001057 0.000000
0.000000 0.000000 0.000000
-0.002082 -0.007347 0.000000
-0.007347 0.011114 0.000000
0.000000 0.000000 0.000000
0.007842 0.003679 0.000000
0.003679 -0.013796 0.000000
0.000000 0.000000 0.000000
-0.014765 -0.007977 0.000000
-0.007977 0.007189 0.000000
0.000000 0.000000 0.000000
-0.001048 -0.000856 0.000000
-0.000856 0.020390 0.000000
0.000000 0.000000 0.000000
-0.009650 0.005777 0.000000
0.005777 0.014171 0.000000
0.000000 0.000000 0.000000
0.000371 -0.000043 0.000000
-0.000043 0.010630 0.000000
0.000000 0.000000 0.000000
0.000283 0.007874 0.000000
0.007874 0.003993 0.000000
0.000000 0.000000 0.000000
0.013326 -0.002201 0.000000
-0.002201 0.004746 0.000000
0.000000 0.000000 0.000000
-0.017491 -0.013724 0.000000
-0.013724 -0.019859 0.000000
0.000000 0.000000 0.000000
-0.021923 -0.014545 0.000000
-0.014545 -0.013366 0.000000
0.000000 0.000000 0.000000
-0.009001 0.004584 0.000000
0.004584 -0.006904 0.000000
0.000000 0.000000 0.000000
0.010541 -0.000477 0.000000
-0.000477 0.005774 0.000000
0.000000 0.000000 0.000000
0.009542 -0.000297 0.000000
-0.000297 -0.000759 0.000000
0.000000 0.000000 0.000000
0.005208 0.001566 0.000000
0.001566 -0.005633 0.000000
0.000000 0.000000 0.000000
0.004589 -0.000927 0.000000
-0.000927 -0.004160 0.000000
0.000000 0.000000 0.000000
0.008931 0.000181 0.000000
0.000181 0.006201 0.000000
0.000000 0.000000 0.000000
0.004145 -0.011150 0.000000
-0.011150 -0.004804 0.000000
0.000000 0.000000 0.000000
-0.000301 -0.003578 0.000000
-0.003578 -0.011246 0.000000
0.000000 0.000000 0.000000
0.003193 0.002649 0.000000
0.002649 0.018710 0.000000
0.000000 0.000000 0.000000
0.011582 0.002993 0.000000
0.002993 -0.001212 0.000000
0.000000 0.000000 0.000000
-0.000984 0.004917 0.000000
0.004917 0.007893 0.000000
0.000000 0.000000 0.000000
0.009966 0.003542 0.000000
0.003542 0.003867 0.000000
0.000000 0.000000 0.000000
0.004766 -0.003770 0.000000
-0.003770 -0.005382 0.000000
0.000000 0.000000 0.000000
0.003017 -0.000963 0.000000
-0.000963 -0.023801 0.000000
0.000000 0.000000 0.000000
-0.003164 -0.003708 0.000000
-0.003708 -0.007472 0.000000
0.000000 0.000000 0.000000
0.009882 0.000506 0.000000
0.000506 -0.013708 0.000000
0.000000 0.000000 0.000000
-0.009485 0.010524 0.000000
0.010524 0.008604 0.000000
0.000000 0.000000 0.000000
0.017421 0.010176 0.000000
0.010176 0.022178 0.000000
0.000000 0.000000 0.000000
-0.002683 0.000197 0.000000
0.000197 -0.010838 0.000000
0.000000 0.000000 0.000000
0.014605 0.007541 0.000000
0.007541 0.000436 0.000000
0.000000 0.000000 0.000000
0.003232 0.006239 0.000000
0.006239 -0.011848 0.000000
0.000000 0.000000 0.000000
0.017068 0.007894 0.000000
0.007894 -0.007352 0.000000
0.000000 0.000000 0.000000
-0.013576 -0.005975 0.000000
-0.005975 -0.013657 0.000000
0.000000 0.000000 0.000000
-0.006299 0.001054 0.000000
0.001054 -0.004863 0.000000
0.000000 0.000000 0.000000
0.000847 -0.004703 0.000000
-0.004703 -0.000927 0.000000
0.000000 0.000000 0.000000
-0.005732 0.001368 0.000000
0.001368 -0.004263 0.000000
0.000000 0.000000 0.000000
-0.013943 -0.005561 0.000000
-0.005561 0.002030 0.000000
0.000000 0.000000 0.000000
-0.002456 -0.000151 0.000000
-0.000151 0.002426 0.000000
0.000000 0.000000 0.000000
-0.011666 -0.007174 0.000000
-0.007174 -0.009577 0.000000
0.000000 0.000000 0.000000
0.000147 -0.001321 0.000000
-0.001321 0.004206 0.000000
0.000000 0.000000 0.000000
0.008473 -0.000258 0.000000
-0.000258 0.002908 0.000000
0.000000 0.000000 0.000000
-0.001775 0.004701 0.000000
0.004701 0.011943 0.000000
0.000000 0.000000 0.000000
-0.017541 0.007168 0.000000
0.007168 -0.002365 0.000000
0.000000 0.000000 0.000000
0.001884 -0.000875 0.000000
-0.000875 -0.002644 0.000000
0.000000 0.000000 0.000000
0.000779 -0.003774 0.000000
-0.003774 0.018747 0.000000
0.000000 0.000000 0.000000
0.037718 -0.007850 0.000000
-0.007850 -0.007411 0.000000
0.000000 0.000000 0.000000
0.006552 -0.001307 0.000000
-0.001307 -0.001380 0.000000
0.000000 0.000000 0.000000
-0.002573 -0.006434 0.000000
-0.006434 0.007404 0.000000
0.000000 0.000000 0.000000
-0.010759 -0.007660 0.000000
-0.007660 -0.015200 0.000000
0.000000 0.000000 0.000000
-0.013680 -0.009390 0.000000
-0.009390 0.002398 0.000000
0.000000 0.000000 0.000000
-0.005602 0.002438 0.000000
0.002438 -0.005687 0.000000
0.000000 0.000000 0.000000
-0.012489 -0.011720 0.000000
-0.011720 0.002070 0.000000
0.000000 0.000000 0.000000
-0.011883 -0.006883 0.000000
-0.006883 -0.015701 0.000000
0.000000 0.000000 0.000000
-0.002920 -0.015050 0.000000
-0.015050 0.006261 0.000000
0.000000 0.000000 0.000000
-0.000463 0.006212 0.000000
0.006212 -0.006212 0.000000
0.000000 0.000000 0.000000
-0.012802 -0.008470 0.000000
-0.008470 -0.020450 0.000000
0.000000 0.000000 0.000000
-0.002657 -0.004276 0.000000
-0.004276 0.000227 0.000000
0.000000 0.000000 0.000000
-0.005192 0.000693 0.000000
0.000693 -0.021209 0.000000
0.000000 0.000000 0.000000
-0.009878 0.003081 0.000000
0.003081 -0.004698 0.000000
0.000000 0.000000 0.000000
-0.030220 -0.005197 0.000000
-0.005197 0.004298 0.000000
0.000000 0.000000 0.000000
0.008104 -0.000873 0.000000
-0.000873 0.000617 0.000000
0.000000 0.000000 0.000000
0.026065 0.001406 0.000000
0.001406 0.011703 0.000000
0.000000 0.000000 0.000000
0.006457 -0.000177 0.000000
-0.000177 0.006599 0.000000
0.000000 0.000000 0.000000
-0.000623 0.007396 0.000000
0.007396 -0.001571 0.000000
0.000000 0.000000 0.000000
0.010048 -0.005947 0.000000
-0.005947 -0.012455 0.000000
0.000000 0.000000 0.000000
0.016787 -0.001744 0.000000
-0.001744 -0.011059 0.000000
0.000000 0.000000 0.000000
-0.003963 0.007816 0.000000
0.007816 -0.008080 0.000000
0.000000 0.000000 0.000000
0.016177 -0.008454 0.000000
-0.008454 0.006210 0.000000
0.000000 0.000000 0.000000
-0.013406 0.003796 0.000000
0.003796 0.003085 0.000000
0.000000 0.000000 0.000000
-0.014723 0.005839 0.000000
0.005839 -0.002450 0.000000
0.000000 0.000000 0.000000
-0.014343 0.001211 0.000000
0.001211 -0.020495 0.000000
0.000000 0.000000 0.000000
-0.011913 0.005143 0.000000
0.005143 -0.001503 0.000000
0.000000 0.000000 0.000000
0.013773 -0.009229 0.000000
-0.009229 0.007659 0.000000
0.000000 0.000000 0.000000
-0.003858 -0.007057 0.000000
-0.007057 -0.004293 0.000000
0.000000 0.000000 0.000000
-0.005479 -0.007054 0.000000
-0.007054 -0.017520 0.000000
0.000000 0.000000 0.000000
0.018419 -0.005855 0.000000
-0.005855 0.005891 0.000000
0.000000 0.000000 0.000000
0.016902 -0.007228 0.000000
-0.007228 0.001152 0.000000
0.000000 0.000000 0.000000
-0.015207 -0.005771 0.000000
-0.005771 -0.005640 0.000000
0.000000 0.000000 0.000000
-0.005756 -0.009069 0.000000
-0.009069 0.022181 0.000000
0.000000 0.000000 0.000000
0.001643 -0.001848 0.000000
-0.001848 0.008669 0.000000
0.000000 0.000000 0.000000
-0.005491 -0.010720 0.000000
-0.010720 -0.010890 0.000000
0.000000 0.000000 0.000000
-0.009427 -0.000335 0.000000
-0.000335 -0.018953 0.000000
0.000000 0.000000 0.000000
0.012452 0.000851 0.000000
0.000851 0.008455 0.000000
0.000000 0.000000 0.000000
-0.008611 -0.003166 0.000000
-0.003166 -0.000507 0.000000
0.000000 0.000000 0.000000
-0.004869 -0.004612 0.000000
-0.004612 -0.011142 0.000000
0.000000 0.000000 0.000000
-0.009957 -0.000956 0.000000
-0.000956 -0.006135 0.000000
0.000000 0.000000 0.000000
-0.008215 -0.000538 0.000000
-0.000538 0.004210 0.000000
0.000000 0.000000 0.000000
0.025138 0.003787 0.000000
0.003787 0.007578 0.000000
0.000000 0.000000 0.000000
-0.007535 0.001152 0.000000
0.001152 0.004137 0.000000
0.000000 0.000000 0.000000
0.017634 0.005065 0.000000
0.005065 0.000282 0.000000
0.000000 0.000000 0.000000
-0.001687 0.001142 0.000000
0.001142 0.000790 0.000000
0.000000 0.000000 0.000000
0.004480 0.000236 0.000000
0.000236 0.012166 0.000000
0.000000 0.000000 0.000000
-0.012960 0.003366 0.000000
0.003366 -0.010912 0.000000
0.000000 0.000000 0.000000
0.001930 -0.001818 0.000000
-0.001818 0.011337 0.000000
0.000000 0.000000 0.000000
-0.011699 -0.001261 0.000000
-0.001261 0.000359 0.000000
0.000000 0.000000 0.000000
-0.003045 -0.002420 0.000000
-0.002420 -0.000243 0.000000
0.000000 0.000000 0.000000
0.001461 0.003027 0.000000
0.003027 0.002079 0.000000
0.000000 0.000000 0.000000
0.022365 -0.005090 0.000000
-0.005090 -0.003077 0.000000
0.000000 0.000000 0.000000
0.002153 -0.004276 0.000000
-0.004276 -0.013905 0.000000
0.000000 0.000000 0.000000
-0.013998 0.001367 0.000000
0.001367 0.005954 0.000000
0.000000 0.000000 0.000000
0.001872 -0.001457 0.000000
-0.001457 -0.003194 0.000000
0.000000 0.000000 0.000000
-0.009412 -0.001678 0.000000
-0.001678 -0.005664 0.000000
0.000000 0.000000 0.000000
0.005348 -0.008715 0.000000
-0.008715 0.013092 0.000000
0.000000 0.000000 0.000000
0.001600 -0.001627 0.000000
-0.001627 -0.003271 0.000000
0.000000 0.000000 0.000000
0.019657 0.003610 0.000000
0.003610 0.002687 0.000000
0.000000 0.000000 0.000000
-0.005610 0.003623 0.000000
0.003623 -0.009925 0.000000
0.000000 0.000000 0.000000
0.006939 -0.006067 0.000000
-0.006067 -0.000605 0.000000
0.000000 0.000000 0.000000
0.000672 -0.004309 0.000000
-0.004309 -0.001462 0.000000
0.000000 0.000000 0.000000
-0.011639 0.010242 0.000000
0.010242 0.001319 0.000000
0.000000 0.000000 0.000000
0.000635 0.005343 0.000000
0.005343 -0.001978 0.000000
0.000000 0.000000 0.000000
-0.001346 -0.000074 0.000000
-0.000074 -0.002224 0.000000
0.000000 0.000000 0.000000
0.013763 -0.000136 0.000000
-0.000136 0.014305 0.000000
0.000000 0.000000 0.000000
0.011909 -0.002312 0.000000
-0.002312 0.005287 0.000000
0.000000 0.000000 0.000000
-0.015982 -0.000995 0.000000
-0.000995 -0.006980 0.000000
0.000000 0.000000 0.000000
-0.001261 0.010474 0.000000
0.010474 0.005280 0.000000
0.000000 0.000000 0.000000
-0.014532 0.002442 0.000000
0.002442 -0.012368 0.000000
0.000000 0.000000 0.000000
0.011539 0.004192 0.000000
0.004192 0.005230 0.000000
0.000000 0.000000 0.000000
-0.001393 0.009780 0.000000
0.009780 -0.003274 0.000000
0.000000 0.000000 0.000000
-0.007226 0.003981 0.000000
0.003981 0.003530 0.000000
0.000000 0.000000 0.000000
0.002283 -0.005057 0.000000
-0.005057 0.017214 0.000000
0.000000 0.000000 0.000000
-0.008831 -0.004123 0.000000
-0.004123 0.003395 0.000000
0.000000 0.000000 0.000000
-0.011181 0.002291 0.000000
0.002291 -0.012201 0.000000
0.000000 0.000000 0.000000
0.014479 0.004314 0.000000
0.004314 0.010869 0.000000
0.000000 0.000000 0.000000
-0.012149 0.001235 0.000000
0.001235 -0.012805 0.000000
0.000000 0.000000 0.000000
-0.011400 0.009288 0.000000
0.009288 -0.008082 0.000000
0.000000 0.000000 0.000000
-0.005720 -0.009174 0.000000
-0.009174 0.009877 0.000000
0.000000 0.000000 0.000000
-0.020656 0.004147 0.000000
0.004147 -0.017842 0.000000
0.000000 0.000000 0.000000
0.008877 0.000911 0.000000
0.000911 0.003712 0.000000
0.000000 0.000000 0.000000
-0.003945 -0.002116 0.000000
-0.002116 0.003646 0.000000
0.000000 0.000000 0.000000
-0.010454 0.003863 0.000000
0.003863 -0.001951 0.000000
0.000000 0.000000 0.000000
-0.006975 -0.002777 0.000000
-0.002777 -0.007559 0.000000
0.000000 0.000000 0.000000
0.018214 0.010789 0.000000
0.010789 0.002450 0.000000
0.000000 0.000000 0.000000
0.001337 -0.011719 0.000000
-0.011719 0.010291 0.000000
0.000000 0.000000 0.000000
-0.007189 0.001739 0.000000
0.001739 0.005128 0.000000
0.000000 0.000000 0.000000
0.008357 0.002555 0.000000
0.002555 0.001114 0.000000
0.000000 0.000000 0.000000
0.009800 -0.000234 0.000000
-0.000234 0.013659 0.000000
0.000000 0.000000 0.000000
0.010894 -0.002633 0.000000
-0.002633 0.005736 0.000000
0.000000 0.000000 0.000000
-0.003213 -0.001971 0.000000
-0.001971 0.002132 0.000000
0.000000 0.000000 0.000000
0.003990 -0.010729 0.000000
-0.010729 -0.007563 0.000000
0.000000 0.000000 0.000000
0.010957 -0.000323 0.000000
-0.000323 0.011756 0.000000
0.000000 0.000000 0.000000
0.005772 -0.010101 0.000000
-0.010101 -0.010963 0.000000
0.000000 0.000000 0.000000
-0.013313 0.006253 0.000000
0.006253 -0.001961 0.000000
0.000000 0.000000 0.000000
0.013714 -0.002230 0.000000
-0.002230 -0.001858 0.000000
0.000000 0.000000 0.000000
-0.006846 -0.000895 0.000000
-0.000895 0.009674 0.000000
0.000000 0.000000 0.000000
0.004207 -0.006986 0.000000
-0.006986 -0.001550 0.000000
0.000000 0.000000 0.000000
-0.007085 -0.002437 0.000000
-0.002437 -0.003750 0.000000
0.000000 0.000000 0.000000
-0.021133 -0.004123 0.000000
-0.004123 0.006448 0.000000
0.000000 0.000000 0.000000
-0.024216 -0.001218 0.000000
-0.001218 -0.003210 0.000000
0.000000 0.000000 0.000000
0.000271 -0.005051 0.000000
-0.005051 0.003241 0.000000
0.000000 0.000000 0.000000
-0.024017 -0.009905 0.000000
-0.009905 0.000770 0.000000
0.000000 0.000000 0.000000
-0.012621 0.007212 0.000000
0.007212 -0.002192 0.000000
0.000000 0.000000 0.000000
-0.012832 -0.006758 0.000000
-0.006758 0.007241 0.000000
0.000000 0.000000 0.000000
0.011872 -0.006502 0.000000
-0.006502 0.000762 0.000000
0.000000 0.000000 0.000000
-0.010510 -0.001185 0.000000
-0.001185 -0.011745 0.000000
0.000000 0.000000 0.000000
0.013612 0.002601 0.000000
0.002601 0.003542 0.000000
0.000000 0.000000 0.000000
-0.009851 -0.000640 0.000000
-0.000640 -0.001452 0.000000
0.000000 0.000000 0.000000
0.000482 0.002777 0.000000
0.002777 0.005264 0.000000
0.000000 0.000000 0.000000
-0.002641 -0.005696 0.000000
-0.005696 0.007363 0.000000
0.000000 0.000000 0.000000
-0.001538 -0.001220 0.000000
-0.001220 0.003456 0.000000
0.000000 0.000000 0.000000
0.004361 -0.001909 0.000000
-0.001909 0.013038 0.000000
0.000000 0.000000 0.000000
0.011770 0.001612 0.000000
0.001612 -0.022961 0.000000
0.000000 0.000000 0.000000
-0.009347 -0.005074 0.000000
-0.005074 0.007031 0.000000
0.000000 0.000000 0.000000
0.009456 0.001053 0.000000
0.001053 0.008448 0.000000
0.000000 0.000000 0.000000
-0.012927 0.002940 0.000000
0.002940 -0.010974 0.000000
0.000000 0.000000 0.000000
0.001659 0.000810 0.000000
0.000810 0.010665 0.000000
0.000000 0.000000 0.000000
-0.003918 0.006312 0.000000
0.006312 0.019062 0.000000
0.000000 0.000000 0.000000
-0.007665 0.010814 0.000000
0.010814 -0.012033 0.000000
0.000000 0.000000 0.000000
-0.010831 -0.015286 0.000000
-0.015286 0.009418 0.000000
0.000000 0.000000 0.000000
-0.015930 -0.001377 0.000000
-0.001377 0.009839 0.000000
0.000000 0.000000 0.000000
0.005912 -0.000537 0.000000
-0.000537 -0.000648 0.000000
0.000000 0.000000 0.000000
0.000876 0.000346 0.000000
0.000346 0.010766 0.000000
0.000000 0.000000 0.000000
-0.010331 -0.005781 0.000000
-0.005781 0.011602 0.000000
0.000000 0.000000 0.000000
-0.010748 0.003579 0.000000
0.003579 -0.014606 0.000000
0.000000 0.000000 0.000000
-0.019677 0.005422 0.000000
0.005422 -0.011918 0.000000
0.000000 0.000000 0.000000
-0.019553 0.004482 0.000000
0.004482 -0.013484 0.000000
0.000000 0.000000 0.000000
-0.002178 -0.001755 0.000000
-0.001755 -0.003342 0.000000
0.000000 0.000000 0.000000
0.001840 0.004962 0.000000
0.004962 0.004728 0.000000
0.000000 0.000000 0.000000
0.020099 0.000551 0.000000
0.000551 0.016375 0.000000
0.000000 0.000000 0.000000
-0.003112 0.003279 0.000000
0.003279 0.020904 0.000000
0.000000 0.000000 0.000000
0.013620 -0.005130 0.000000
-0.005130 -0.002046 0.000000
0.000000 0.000000 0.000000
0.014806 -0.001706 0.000000
-0.001706 0.001437 0.000000
0.000000 0.000000 0.000000
0.016664 0.007753 0.000000
0.007753 0.009670 0.000000
0.000000 0.000000 0.000000
-0.005292 0.004050 0.000000
0.004050 -0.001962 0.000000
0.000000 0.000000 0.000000
0.014437 0.003937 0.000000
0.003937 0.000411 0.000000
0.000000 0.000000 0.000000
-0.016515 -0.003666 0.000000
-0.003666 -0.006377 0.000000
0.000000 0.000000 0.000000
-0.004319 -0.005241 0.000000
-0.005241 0.009909 0.000000
0.000000 0.000000 0.000000
-0.015600 0.000094 0.000000
0.000094 -0.006540 0.000000
0.000000 0.000000 0.000000
0.017123 -0.002127 0.000000
-0.002127 0.002866 0.000000
0.000000 0.000000 0.000000
0.004596 0.005698 0.000000
0.005698 0.011818 0.000000
0.000000 0.000000 0.000000
-0.017215 0.003963 0.000000
0.003963 0.005124 0.000000
0.000000 0.000000 0.000000
0.002362 -0.006036 0.000000
-0.006036 -0.001883 0.000000
0.000000 0.000000 0.000000
0.006445 0.004093 0.000000
0.004093 -0.005427 0.000000
0.000000 0.000000 0.000000
-0.008802 -0.000233 0.000000
-0.000233 0.016730 0.000000
0.000000 0.000000 0.000000
0.003064 -0.000270 0.000000
-0.000270 -0.004259 0.000000
0.000000 0.000000 0.000000
-0.015106 -0.006118 0.000000
-0.006118 0.013804 0.000000
0.000000 0.000000 0.000000
-0.005265 -0.011134 0.000000
-0.011134 0.009558 0.000000
0.000000 0.000000 0.000000
-0.002100 0.003385 0.000000
0.003385 0.004586 0.000000
0.000000 0.000000 0.000000
0.000667 0.003714 0.000000
0.003714 -0.004722 0.000000
0.000000 0.000000 0.000000
0.013255 0.000647 0.000000
0.000647 0.004223 0.000000
0.000000 0.000000 0.000000
0.004155 0.002064 0.000000
0.002064 -0.003493 0.000000
0.000000 0.000000 0.000000
0.002631 0.003066 0.000000
0.003066 0.001813 0.000000
0.000000 0.000000 0.000000
0.007679 0.006484 0.000000
0.006484 0.003326 0.000000
0.000000 0.000000 0.000000
0.000527 -0.003912 0.000000
-0.003912 -0.006940 0.000000
0.000000 0.000000 0.000000
0.004294 0.003947 0.000000
0.003947 -0.001894 0.000000
0.000000 0.000000 0.000000
0.003086 -0.004366 0.000000
-0.004366 0.001682 0.000000
0.000000 0.000000 0.000000
0.012428 0.001732 0.000000
0.001732 0.001857 0.000000
0.000000 0.000000 0.000000
0.011687 0.004002 0.000000
0.004002 -0.006021 0.000000
0.000000 0.000000 0.000000
-0.004416 -0.000252 0.000000
-0.000252 -0.005791 0.000000
0.000000 0.000000 0.000000
0.002621 0.001657 0.000000
0.001657 0.000113 0.000000
0.000000 0.000000 0.000000
0.002928 0.002346 0.000000
0.002346 0.004592 0.000000
0.000000 0.000000 0.000000
0.006470 -0.002876 0.000000
-0.002876 0.004541 0.000000
0.000000 0.000000 0.000000
0.006862 -0.002303 0.000000
-0.002303 0.005011 0.000000
0.000000 0.000000 0.000000
-0.005914 0.003889 0.000000
0.003889 -0.002991 0.000000
0.000000 0.000000 0.000000
0.001416 0.005314 0.000000
0.005314 -0.004378 0.000000
0.000000 0.000000 0.000000
0.011162 0.005403 0.000000
0.005403 0.006081 0.000000
0.000000 0.000000 0.000000
0.004769 -0.010382 0.000000
-0.010382 0.008163 0.000000
0.000000 0.000000 0.000000
0.002221 0.007033 0.000000
0.007033 -0.003361 0.000000
0.000000 0.000000 0.000000
-0.007059 0.000810 0.000000
0.000810 -0.001382 0.000000
0.000000 0.000000 0.000000
-0.014586 0.000342 0.000000
0.000342 -0.001766 0.000000
0.000000 0.000000 0.000000
0.002006 0.001999 0.000000
0.001999 0.001669 0.000000
0.000000 0.000000 0.000000
-0.002210 0.000499 0.000000
0.000499 -0.009073 0.000000
0.000000 0.000000 0.000000
0.011408 -0.005894 0.000000
-0.005894 0.000558 0.000000
0.000000 0.000000 0.000000
0.003803 0.007153 0.000000
0.007153 0.012632 0.000000
0.000000 0.000000 0.000000
-0.003102 0.004123 0.000000
0.004123 -0.006722 0.000000
0.000000 0.000000 0.000000
-0.022221 0.004372 0.000000
0.004372 -0.014563 0.000000
0.000000 0.000000 0.000000
0.006205 0.007249 0.000000
0.007249 0.004431 0.000000
0.000000 0.000000 0.000000
0.003181 0.006722 0.000000
0.006722 -0.006578 0.000000
0.000000 0.000000 0.000000
-0.014717 0.007294 0.000000
0.007294 0.008098 0.000000
0.000000 0.000000 0.000000
0.013883 0.007007 0.000000
0.007007 0.014281 0.000000
0.000000 0.000000 0.000000
-0.013242 -0.004972 0.000000
-0.004972 0.005299 0.000000
0.000000 0.000000 0.000000
0.003623 0.005107 0.000000
0.005107 0.000426 0.000000
0.000000 0.000000 0.000000
0.006470 -0.003821 0.000000
-0.003821 0.001723 0.000000
0.000000 0.000000 0.000000
-0.017022 0.004667 0.000000
0.004667 -0.024545 0.000000
0.000000 0.000000 0.000000
0.006814 -0.007016 0.000000
-0.007016 0.013768 0.000000
0.000000 0.000000 0.000000
0.010877 0.004195 0.000000
0.004195 0.002244 0.000000
0.000000 0.000000 0.000000
-0.017140 0.005850 0.000000
0.005850 0.001154 0.000000
0.000000 0.000000 0.000000
-0.000816 -0.005516 0.000000
-0.005516 -0.003140 0.000000
0.000000 0.000000 0.000000
0.003129 0.000721 0.000000
0.000721 -0.007018 0.000000
0.000000 0.000000 0.000000
-0.002760 0.002195 0.000000
0.002195 -0.020234 0.000000
0.000000 0.000000 0.000000
-0.000913 -0.004891 0.000000
-0.004891 -0.000483 0.000000
0.000000 0.000000 0.000000
-0.004264 0.004504 0.000000
0.004504 -0.005051 0.000000
0.000000 0.000000 0.000000
-0.003380 -0.007903 0.000000
-0.007903 0.019772 0.000000
0.000000 0.000000 0.000000
0.003357 -0.006257 0.000000
-0.006257 -0.001718 0.000000
0.000000 0.000000 0.000000
-0.002480 -0.000288 0.000000
-0.000288 -0.000930 0.000000
0.000000 0.000000 0.000000
0.015948 -0.003665 0.000000
-0.003665 0.004279 0.000000
0.000000 0.000000 0.000000
-0.003009 0.006942 0.000000
0.006942 -0.010097 0.000000
0.000000 0.000000 0.000000
-0.023117 0.004892 0.000000
0.004892 -0.005411 0.000000
0.000000 0.000000 0.000000
0.015428 -0.003331 0.000000
-0.003331 0.003181 0.000000
0.000000 0.000000 0.000000
-0.004435 -0.014232 0.000000
-0.014232 -0.014963 0.000000
0.000000 0.000000 0.000000
0.005374 -0.002683 0.000000
-0.002683 0.002659 0.000000
0.000000 0.000000 0.000000
-0.008558 -0.006595 0.000000
-0.006595 0.003483 0.000000
0.000000 0.000000 0.000000
-0.015571 -0.005301 0.000000
-0.005301 -0.016423 0.000000
0.000000 0.000000 0.000000
0.004175 -0.004124 0.000000
-0.004124 0.002383 0.000000
0.000000 0.000000 0.000000
0.002050 -0.007583 0.000000
-0.007583 0.012218 0.000000
0.000000 0.000000 0.000000
0.001526 -0.006167 0.000000
-0.006167 0.004050 0.000000
0.000000 0.000000 0.000000
0.005451 0.002228 0.000000
0.002228 0.018052 0.000000
0.000000 0.000000 0.000000
0.001400 -0.005197 0.000000
-0.005197 -0.013171 0.000000
0.000000 0.000000 0.000000
0.008856 -0.006498 0.000000
-0.006498 -0.009535 0.000000
0.000000 0.000000 0.000000
0.009099 0.000176 0.000000
0.000176 -0.022777 0.000000
0.000000 0.000000 0.000000
-0.004510 -0.008373 0.000000
-0.008373 -0.011154 0.000000
0.000000 0.000000 0.000000
0.016243 0.007713 0.000000
0.007713 0.022440 0.000000
0.000000 0.000000 0.000000
0.038223 -0.000844 0.000000
-0.000844 0.000091 0.000000
0.000000 0.000000 0.000000
-0.011889 0.000441 0.000000
0.000441 -0.002400 0.000000
0.000000 0.000000 0.000000
0.034254 -0.001688 0.000000
-0.001688 0.004681 0.000000
0.000000 0.000000 0.000000
-0.015622 -0.008156 0.000000
-0.008156 -0.013758 0.000000
0.000000 0.000000 0.000000
-0.018116 -0.004362 0.000000
-0.004362 0.023409 0.000000
0.000000 0.000000 0.000000
-0.012652 0.006079 0.000000
0.006079 -0.004075 0.000000
0.000000 0.000000 0.000000
0.021539 -0.000355 0.000000
-0.000355 0.019543 0.000000
0.000000 0.000000 0.000000
0.011105 -0.004788 0.000000
-0.004788 0.007394 0.000000
0.000000 0.000000 0.000000
0.006208 0.003705 0.000000
0.003705 0.002362 0.000000
0.000000 0.000000 0.000000
0.006664 -0.007459 0.000000
-0.007459 0.003467 0.000000
0.000000 0.000000 0.000000
-0.002139 -0.001572 0.000000
-0.001572 0.000644 0.000000
0.000000 0.000000 0.000000
0.017368 -0.004810 0.000000
-0.004810 0.014373 0.000000
0.000000 0.000000 0.000000
-0.005787 -0.005236 0.000000
-0.005236 -0.009923 0.000000
0.000000 0.000000 0.000000
0.001707 0.000657 0.000000
0.000657 0.007981 0.000000
0.000000 0.000000 0.000000
-0.015443 -0.004460 0.000000
-0.004460 0.001796 0.000000
0.000000 0.000000 0.000000
-0.005633 0.010039 0.000000
0.010039 0.000125 0.000000
0.000000 0.000000 0.000000
-0.020476 -0.002352 0.000000
-0.002352 -0.006255 0.000000
0.000000 0.000000 0.000000
-0.009150 0.007460 0.000000
0.007460 -0.013756 0.000000
0.000000 0.000000 0.000000
-0.003901 0.009098 0.000000
0.009098 0.005136 0.000000
0.000000 0.000000 0.000000
-0.000489 -0.002534 0.000000
-0.002534 -0.003621 0.000000
0.000000 0.000000 0.000000
0.008426 -0.004697 0.000000
-0.004697 0.017642 0.000000
0.000000 0.000000 0.000000
0.006190 -0.005467 0.000000
-0.005467 0.016594 0.000000
0.000000 0.000000 0.000000
-0.000592 0.006859 0.000000
0.006859 0.004766 0.000000
0.000000 0.000000 0.000000
0.005027 0.004686 0.000000
0.004686 0.008054 0.000000
0.000000 0.000000 0.000000
-0.015554 -0.002538 0.000000
-0.002538 -0.007020 0.000000
0.000000 0.000000 0.000000
-0.003656 -0.001559 0.000000
-0.001559 0.017593 0.000000
0.000000 0.000000 0.000000
0.008681 -0.001616 0.000000
-0.001616 -0.000326 0.000000
0.000000 0.000000 0.000000
0.002639 -0.007302 0.000000
-0.007302 -0.001940 0.000000
0.000000 0.000000 0.000000
0.002688 0.006260 0.000000
0.006260 0.002776 0.000000
0.000000 0.000000 0.000000
0.007104 -0.005647 0.000000
-0.005647 -0.000799 0.000000
0.000000 0.000000 0.000000
0.013572 -0.001054 0.000000
-0.001054 -0.002028 0.000000
0.000000 0.000000 0.000000
-0.004683 -0.001339 0.000000
-0.001339 0.009591 0.000000
0.000000 0.000000 0.000000
0.017198 -0.016369 0.000000
-0.016369 0.002319 0.000000
0.000000 0.000000 0.000000
0.002516 -0.007852 0.000000
-0.007852 0.018257 0.000000
0.000000 0.000000 0.000000
-0.008852 -0.005117 0.000000
-0.005117 0.000858 0.000000
0.000000 0.000000 0.000000
-0.012808 0.011515 0.000000
0.011515 -0.004517 0.000000
0.000000 0.000000 0.000000
-0.000120 -0.006337 0.000000
-0.006337 -0.003765 0.000000
0.000000 0.000000 0.000000
-0.001687 0.001840 0.000000
0.001840 -0.002497 0.000000
0.000000 0.000000 0.000000
0.001079 0.000261 0.000000
0.000261 0.005667 0.000000
0.000000 0.000000 0.000000
-0.008864 0.010888 0.000000
0.010888 0.007669 0.000000
0.000000 0.000000 0.000000
0.014492 -0.001156 0.000000
-0.001156 0.006960 0.000000
0.000000 0.000000 0.000000
-0.005353 -0.003729 0.000000
-0.003729 -0.008643 0.000000
0.000000 0.000000 0.000000
-0.000367 0.008590 0.000000
0.008590 0.014059 0.000000
0.000000 0.000000 0.000000
0.006548 0.001300 0.000000
0.001300 0.003381 0.000000
0.000000 0.000000 0.000000
0.012259 0.004239 0.000000
0.004239 0.010694 0.000000
0.000000 0.000000 0.000000
-0.001980 0.009488 0.000000
0.009488 0.007180 0.000000
0.000000 0.000000 0.000000
0.008721 0.008005 0.000000
0.008005 0.000148 0.000000
0.000000 0.000000 0.000000
0.002923 -0.001707 0.000000
-0.001707 -0.001204 0.000000
0.000000 0.000000 0.000000
-0.013713 -0.004526 0.000000
-0.004526 0.017059 0.000000
0.000000 0.000000 0.000000
0.011669 0.007213 0.000000
0.007213 0.013009 0.000000
0.000000 0.000000 0.000000
0.007370 0.003733 0.000000
0.003733 -0.003769 0.000000
0.000000 0.000000 0.000000
0.010874 0.001717 0.000000
0.001717 0.002219 0.000000
0.000000 0.000000 0.000000
-0.018261 -0.003990 0.000000
-0.003990 -0.013773 0.000000
0.000000 0.000000 0.000000
-0.002722 0.006409 0.000000
0.006409 0.000312 0.000000
0.000000 0.000000 0.000000
-0.016247 -0.003632 0.000000
-0.003632 -0.022044 0.000000
0.000000 0.000000 0.000000
-0.005535 -0.001638 0.000000
-0.001638 0.004800 0.000000
0.000000 0.000000 0.000000
0.008536 0.004003 0.000000
0.004003 0.005503 0.000000
0.000000 0.000000 0.000000
-0.023735 -0.004015 0.000000
-0.004015 -0.008558 0.000000
0.000000 0.000000 0.000000
0.003015 -0.002598 0.000000
-0.002598 -0.005611 0.000000
0.000000 0.000000 0.000000
-0.000487 -0.000518 0.000000
-0.000518 0.001821 0.000000
0.000000 0.000000 0.000000
0.004035 0.006730 0.000000
0.006730 0.002440 0.000000
0.000000 0.000000 0.000000
-0.006756 0.003317 0.000000
0.003317 0.003251 0.000000
0.000000 0.000000 0.000000
-0.003496 -0.002386 0.000000
-0.002386 -0.007515 0.000000
0.000000 0.000000 0.000000
0.004983 0.003454 0.000000
0.003454 -0.000021 0.000000
0.000000 0.000000 0.000000
0.006651 -0.002997 0.000000
-0.002997 0.007727 0.000000
0.000000 0.000000 0.000000
-0.008712 0.004770 0.000000
0.004770 -0.010182 0.000000
0.000000 0.000000 0.000000
0.003120 0.001249 0.000000
0.001249 0.004037 0.000000
0.000000 0.000000 0.000000
-0.000426 0.009494 0.000000
0.009494 -0.001948 0.000000
0.000000 0.000000 0.000000
-0.003790 0.001830 0.000000
0.001830 -0.004698 0.000000
0.000000 0.000000 0.000000
0.000866 -0.002044 0.000000
-0.002044 -0.010631 0.000000
0.000000 0.000000 0.000000
-0.002318 -0.001002 0.000000
-0.001002 0.005396 0.000000
0.000000 0.000000 0.000000
-0.006283 0.009791 0.000000
0.009791 0.002121 0.000000
0.000000 0.000000 0.000000
0.011960 0.003916 0.000000
0.003916 0.011723 0.000000
0.000000 0.000000 0.000000
-0.002416 -0.000277 0.000000
-0.000277 0.006279 0.000000
0.000000 0.000000 0.000000
0.006191 0.000764 0.000000
0.000764 0.001138 0.000000
0.000000 0.000000 0.000000
0.003012 0.002515 0.000000
0.002515 -0.003067 0.000000
0.000000 0.000000 0.000000
0.005296 0.000888 0.000000
0.000888 0.009973 0.000000
0.000000 0.000000 0.000000
-0.012013 0.007448 0.000000
0.007448 -0.002542 0.000000
0.000000 0.000000 0.000000
0.009927 -0.000167 0.000000
-0.000167 0.000746 0.000000
0.000000 0.000000 0.000000
0.000497 0.004706 0.000000
0.004706 0.001824 0.000000
0.000000 0.000000 0.000000
-0.005981 0.000634 0.000000
0.000634 -0.008694 0.000000
0.000000 0.000000 0.000000
0.006696 0.013314 0.000000
0.013314 0.001725 0.000000
0.000000 0.000000 0.000000
-0.006572 0.007386 0.000000
0.007386 0.014234 0.000000
0.000000 0.000000 0.000000
0.001208 0.014532 0.000000
0.014532 0.003050 0.000000
0.000000 0.000000 0.000000
0.003050 0.004744 0.000000
0.004744 -0.007100 0.000000
0.000000 0.000000 0.000000
0.020228 -0.006261 0.000000
-0.006261 0.012833 0.000000
0.000000 0.000000 0.000000
-0.002822 0.000386 0.000000
0.000386 -0.012839 0.000000
0.000000 0.000000 0.000000
0.009342 0.000693 0.000000
0.000693 -0.003341 0.000000
0.000000 0.000000 0.000000
0.001893 -0.001450 0.000000
-0.001450 0.002433 0.000000
0.000000 0.000000 0.000000
-0.001017 0.006052 0.000000
0.006052 -0.011386 0.000000
0.000000 0.000000 0.000000
0.016695 0.005322 0.000000
0.005322 -0.006727 0.000000
0.000000 0.000000 0.000000
-0.002148 0.000259 0.000000
0.000259 0.000797 0.000000
0.000000 0.000000 0.000000
-0.007597 -0.007786 0.000000
-0.007786 -0.001579 0.000000
0.000000 0.000000 0.000000
-0.013610 -0.000678 0.000000
-0.000678 -0.001995 0.000000
0.000000 0.000000 0.000000
-0.001085 -0.000232 0.000000
-0.000232 0.006249 0.000000
0.000000 0.000000 0.000000
-0.008499 -0.001980 0.000000
-0.001980 0.000478 0.000000
0.000000 0.000000 0.000000
-0.010310 0.003121 0.000000
0.003121 0.003283 0.000000
0.000000 0.000000 0.000000
-0.009505 -0.002121 0.000000
-0.002121 0.003923 0.000000
0.000000 0.000000 0.000000
0.004270 -0.001472 0.000000
-0.001472 -0.003888 0.000000
0.000000 0.000000 0.000000
-0.020581 -0.011410 0.000000
-0.011410 -0.012737 0.000000
0.000000 0.000000 0.000000
-0.009393 0.006456 0.000000
0.006456 0.004561 0.000000
0.000000 0.000000 0.000000
0.000579 -0.001173 0.000000
-0.001173 0.006595 0.000000
0.000000 0.000000 0.000000
-0.015780 0.002320 0.000000
0.002320 -0.016187 0.000000
0.000000 0.000000 0.000000
-0.017908 -0.017166 0.000000
-0.017166 -0.011840 0.000000
0.000000 0.000000 0.000000
0.012848 0.001685 0.000000
0.001685 0.011488 0.000000
0.000000 0.000000 0.000000
0.005565 -0.000517 0.000000
-0.000517 0.009480 0.000000
0.000000 0.000000 0.000000
0.011647 0.005809 0.000000
0.005809 0.014410 0.000000
0.000000 0.000000 0.000000
0.002770 0.000001 0.000000
0.000001 0.003615 0.000000
0.000000 0.000000 0.000000
0.014502 -0.005975 0.000000
-0.005975 0.015077 0.000000
0.000000 0.000000 0.000000
0.009243 -0.010885 0.000000
-0.010885 0.008613 0.000000
0.000000 0.000000 0.000000
-0.004217 -0.001462 0.000000
-0.001462 0.009606 0.000000
0.000000 0.000000 0.000000
0.020627 0.001085 0.000000
0.001085 0.011200 0.000000
0.000000 0.000000 0.000000
0.015042 -0.006002 0.000000
-0.006002 0.016156 0.000000
0.000000 0.000000 0.000000
-0.009407 -0.003885 0.000000
-0.003885 0.013031 0.000000
0.000000 0.000000 0.000000
0.012689 -0.012800 0.000000
-0.012800 -0.007699 0.000000
0.000000 0.000000 0.000000
0.014055 0.002579 0.000000
0.002579 0.014697 0.000000
0.000000 0.000000 0.000000
-0.007066 0.004137 0.000000
0.004137 -0.011377 0.000000
0.000000 0.000000 0.000000
-0.014053 -0.005458 0.000000
-0.005458 -0.011864 0.000000
0.000000 0.000000 0.000000
-0.015800 -0.000969 0.000000
-0.000969 -0.009692 0.000000
0.000000 0.000000 0.000000
-0.029659 -0.004204 0.000000
-0.004204 -0.010172 0.000000
0.000000 0.000000 0.000000
-0.009761 0.000356 0.000000
0.000356 -0.010801 0.000000
0.000000 0.000000 0.000000
-0.000034 -0.006469 0.000000
-0.006469 0.003997 0.000000
0.000000 0.000000 0.000000
-0.002509 0.015146 0.000000
0.015146 0.012882 0.000000
0.000000 0.000000 0.000000
-0.009080 0.000264 0.000000
0.000264 0.003683 0.000000
0.000000 0.000000 0.000000
-0.006461 0.012112 0.000000
0.012112 0.010900 0.000000
0.000000 0.000000 0.000000
-0.005104 0.003124 0.000000
0.003124 0.004532 0.000000
0.000000 0.000000 0.000000
0.006362 0.003453 0.000000
0.003453 0.002370 0.000000
0.000000 0.000000 0.000000
-0.020077 0.009483 0.000000
0.009483 0.009329 0.000000
0.000000 0.000000 0.000000
-0.014962 0.002267 0.000000
0.002267 -0.003413 0.000000
0.000000 0.000000 0.000000
-0.003535 -0.002532 0.000000
-0.002532 -0.002992 0.000000
0.000000 0.000000 0.000000
-0.003047 -0.003082 0.000000
-0.003082 0.004905 0.000000
0.000000 0.000000 0.000000
0.010924 -0.005070 0.000000
-0.005070 0.005185 0.000000
0.000000 0.000000 0.000000
-0.003671 0.001538 0.000000
0.001538 0.000265 0.000000
0.000000 0.000000 0.000000
0.001447 0.006287 0.000000
0.006287 0.013948 0.000000
0.000000 0.000000 0.000000
0.002987 -0.004487 0.000000
-0.004487 0.005191 0.000000
0.000000 0.000000 0.000000
-0.001871 0.001980 0.000000
0.001980 -0.012022 0.000000
0.000000 0.000000 0.000000
0.010830 -0.005040 0.000000
-0.005040 0.005912 0.000000
0.000000 0.000000 0.000000
0.003990 -0.000866 0.000000
-0.000866 -0.009683 0.000000
0.000000 0.000000 0.000000
0.002097 0.001987 0.000000
0.001987 -0.013232 0.000000
0.000000 0.000000 0.000000
0.010980 0.002410 0.000000
0.002410 0.011856 0.000000
0.000000 0.000000 0.000000
0.000761 -0.012141 0.000000
-0.012141 -0.000616 0.000000
0.000000 0.000000 0.000000
-0.024769 0.000961 0.000000
0.000961 0.011231 0.000000
0.000000 0.000000 0.000000
0.016221 0.000167 0.000000
0.000167 0.010018 0.000000
0.000000 0.000000 0.000000
-0.001127 -0.001572 0.000000
-0.001572 -0.001476 0.000000
0.000000 0.000000 0.000000
-0.004717 -0.003107 0.000000
-0.003107 -0.003417 0.000000
0.000000 0.000000 0.000000
-0.001446 -0.005047 0.000000
-0.005047 -0.001886 0.000000
0.000000 0.000000 0.000000
-0.002369 0.000311 0.000000
0.000311 -0.002342 0.000000
0.000000 0.000000 0.000000
-0.000094 0.003717 0.000000
0.003717 -0.001279 0.000000
0.000000 0.000000 0.000000
0.005004 -0.001349 0.000000
-0.001349 0.014131 0.000000
0.000000 0.000000 0.000000
-0.022688 0.002064 0.000000
0.002064 -0.000768 0.000000
0.000000 0.000000 0.000000
0.004926 -0.005209 0.000000
-0.005209 0.015348 0.000000
0.000000 0.000000 0.000000
-0.011109 0.000779 0.000000
0.000779 -0.009803 0.000000
0.000000 0.000000 0.000000
0.014728 -0.000779 0.000000
-0.000779 0.010831 0.000000
0.000000 0.000000 0.000000
0.002440 -0.009099 0.000000
-0.009099 0.009830 0.000000
0.000000 0.000000 0.000000
0.036314 -0.001044 0.000000
-0.001044 0.016291 0.000000
0.000000 0.000000 0.000000
-0.002290 0.000055 0.000000
0.000055 0.018545 0.000000
0.000000 0.000000 0.000000
0.014724 -0.000985 0.000000
-0.000985 0.005408 0.000000
0.000000 0.000000 0.000000
0.013810 -0.000116 0.000000
-0.000116 0.003582 0.000000
0.000000 0.000000 0.000000
-0.000193 -0.001373 0.000000
-0.001373 0.021720 0.000000
0.000000 0.000000 0.000000
0.009882 0.002953 0.000000
0.002953 0.004751 0.000000
0.000000 0.000000 0.000000
-0.002644 0.001959 0.000000
0.001959 -0.000545 0.000000
0.000000 0.000000 0.000000
-0.007617 0.002945 0.000000
0.002945 -0.002062 0.000000
0.000000 0.000000 0.000000
-0.018822 0.008006 0.000000
0.008006 -0.014839 0.000000
0.000000 0.000000 0.000000
-0.004876 -0.000577 0.000000
-0.000577 -0.005997 0.000000
0.000000 0.000000 0.000000
-0.002286 -0.002840 0.000000
-0.002840 -0.005889 0.000000
0.000000 0.000000 0.000000
-0.000712 0.004062 0.000000
0.004062 0.012301 0.000000
0.000000 0.000000 0.000000
0.004081 0.002401 0.000000
0.002401 -0.012016 0.000000
0.000000 0.000000 0.000000
0.002959 0.004218 0.000000
0.004218 -0.003615 0.000000
0.000000 0.000000 0.000000
0.001619 -0.001428 0.000000
-0.001428 -0.012563 0.000000
0.000000 0.000000 0.000000
0.002116 0.003172 0.000000
0.003172 0.008653 0.000000
0.000000 0.000000 0.000000
0.003423 0.005607 0.000000
0.005607 -0.003592 0.000000
0.000000 0.000000 0.000000
-0.000652 0.001335 0.000000
0.001335 -0.001926 0.000000
0.000000 0.000000 0.000000
-0.010557 -0.004441 0.000000
-0.004441 0.000359 0.000000
0.000000 0.000000 0.000000
-0.007527 -0.002923 0.000000
-0.002923 -0.010122 0.000000
0.000000 0.000000 0.000000
0.004676 0.002688 0.000000
0.002688 -0.002695 0.000000
0.000000 0.000000 0.000000
0.000741 -0.011507 0.000000
-0.011507 0.003939 0.000000
0.000000 0.000000 0.000000
0.008886 0.007144 0.000000
0.007144 -0.027761 0.000000
0.000000 0.000000 0.000000
-0.010034 0.006321 0.000000
0.006321 -0.009657 0.000000
0.000000 0.000000 0.000000
0.010572 0.001100 0.000000
0.001100 -0.002577 0.000000
0.000000 0.000000 0.000000
0.016769 0.002142 0.000000
0.002142 0.010671 0.000000
0.000000 0.000000 0.000000
0.027002 0.017000 0.000000
0.017000 0.020576 0.000000
0.000000 0.000000 0.000000
0.004978 -0.006158 0.000000
-0.006158 -0.003570 0.000000
0.000000 0.000000 0.000000
0.015427 0.001239 0.000000
0.001239 -0.000527 0.000000
0.000000 0.000000 0.000000
0.017437 -0.002152 0.000000
-0.002152 0.003328 0.000000
0.000000 0.000000 0.000000
0.000668 -0.005640 0.000000
-0.005640 -0.000606 0.000000
0.000000 0.000000 0.000000
-0.008038 -0.002030 0.000000
-0.002030 -0.005143 0.000000
0.000000 0.000000 0.000000
-0.011623 -0.009994 0.000000
-0.009994 0.013817 0.000000
0.000000 0.000000 0.000000
-0.013792 -0.010522 0.000000
-0.010522 0.001966 0.000000
0.000000 0.000000 0.000000
0.005680 -0.002998 0.000000
-0.002998 0.003741 0.000000
0.000000 0.000000 0.000000
-0.002181 0.008925 0.000000
0.008925 0.006540 0.000000
0.000000 0.000000 0.000000
0.011512 -0.005591 0.000000
-0.005591 -0.012878 0.000000
0.000000 0.000000 0.000000
-0.018442 0.005861 0.000000
0.005861 -0.006756 0.000000
0.000000 0.000000 0.000000
0.017995 -0.002865 0.000000
-0.002865 -0.002586 0.000000
0.000000 0.000000 0.000000
-0.005311 0.008091 0.000000
0.008091 0.006664 0.000000
0.000000 0.000000 0.000000
-0.018457 -0.004474 0.000000
-0.004474 -0.013654 0.000000
0.000000 0.000000 0.000000
-0.002970 0.008047 0.000000
0.008047 0.007322 0.000000
0.000000 0.000000 0.000000
-0.007522 -0.001203 0.000000
-0.001203 -0.001633 0.000000
0.000000 0.000000 0.000000
-0.009878 0.005864 0.000000
0.005864 -0.000026 0.000000
0.000000 0.000000 0.000000
-0.007319 -0.000722 0.000000
-0.000722 0.001778 0.000000
0.000000 0.000000 0.000000
0.007545 0.003183 0.000000
0.003183 0.009024 0.000000
0.000000 0.000000 0.000000
-0.001277 0.005778 0.000000
0.005778 0.006974 0.000000
0.000000 0.000000 0.000000
-0.009856 -0.004123 0.000000
-0.004123 -0.006890 0.000000
0.000000 0.000000 0.000000
-0.004707 0.002620 0.000000
0.002620 0.005949 0.000000
0.000000 0.000000 0.000000
0.014347 -0.002547 0.000000
-0.002547 0.001618 0.000000
0.000000 0.000000 0.000000
0.022049 -0.006851 0.000000
-0.006851 0.017765 0.000000
0.000000 0.000000 0.000000
0.012122 0.002936 0.000000
0.002936 -0.010971 0.000000
0.000000 0.000000 0.000000
0.012705 -0.003990 0.000000
-0.003990 0.005324 0.000000
0.000000 0.000000 0.000000
-0.005969 -0.004950 0.000000
-0.004950 0.002675 0.000000
0.000000 0.000000 0.000000
0.022584 -0.008116 0.000000
-0.008116 0.009291 0.000000
0.000000 0.000000 0.000000
0.000801 0.002280 0.000000
0.002280 0.006092 0.000000
0.000000 0.000000 0.000000
0.000052 -0.001660 0.000000
-0.001660 0.008382 0.000000
0.000000 0.000000 0.000000
-0.001912 0.000867 0.000000
0.000867 0.008049 0.000000
0.000000 0.000000 0.000000
-0.001861 0.002521 0.000000
0.002521 0.005563 0.000000
0.000000 0.000000 0.000000
0.004170 0.005880 0.000000
0.005880 0.006961 0.000000
0.000000 0.000000 0.000000
-0.021525 -0.007102 0.000000
-0.007102 0.000745 0.000000
0.000000 0.000000 0.000000
0.004529 -0.005689 0.000000
-0.005689 0.002285 0.000000
0.000000 0.000000 0.000000
0.024066 -0.000830 0.000000
-0.000830 0.014053 0.000000
0.000000 0.000000 0.000000
0.001536 -0.006813 0.000000
-0.006813 0.000524 0.000000
0.000000 0.000000 0.000000
-0.005530 -0.002534 0.000000
-0.002534 0.000622 0.000000
0.000000 0.000000 0.000000
0.024881 0.003443 0.000000
0.003443 0.029328 0.000000
0.000000 0.000000 0.000000
-0.010726 -0.000942 0.000000
-0.000942 -0.005566 0.000000
0.000000 0.000000 0.000000
-0.012160 -0.002323 0.000000
-0.002323 -0.004569 0.000000
0.000000 0.000000 0.000000
0.000710 -0.007172 0.000000
-0.007172 0.006131 0.000000
0.000000 0.000000 0.000000
-0.002921 0.000884 0.000000
0.000884 -0.011573 0.000000
0.000000 0.000000 0.000000
0.003223 0.002652 0.000000
0.002652 -0.001210 0.000000
0.000000 0.000000 0.000000
0.006064 0.000785 0.000000
0.000785 -0.014158 0.000000
0.000000 0.000000 0.000000
-0.005292 0.000529 0.000000
0.000529 -0.000134 0.000000
0.000000 0.000000 0.000000
-0.005110 -0.011451 0.000000
-0.011451 -0.007361 0.000000
0.000000 0.000000 0.000000
0.010577 -0.009616 0.000000
-0.009616 0.004182 0.000000
0.000000 0.000000 0.000000
0.007266 -0.000894 0.000000
-0.000894 0.014538 0.000000
0.000000 0.000000 0.000000
0.001469 -0.006210 0.000000
-0.006210 -0.004573 0.000000
0.000000 0.000000 0.000000
-0.018504 0.005318 0.000000
0.005318 -0.002906 0.000000
0.000000 0.000000 0.000000
0.010407 -0.004654 0.000000
-0.004654 -0.000216 0.000000
0.000000 0.000000 0.000000
-0.003145 -0.004490 0.000000
-0.004490 -0.008432 0.000000
0.000000 0.000000 0.000000
-0.004259 0.000956 0.000000
0.000956 0.003299 0.000000
0.000000 0.000000 0.000000
-0.021588 0.007284 0.000000
0.007284 -0.006890 0.000000
0.000000 0.000000 0.000000
0.005460 0.000476 0.000000
0.000476 -0.008952 0.000000
0.000000 0.000000 0.000000
-0.004531 -0.009571 0.000000
-0.009571 -0.000276 0.000000
0.000000 0.000000 0.000000
-0.002817 0.008222 0.000000
0.008222 0.008817 0.000000
0.000000 0.000000 0.000000
-0.003745 0.008109 0.000000
0.008109 -0.005318 0.000000
0.000000 0.000000 0.000000
-0.005450 -0.016252 0.000000
-0.016252 -0.008804 0.000000
0.000000 0.000000 0.000000
-0.004705 0.006533 0.000000
0.006533 0.001098 0.000000
0.000000 0.000000 0.000000
0.002807 0.010596 0.000000
0.010596 -0.001421 0.000000
0.000000 0.000000 0.000000
0.012296 -0.006530 0.000000
-0.006530 0.013641 0.000000
0.000000 0.000000 0.000000
0.006647 0.001482 0.000000
0.001482 -0.012336 0.000000
0.000000 0.000000 0.000000
-0.013544 0.000616 0.000000
0.000616 -0.003999 0.000000
0.000000 0.000000 0.000000
-0.007555 -0.006237 0.000000
-0.006237 -0.011401 0.000000
0.000000 0.000000 0.000000
-0.013016 0.000276 0.000000
0.000276 0.014614 0.000000
0.000000 0.000000 0.000000
0.012298 0.003411 0.000000
0.003411 0.001461 0.000000
0.000000 0.000000 0.000000
0.003598 0.003294 0.000000
0.003294 0.008004 0.000000
0.000000 0.000000 0.000000
-0.011453 0.002542 0.000000
0.002542 0.013381 0.000000
0.000000 0.000000 0.000000
0.004040 -0.007208 0.000000
-0.007208 -0.004116 0.000000
0.000000 0.000000 0.000000
-0.010090 0.007834 0.000000
0.007834 -0.006679 0.000000
0.000000 0.000000 0.000000
0.013491 0.005060 0.000000
0.005060 0.015797 0.000000
0.000000 0.000000 0.000000
-0.020912 -0.000542 0.000000
-0.000542 -0.004449 0.000000
0.000000 0.000000 0.000000
0.011491 -0.004947 0.000000
-0.004947 0.012514 0.000000
0.000000 0.000000 0.000000
0.031419 -0.001136 0.000000
-0.001136 0.002632 0.000000
0.000000 0.000000 0.000000
0.028004 0.001523 0.000000
0.001523 -0.003887 0.000000
0.000000 0.000000 0.000000
-0.012904 0.001764 0.000000
0.001764 -0.003927 0.000000
0.000000 0.000000 0.000000
-0.001528 0.001327 0.000000
0.001327 0.009744 0.000000
0.000000 0.000000 0.000000
-0.002606 0.002646 0.000000
0.002646 0.011725 0.000000
0.000000 0.000000 0.000000
0.000648 0.001132 0.000000
0.001132 0.014633 0.000000
0.000000 0.000000 0.000000
-0.005046 -0.002135 0.000000
-0.002135 -0.001365 0.000000
0.000000 0.000000 0.000000
-0.002014 -0.003126 0.000000
-0.003126 -0.004662 0.000000
0.000000 0.000000 0.000000
-0.005536 0.005874 0.000000
0.005874 -0.001732 0.000000
0.000000 0.000000 0.000000
0.000702 0.005121 0.000000
0.005121 0.000291 0.000000
0.000000 0.000000 0.000000
-0.005939 -0.002629 0.000000
-0.002629 -0.005826 0.000000
0.000000 0.000000 0.000000
0.006385 0.003762 0.000000
0.003762 0.013829 0.000000
0.000000 0.000000 0.000000
0.009160 -0.018230 0.000000
-0.018230 -0.007614 0.000000
0.000000 0.000000 0.000000
0.005292 0.002641 0.000000
0.002641 -0.001711 0.000000
0.000000 0.000000 0.000000
-0.005455 -0.001600 0.000000
-0.001600 -0.012389 0.000000
0.000000 0.000000 0.000000
-0.011817 0.007404 0.000000
0.007404 0.008161 0.000000
0.000000 0.000000 0.000000
-0.003677 0.005305 0.000000
0.005305 -0.007029 0.000000
0.000000 0.000000 0.000000
0.001500 -0.008862 0.000000
-0.008862 -0.000649 0.000000
0.000000 0.000000 0.000000
0.009085 -0.004386 0.000000
-0.004386 -0.018981 0.000000
0.000000 0.000000 0.000000
-0.002241 0.000223 0.000000
0.000223 0.021825 0.000000
0.000000 0.000000 0.000000
0.003805 -0.000462 0.000000
-0.000462 -0.004942 0.000000
0.000000 0.000000 0.000000
-0.004434 -0.001591 0.000000
-0.001591 -0.004089 0.000000
0.000000 0.000000 0.000000
-0.000449 0.000650 0.000000
0.000650 0.011764 0.000000
0.000000 0.000000 0.000000
-0.007885 0.005377 0.000000
0.005377 -0.002754 0.000000
0.000000 0.000000 0.000000
0.016100 0.007410 0.000000
0.007410 0.007829 0.000000
0.000000 0.000000 0.000000
0.008720 0.009190 0.000000
0.009190 0.008691 0.000000
0.000000 0.000000 0.000000
-0.004204 -0.000699 0.000000
-0.000699 -0.004936 0.000000
0.000000 0.000000 0.000000
-0.002469 -0.001407 0.000000
-0.001407 -0.011487 0.000000
0.000000 0.000000 0.000000
-0.006879 0.003128 0.000000
0.003128 -0.001783 0.000000
0.000000 0.000000 0.000000
0.004956 -0.004633 0.000000
-0.004633 0.003802 0.000000
0.000000 0.000000 0.000000
0.008525 0.001366 0.000000
0.001366 0.012567 0.000000
0.000000 0.000000 0.000000
0.001164 0.001090 0.000000
0.001090 -0.001935 0.000000
0.000000 0.000000 0.000000
-0.003294 0.001559 0.000000
0.001559 -0.002000 0.000000
0.000000 0.000000 0.000000
0.004827 0.004712 0.000000
0.004712 0.006167 0.000000
0.000000 0.000000 0.000000
-0.006009 0.000089 0.000000
0.000089 -0.003361 0.000000
0.000000 0.000000 0.000000
0.001727 0.006719 0.000000
0.006719 0.002822 0.000000
0.000000 0.000000 0.000000
-0.013818 0.011261 0.000000
0.011261 -0.002466 0.000000
0.000000 0.000000 0.000000
-0.019863 -0.002653 0.000000
-0.002653 -0.010725 0.000000
0.000000 0.000000 0.000000
-0.024044 0.005959 0.000000
0.005959 -0.009939 0.000000
0.000000 0.000000 0.000000
0.020359 0.006509 0.000000
0.006509 0.021383 0.000000
0.000000 0.000000 0.000000
0.020889 0.007775 0.000000
0.007775 0.011860 0.000000
0.000000 0.000000 0.000000
0.013347 0.007937 0.000000
0.007937 0.008820 0.000000
0.000000 0.000000 0.000000
-0.000079 0.001453 0.000000
0.001453 -0.004411 0.000000
0.000000 0.000000 0.000000
-0.002658 0.003832 0.000000
0.003832 -0.002343 0.000000
0.000000 0.000000 0.000000
-0.003498 -0.000140 0.000000
-0.000140 -0.007732 0.000000
0.000000 0.000000 0.000000
-0.011640 0.006120 0.000000
0.006120 -0.009271 0.000000
0.000000 0.000000 0.000000
-0.011012 -0.000171 0.000000
-0.000171 0.004988 0.000000
0.000000 0.000000 0.000000
-0.018037 0.006300 0.000000
0.006300 -0.009627 0.000000
0.000000 0.000000 0.000000
0.008414 -0.002421 0.000000
-0.002421 0.000388 0.000000
0.000000 0.000000 0.000000
0.002797 -0.000335 0.000000
-0.000335 -0.001044 0.000000
0.000000 0.000000 0.000000
-0.002118 -0.006358 0.000000
-0.006358 0.002106 0.000000
0.000000 0.000000 0.000000
-0.002248 -0.006482 0.000000
-0.006482 0.009038 0.000000
0.000000 0.000000 0.000000
0.009313 0.004495 0.000000
0.004495 0.002179 0.000000
0.000000 0.000000 0.000000
0.003029 -0.008123 0.000000
-0.008123 0.004437 0.000000
0.000000 0.000000 0.000000
0.012364 -0.003085 0.000000
-0.003085 0.000144 0.000000
0.000000 0.000000 0.000000
-0.004458 -0.007850 0.000000
-0.007850 0.006349 0.000000
0.000000 0.000000 0.000000
-0.007840 -0.006631 0.000000
-0.006631 0.005772 0.000000
0.000000 0.000000 0.000000
-0.000950 0.001336 0.000000
0.001336 -0.003351 0.000000
0.000000 0.000000 0.000000
0.000435 -0.003058 0.000000
-0.003058 0.005930 0.000000
0.000000 0.000000 0.000000
0.006255 -0.006083 0.000000
-0.006083 0.008328 0.000000
0.000000 0.000000 0.000000
0.003116 0.001722 0.000000
0.001722 0.006469 0.000000
0.000000 0.000000 0.000000
0.010119 0.002214 0.000000
0.002214 0.009212 0.000000
0.000000 0.000000 0.000000
0.009971 0.009571 0.000000
0.009571 -0.001698 0.000000
0.000000 0.000000 0.000000
-0.018156 -0.014978 0.000000
-0.014978 0.005063 0.000000
0.000000 0.000000 0.000000
0.009663 0.005886 0.000000
0.005886 0.005267 0.000000
0.000000 0.000000 0.000000
-0.027757 -0.000194 0.000000
-0.000194 -0.013213 0.000000
0.000000 0.000000 0.000000
-0.000877 0.002774 0.000000
0.002774 0.001438 0.000000
0.000000 0.000000 0.000000
-0.007512 0.000240 0.000000
0.000240 -0.034194 0.000000
0.000000 0.000000 0.000000
-0.012270 0.000674 0.000000
0.000674 -0.004011 0.000000
0.000000 0.000000 0.000000
0.005051 0.002934 0.000000
0.002934 -0.014942 0.000000
0.000000 0.000000 0.000000
-0.010530 0.007909 0.000000
0.007909 0.011079 0.000000
0.000000 0.000000 0.000000
0.007628 0.001659 0.000000
0.001659 0.007553 0.000000
0.000000 0.000000 0.000000
0.006752 0.012263 0.000000
0.012263 -0.006476 0.000000
0.000000 0.000000 0.000000
0.007681 -0.010602 0.000000
-0.010602 0.001470 0.000000
0.000000 0.000000 0.000000
0.006878 0.009890 0.000000
0.009890 -0.010561 0.000000
0.000000 0.000000 0.000000
0.017961 0.003214 0.000000
0.003214 0.008955 0.000000
0.000000 0.000000 0.000000
-0.001621 -0.002975 0.000000
-0.002975 0.000283 0.000000
0.000000 0.000000 0.000000
-0.002707 -0.000212 0.000000
-0.000212 0.011497 0.000000
0.000000 0.000000 0.000000
-0.008243 -0.003955 0.000000
-0.003955 -0.012781 0.000000
0.000000 0.000000 0.000000
-0.008908 -0.004008 0.000000
-0.004008 -0.016692 0.000000
0.000000 0.000000 0.000000
-0.020100 -0.004302 0.000000
-0.004302 0.001605 0.000000
0.000000 0.000000 0.000000
-0.019616 -0.003225 0.000000
-0.003225 0.000139 0.000000
0.000000 0.000000 0.000000
-0.004481 0.002916 0.000000
0.002916 0.003758 0.000000
0.000000 0.000000 0.000000
0.009208 0.003899 0.000000
0.003899 0.000746 0.000000
0.000000 0.000000 0.000000
-0.015626 0.001708 0.000000
0.001708 0.015484 0.000000
0.000000 0.000000 0.000000
-0.006395 0.005819 0.000000
0.005819 -0.004245 0.000000
0.000000 0.000000 0.000000
0.023773 0.000952 0.000000
0.000952 0.008798 0.000000
0.000000 0.000000 0.000000
0.010966 -0.009391 0.000000
-0.009391 -0.000506 0.000000
0.000000 0.000000 0.000000
0.015297 -0.000191 0.000000
-0.000191 0.004089 0.000000
0.000000 0.000000 0.000000
0.002397 0.001248 0.000000
0.001248 0.006544 0.000000
0.000000 0.000000 0.000000
0.003753 -0.008490 0.000000
-0.008490 -0.022675 0.000000
0.000000 0.000000 0.000000
0.015124 0.010505 0.000000
0.010505 -0.006679 0.000000
0.000000 0.000000 0.000000
-0.003310 0.004508 0.000000
0.004508 -0.018173 0.000000
0.000000 0.000000 0.000000
-0.009108 0.006850 0.000000
0.006850 -0.002847 0.000000
0.000000 0.000000 0.000000
0.015268 0.012652 0.000000
0.012652 -0.005751 0.000000
0.000000 0.000000 0.000000
0.001413 -0.000584 0.000000
-0.000584 0.009140 0.000000
0.000000 0.000000 0.000000
0.012057 0.005121 0.000000
0.005121 0.010208 0.000000
0.000000 0.000000 0.000000
0.005594 0.004885 0.000000
0.004885 -0.002310 0.000000
0.000000 0.000000 0.000000
0.004226 0.000898 0.000000
0.000898 -0.008856 0.000000
0.000000 0.000000 0.000000
0.009073 0.005924 0.000000
0.005924 -0.005534 0.000000
0.000000 0.000000 0.000000
-0.005549 -0.006866 0.000000
-0.006866 0.001548 0.000000
0.000000 0.000000 0.000000
-0.019415 -0.000850 0.000000
-0.000850 -0.002867 0.000000
0.000000 0.000000 0.000000
0.022924 0.003165 0.000000
0.003165 0.006377 0.000000
0.000000 0.000000 0.000000
0.004939 -0.001946 0.000000
-0.001946 0.004715 0.000000
0.000000 0.000000 0.000000
0.003102 -0.002962 0.000000
-0.002962 0.005495 0.000000
0.000000 0.000000 0.000000
-0.010954 -0.002898 0.000000
-0.002898 -0.002711 0.000000
0.000000 0.000000 0.000000
0.001032 -0.004719 0.000000
-0.004719 -0.005594 0.000000
0.000000 0.000000 0.000000
0.022316 -0.001735 0.000000
-0.001735 0.001976 0.000000
0.000000 0.000000 0.000000
0.007315 -0.000523 0.000000
-0.000523 0.012345 0.000000
0.000000 0.000000 0.000000
0.002052 -0.001169 0.000000
-0.001169 0.001518 0.000000
0.000000 0.000000 0.000000
-0.007648 -0.005880 0.000000
-0.005880 -0.002275 0.000000
0.000000 0.000000 0.000000
-0.016821 -0.001672 0.000000
-0.001672 -0.000998 0.000000
0.000000 0.000000 0.000000
-0.002068 0.007853 0.000000
0.007853 -0.006999 0.000000
0.000000 0.000000 0.000000
0.003319 -0.001416 0.000000
-0.001416 0.002895 0.000000
0.000000 0.000000 0.000000
-0.001207 0.005247 0.000000
0.005247 0.001996 0.000000
0.000000 0.000000 0.000000
0.000326 -0.002112 0.000000
-0.002112 0.004789 0.000000
0.000000 0.000000 0.000000
0.006339 -0.004978 0.000000
-0.004978 0.017034 0.000000
0.000000 0.000000 0.000000
0.025720 -0.005188 0.000000
-0.005188 0.018852 0.000000
0.000000 0.000000 0.000000
0.000702 -0.000868 0.000000
-0.000868 0.005158 0.000000
0.000000 0.000000 0.000000
-0.002110 -0.003303 0.000000
-0.003303 0.006600 0.000000
0.000000 0.000000 0.000000
0.016236 0.001676 0.000000
0.001676 0.010684 0.000000
0.000000 0.000000 0.000000
-0.000492 -0.000256 0.000000
-0.000256 0.010383 0.000000
0.000000 0.000000 0.000000
0.020259 0.010469 0.000000
0.010469 0.024634 0.000000
0.000000 0.000000 0.000000
0.000665 0.006902 0.000000
0.006902 -0.000571 0.000000
0.000000 0.000000 0.000000
-0.007097 0.004231 0.000000
0.004231 -0.010791 0.000000
0.000000 0.000000 0.000000
-0.004277 -0.000459 0.000000
-0.000459 0.008742 0.000000
0.000000 0.000000 0.000000
-0.015594 -0.002306 0.000000
-0.002306 -0.000785 0.000000
0.000000 0.000000 0.000000
0.022149 0.003997 0.000000
0.003997 0.016101 0.000000
0.000000 0.000000 0.000000
0.019131 0.002217 0.000000
0.002217 0.015382 0.000000
0.000000 0.000000 0.000000
-0.002704 -0.000697 0.000000
-0.000697 -0.012384 0.000000
0.000000 0.000000 0.000000
-0.013106 -0.008212 0.000000
-0.008212 0.000910 0.000000
0.000000 0.000000 0.000000
-0.009624 0.005760 0.000000
0.005760 -0.016622 0.000000
0.000000 0.000000 0.000000
-0.014547 0.000893 0.000000
0.000893 -0.006786 0.000000
0.000000 0.000000 0.000000
0.003630 0.001296 0.000000
0.001296 -0.022215 0.000000
0.000000 0.000000 0.000000
-0.005828 0.004595 0.000000
0.004595 -0.005402 0.000000
0.000000 0.000000 0.000000
-0.020096 -0.005885 0.000000
-0.005885 -0.008888 0.000000
0.000000 0.000000 0.000000
0.004834 0.007320 0.000000
0.007320 -0.020781 0.000000
0.000000 0.000000 0.000000
-0.016856 -0.005362 0.000000
-0.005362 -0.008393 0.000000
0.000000 0.000000 0.000000
-0.015462 0.000194 0.000000
0.000194 0.001172 0.000000
0.000000 0.000000 0.000000
0.002980 0.000650 0.000000
0.000650 0.002495 0.000000
0.000000 0.000000 0.000000
-0.001023 0.000763 0.000000
0.000763 -0.003646 0.000000
0.000000 0.000000 0.000000
0.000624 0.001398 0.000000
0.001398 0.001338 0.000000
0.000000 0.000000 0.000000
0.004238 -0.003207 0.000000
-0.003207 0.023958 0.000000
0.000000 0.000000 0.000000
0.011474 -0.005667 0.000000
-0.005667 -0.009351 0.000000
0.000000 0.000000 0.000000
-0.011799 -0.001106 0.000000
-0.001106 -0.002133 0.000000
0.000000 0.000000 0.000000
-0.004685 0.002204 0.000000
0.002204 0.003285 0.000000
0.000000 0.000000 0.000000
-0.000814 -0.005817 0.000000
-0.005817 -0.008785 0.000000
0.000000 0.000000 0.000000
-0.008316 0.007722 0.000000
0.007722 -0.005446 0.000000
0.000000 0.000000 0.000000
-0.004023 0.009425 0.000000
0.009425 0.016519 0.000000
0.000000 0.000000 0.000000
0.015994 0.011519 0.000000
0.011519 0.020328 0.000000
0.000000 0.000000 0.000000
0.006276 0.008248 0.000000
0.008248 0.014185 0.000000
0.000000 0.000000 0.000000
-0.013469 0.001275 0.000000
0.001275 0.007577 0.000000
0.000000 0.000000 0.000000
-0.014012 0.002368 0.000000
0.002368 0.004493 0.000000
0.000000 0.000000 0.000000
-0.003627 0.002428 0.000000
0.002428 -0.027579 0.000000
0.000000 0.000000 0.000000
-0.001035 -0.001900 0.000000
-0.001900 -0.030106 0.000000
0.000000 0.000000 0.000000
-0.013734 -0.004698 0.000000
-0.004698 -0.003576 0.000000
0.000000 0.000000 0.000000
0.013309 0.004501 0.000000
0.004501 0.007132 0.000000
0.000000 0.000000 0.000000
-0.001471 0.000865 0.000000
0.000865 0.011936 0.000000
0.000000 0.000000 0.000000
0.005767 -0.005628 0.000000
-0.005628 -0.016908 0.000000
0.000000 0.000000 0.000000
-0.012434 0.007179 0.000000
0.007179 -0.002249 0.000000
0.000000 0.000000 0.000000
0.008323 -0.000213 0.000000
-0.000213 -0.006729 0.000000
0.000000 0.000000 0.000000
-0.012932 -0.003577 0.000000
-0.003577 -0.007141 0.000000
0.000000 0.000000 0.000000
-0.003874 0.000482 0.000000
0.000482 -0.000464 0.000000
0.000000 0.000000 0.000000
0.008924 -0.002866 0.000000
-0.002866 -0.015640 0.000000
0.000000 0.000000 0.000000
0.001926 0.006654 0.000000
0.006654 -0.009710 0.000000
0.000000 0.000000 0.000000
0.001738 -0.004080 0.000000
-0.004080 -0.001595 0.000000
0.000000 0.000000 0.000000
-0.010661 0.002794 0.000000
0.002794 0.007926 0.000000
0.000000 0.000000 0.000000
-0.015712 0.001294 0.000000
0.001294 -0.002232 0.000000
0.000000 0.000000 0.000000
0.004694 -0.013096 0.000000
-0.013096 0.009896 0.000000
0.000000 0.000000 0.000000
-0.010056 -0.004427 0.000000
-0.004427 -0.019031 0.000000
0.000000 0.000000 0.000000
-0.009351 0.006051 0.000000
0.006051 -0.005522 0.000000
0.000000 0.000000 0.000000
-0.006411 -0.005613 0.000000
-0.005613 -0.007959 0.000000
0.000000 0.000000 0.000000
0.008046 -0.003190 0.000000
-0.003190 0.003705 0.000000
0.000000 0.000000 0.000000
-0.005178 -0.003637 0.000000
-0.003637 -0.000280 0.000000
0.000000 0.000000 0.000000
0.007950 -0.005570 0.000000
-0.005570 -0.004146 0.000000
0.000000 0.000000 0.000000
0.008294 -0.004080 0.000000
-0.004080 0.003396 0.000000
0.000000 0.000000 0.000000
-0.001231 -0.003871 0.000000
-0.003871 0.000715 0.000000
0.000000 0.000000 0.000000
0.002827 0.003685 0.000000
0.003685 -0.017639 0.000000
0.000000 0.000000 0.000000
0.008134 -0.006918 0.000000
-0.006918 0.022360 0.000000
0.000000 0.000000 0.000000
-0.003385 -0.006158 0.000000
-0.006158 -0.000908 0.000000
0.000000 0.000000 0.000000
0.004783 -0.001492 0.000000
-0.001492 -0.012658 0.000000
0.000000 0.000000 0.000000
-0.012962 0.007058 0.000000
0.007058 -0.012778 0.000000
0.000000 0.000000 0.000000
0.001697 -0.006137 0.000000
-0.006137 -0.000718 0.000000
0.000000 0.000000 0.000000
-0.014213 0.000813 0.000000
0.000813 -0.004614 0.000000
0.000000 0.000000 0.000000
0.000500 0.004522 0.000000
0.004522 -0.006116 0.000000
0.000000 0.000000 0.000000
0.001315 0.000837 0.000000
0.000837 -0.006517 0.000000
0.000000 0.000000 0.000000
-0.007711 -0.002654 0.000000
-0.002654 -0.009176 0.000000
0.000000 0.000000 0.000000
-0.006918 0.005581 0.000000
0.005581 -0.000651 0.000000
0.000000 0.000000 0.000000
-0.002049 -0.013187 0.000000
-0.013187 -0.020496 0.000000
0.000000 0.000000 0.000000
-0.000016 0.006511 0.000000
0.006511 -0.000787 0.000000
0.000000 0.000000 0.000000
0.032116 -0.003887 0.000000
-0.003887 0.004969 0.000000
0.000000 0.000000 0.000000
0.017999 0.006512 0.000000
0.006512 0.002669 0.000000
0.000000 0.000000 0.000000
0.008412 0.007300 0.000000
0.007300 0.000788 0.000000
0.000000 0.000000 0.000000
-0.000622 -0.008855 0.000000
-0.008855 0.009871 0.000000
0.000000 0.000000 0.000000
0.007597 0.009986 0.000000
0.009986 -0.002387 0.000000
0.000000 0.000000 0.000000
0.011874 -0.009661 0.000000
-0.009661 0.011302 0.000000
0.000000 0.000000 0.000000
-0.000613 -0.010376 0.000000
-0.010376 0.008148 0.000000
0.000000 0.000000 0.000000
-0.014253 -0.006105 0.000000
-0.006105 -0.003473 0.000000
0.000000 0.000000 0.000000
0.025598 -0.007691 0.000000
-0.007691 -0.007347 0.000000
0.000000 0.000000 0.000000
-0.005194 0.002594 0.000000
0.002594 -0.001244 0.000000
0.000000 0.000000 0.000000
0.007854 -0.005214 0.000000
-0.005214 -0.002450 0.000000
0.000000 0.000000 0.000000
0.001990 0.001561 0.000000
0.001561 0.004877 0.000000
0.000000 0.000000 0.000000
-0.013682 -0.005418 0.000000
-0.005418 0.002416 0.000000
0.000000 0.000000 0.000000
-0.019465 0.006373 0.000000
0.006373 -0.018508 0.000000
0.000000 0.000000 0.000000
-0.002186 -0.001435 0.000000
-0.001435 -0.003258 0.000000
0.000000 0.000000 0.000000
-0.011077 -0.001814 0.000000
-0.001814 -0.007443 0.000000
0.000000 0.000000 0.000000
-0.014750 0.011873 0.000000
0.011873 -0.006296 0.000000
0.000000 0.000000 0.000000
-0.008985 0.001065 0.000000
0.001065 -0.013445 0.000000
0.000000 0.000000 0.000000
-0.008378 -0.001580 0.000000
-0.001580 -0.002787 0.000000
0.000000 0.000000 0.000000
-0.020020 0.006989 0.000000
0.006989 0.000384 0.000000
0.000000 0.000000 0.000000
0.010362 -0.013107 0.000000
-0.013107 0.004142 0.000000
0.000000 0.000000 0.000000
-0.024707 -0.002330 0.000000
-0.002330 -0.008509 0.000000
0.000000 0.000000 0.000000
0.010807 0.003763 0.000000
0.003763 0.002825 0.000000
0.000000 0.000000 0.000000
-0.055584 -0.003175 0.000000
-0.003175 -0.004295 0.000000
0.000000 0.000000 0.000000
0.009889 0.003021 0.000000
0.003021 -0.024378 0.000000
0.000000 0.000000 0.000000
0.006475 -0.001757 0.000000
-0.001757 0.008656 0.000000
0.000000 0.000000 0.000000
0.014657 0.002584 0.000000
0.002584 -0.003896 0.000000
0.000000 0.000000 0.000000
0.013994 0.003714 0.000000
0.003714 -0.002988 0.000000
0.000000 0.000000 0.000000
0.009137 0.010587 0.000000
0.010587 0.004648 0.000000
0.000000 0.000000 0.000000
0.019020 -0.008714 0.000000
-0.008714 -0.000024 0.000000
0.000000 0.000000 0.000000
0.003230 0.001787 0.000000
0.001787 -0.019662 0.000000
0.000000 0.000000 0.000000
0.011119 -0.001435 0.000000
-0.001435 0.009173 0.000000
0.000000 0.000000 0.000000
-0.009123 0.001274 0.000000
0.001274 -0.013125 0.000000
0.000000 0.000000 0.000000
-0.028121 0.000929 0.000000
0.000929 -0.004836 0.000000
0.000000 0.000000 0.000000
0.024065 -0.003016 0.000000
-0.003016 0.015992 0.000000
0.000000 0.000000 0.000000
0.012379 -0.000486 0.000000
-0.000486 0.013353 0.000000
0.000000 0.000000 0.000000
0.019539 -0.005291 0.000000
-0.005291 0.003420 0.000000
0.000000 0.000000 0.000000
0.002086 0.003235 0.000000
0.003235 0.001859 0.000000
0.000000 0.000000 0.000000
0.000418 -0.011258 0.000000
-0.011258 -0.007644 0.000000
0.000000 0.000000 0.000000
-0.030757 0.001958 0.000000
0.001958 -0.013720 0.000000
0.000000 0.000000 0.000000
0.006990 -0.004765 0.000000
-0.004765 0.007923 0.000000
0.000000 0.000000 0.000000
-0.001773 -0.000376 0.000000
-0.000376 0.004183 0.000000
0.000000 0.000000 0.000000
0.005584 0.005177 0.000000
0.005177 -0.011947 0.000000
0.000000 0.000000 0.000000
-0.018189 -0.002042 0.000000
-0.002042 -0.006462 0.000000
0.000000 0.000000 0.000000
-0.000748 0.005277 0.000000
0.005277 -0.002334 0.000000
0.000000 0.000000 0.000000
0.008767 -0.000352 0.000000
-0.000352 -0.007757 0.000000
0.000000 0.000000 0.000000
0.003127 -0.000040 0.000000
-0.000040 0.006363 0.000000
0.000000 0.000000 0.000000
-0.015679 -0.007128 0.000000
-0.007128 -0.003769 0.000000
0.000000 0.000000 0.000000
0.004430 -0.001136 0.000000
-0.001136 0.004150 0.000000
0.000000 0.000000 0.000000
-0.013626 0.002035 0.000000
0.002035 -0.001356 0.000000
0.000000 0.000000 0.000000
-0.005588 -0.001483 0.000000
-0.001483 -0.010614 0.000000
0.000000 0.000000 0.000000
0.004932 -0.001998 0.000000
-0.001998 0.002862 0.000000
0.000000 0.000000 0.000000
-0.000539 0.002200 0.000000
0.002200 -0.007912 0.000000
0.000000 0.000000 0.000000
-0.015898 0.004680 0.000000
0.004680 -0.023678 0.000000
0.000000 0.000000 0.000000
-0.006424 -0.004201 0.000000
-0.004201 -0.001824 0.000000
0.000000 0.000000 0.000000
0.016920 -0.004437 0.000000
-0.004437 -0.013249 0.000000
0.000000 0.000000 0.000000
0.000951 -0.000637 0.000000
-0.000637 -0.009374 0.000000
0.000000 0.000000 0.000000
0.008858 0.007391 0.000000
0.007391 -0.001361 0.000000
0.000000 0.000000 0.000000
0.011878 -0.003395 0.000000
-0.003395 0.013415 0.000000
0.000000 0.000000 0.000000
-0.003954 -0.001847 0.000000
-0.001847 -0.011336 0.000000
0.000000 0.000000 0.000000
0.002766 0.000962 0.000000
0.000962 -0.000144 0.000000
0.000000 0.000000 0.000000
0.015552 -0.003954 0.000000
-0.003954 0.003558 0.000000
0.000000 0.000000 0.000000
-0.002890 -0.008659 0.000000
-0.008659 -0.011477 0.000000
0.000000 0.000000 0.000000
0.003030 -0.002110 0.000000
-0.002110 0.010460 0.000000
0.000000 0.000000 0.000000
0.007878 -0.002125 0.000000
-0.002125 0.000474 0.000000
0.000000 0.000000 0.000000
0.016086 -0.004888 0.000000
-0.004888 0.001016 0.000000
0.000000 0.000000 0.000000
-0.003977 0.002935 0.000000
0.002935 0.000999 0.000000
0.000000 0.000000 0.000000
-0.005719 -0.000578 0.000000
-0.000578 -0.005800 0.000000
0.000000 0.000000 0.000000
0.003839 -0.000890 0.000000
-0.000890 0.004460 0.000000
0.000000 0.000000 0.000000
0.004509 -0.003056 0.000000
-0.003056 0.015468 0.000000
0.000000 0.000000 0.000000
0.005557 0.000419 0.000000
0.000419 -0.002088 0.000000
0.000000 0.000000 0.000000
-0.007145 -0.000100 0.000000
-0.000100 -0.000670 0.000000
0.000000 0.000000 0.000000
0.017286 0.002817 0.000000
0.002817 0.020725 0.000000
0.000000 0.000000 0.000000
-0.021857 -0.004626 0.000000
-0.004626 -0.003968 0.000000
0.000000 0.000000 0.000000
-0.005725 -0.001861 0.000000
-0.001861 -0.007237 0.000000
0.000000 0.000000 0.000000
-0.004873 0.002104 0.000000
0.002104 -0.001409 0.000000
0.000000 0.000000 0.000000
-0.012409 -0.005599 0.000000
-0.005599 -0.004630 0.000000
0.000000 0.000000 0.000000
-0.009915 -0.002269 0.000000
-0.002269 -0.007881 0.000000
0.000000 0.000000 0.000000
-0.010745 0.001436 0.000000
0.001436 0.002482 0.000000
0.000000 0.000000 0.000000
-0.004617 0.002220 0.000000
0.002220 -0.005505 0.000000
0.000000 0.000000 0.000000
0.000780 -0.012066 0.000000
-0.012066 -0.006247 0.000000
0.000000 0.000000 0.000000
0.000589 -0.004081 0.000000
-0.004081 0.000033 0.000000
0.000000 0.000000 0.000000
-0.001252 -0.000033 0.000000
-0.000033 -0.011467 0.000000
0.000000 0.000000 0.000000
-0.004182 0.000208 0.000000
0.000208 -0.006490 0.000000
0.000000 0.000000 0.000000
-0.001653 -0.004414 0.000000
-0.004414 -0.011302 0.000000
0.000000 0.000000 0.000000
-0.011155 -0.008886 0.000000
-0.008886 -0.000843 0.000000
0.000000 0.000000 0.000000
0.003731 -0.002994 0.000000
-0.002994 0.000143 0.000000
0.000000 0.000000 0.000000
-0.019620 -0.007624 0.000000
-0.007624 0.001236 0.000000
0.000000 0.000000 0.000000
-0.015662 -0.004007 0.000000
-0.004007 -0.005773 0.000000
0.000000 0.000000 0.000000
0.003919 0.003580 0.000000
0.003580 0.006151 0.000000
0.000000 0.000000 0.000000
-0.011815 0.000053 0.000000
0.000053 -0.008443 0.000000
0.000000 0.000000 0.000000
-0.016372 -0.001433 0.000000
-0.001433 -0.008801 0.000000
0.000000 0.000000 0.000000
0.002484 0.002839 0.000000
0.002839 -0.006637 0.000000
0.000000 0.000000 0.000000
-0.004189 0.006225 0.000000
0.006225 -0.003408 0.000000
0.000000 0.000000 0.000000
-0.001758 0.001327 0.000000
0.001327 -0.005837 0.000000
0.000000 0.000000 0.000000
-0.002728 0.003973 0.000000
0.003973 0.004350 0.000000
0.000000 0.000000 0.000000
0.004296 -0.004797 0.000000
-0.004797 0.000709 0.000000
0.000000 0.000000 0.000000
0.006496 -0.003642 0.000000
-0.003642 -0.001955 0.000000
0.000000 0.000000 0.000000
0.001306 -0.000895 0.000000
-0.000895 -0.001193 0.000000
0.000000 0.000000 0.000000
-0.003380 -0.003307 0.000000
-0.003307 -0.001493 0.000000
0.000000 0.000000 0.000000
0.000586 0.004868 0.000000
0.004868 0.019458 0.000000
0.000000 0.000000 0.000000
0.005096 -0.001536 0.000000
-0.001536 0.010827 0.000000
0.000000 0.000000 0.000000
-0.014390 -0.004808 0.000000
-0.004808 -0.010556 0.000000
0.000000 0.000000 0.000000
-0.007113 0.000568 0.000000
0.000568 0.000770 0.000000
0.000000 0.000000 0.000000
-0.010237 -0.000219 0.000000
-0.000219 0.004882 0.000000
0.000000 0.000000 0.000000
0.001618 0.000724 0.000000
0.000724 0.004575 0.000000
0.000000 0.000000 0.000000
-0.007786 0.002241 0.000000
0.002241 0.001821 0.000000
0.000000 0.000000 0.000000
-0.018157 0.008346 0.000000
0.008346 -0.011789 0.000000
0.000000 0.000000 0.000000
0.001158 -0.001062 0.000000
-0.001062 0.005604 0.000000
0.000000 0.000000 0.000000
-0.007993 0.007746 0.000000
0.007746 0.003591 0.000000
0.000000 0.000000 0.000000
-0.009154 0.010165 0.000000
0.010165 -0.008497 0.000000
0.000000 0.000000 0.000000
0.017308 0.003566 0.000000
0.003566 0.001052 0.000000
0.000000 0.000000 0.000000
-0.000648 0.018852 0.000000
0.018852 0.020019 0.000000
0.000000 0.000000 0.000000
0.002888 0.002351 0.000000
0.002351 0.009420 0.000000
0.000000 0.000000 0.000000
-0.003635 -0.002309 0.000000
-0.002309 0.001053 0.000000
0.000000 0.000000 0.000000
0.003870 -0.002042 0.000000
-0.002042 -0.015686 0.000000
0.000000 0.000000 0.000000
0.004685 -0.000040 0.000000
-0.000040 0.004125 0.000000
0.000000 0.000000 0.000000
0.008641 -0.000958 0.000000
-0.000958 -0.010898 0.000000
0.000000 0.000000 0.000000
0.003578 0.009103 0.000000
0.009103 -0.001774 0.000000
0.000000 0.000000 0.000000
0.007379 -0.005221 0.000000
-0.005221 -0.008908 0.000000
0.000000 0.000000 0.000000
-0.003961 0.001688 0.000000
0.001688 -0.007307 0.000000
0.000000 0.000000 0.000000
0.005012 -0.003474 0.000000
-0.003474 0.005857 0.000000
0.000000 0.000000 0.000000
-0.003279 0.004737 0.000000
0.004737 -0.002972 0.000000
0.000000 0.000000 0.000000
-0.003859 -0.004814 0.000000
-0.004814 -0.001649 0.000000
0.000000 0.000000 0.000000
-0.018853 0.002152 0.000000
0.002152 0.002802 0.000000
0.000000 0.000000 0.000000
-0.017689 -0.005712 0.000000
-0.005712 -0.005333 0.000000
0.000000 0.000000 0.000000
-0.006208 0.000277 0.000000
0.000277 -0.002300 0.000000
0.000000 0.000000 0.000000
0.009080 0.004453 0.000000
0.004453 0.014262 0.000000
0.000000 0.000000 0.000000
-0.005776 0.001926 0.000000
0.001926 -0.003603 0.000000
0.000000 0.000000 0.000000
-0.000947 -0.006430 0.000000
-0.006430 -0.003208 0.000000
0.000000 0.000000 0.000000
-0.012872 -0.003490 0.000000
-0.003490 0.001142 0.000000
0.000000 0.000000 0.000000
-0.002422 -0.001086 0.000000
-0.001086 0.004935 0.000000
0.000000 0.000000 0.000000
-0.006894 -0.007213 0.000000
-0.007213 -0.002703 0.000000
0.000000 0.000000 0.000000
-0.003997 -0.004280 0.000000
-0.004280 -0.017146 0.000000
0.000000 0.000000 0.000000
-0.012780 -0.007453 0.000000
-0.007453 -0.004381 0.000000
0.000000 0.000000 0.000000
-0.003305 -0.006067 0.000000
-0.006067 -0.006001 0.000000
0.000000 0.000000 0.000000
0.008778 -0.011137 0.000000
-0.011137 0.010953 0.000000
0.000000 0.000000 0.000000
0.007642 -0.007468 0.000000
-0.007468 -0.002836 0.000000
0.000000 0.000000 0.000000
0.012921 -0.006798 0.000000
-0.006798 0.003478 0.000000
0.000000 0.000000 0.000000
-0.000374 -0.004568 0.000000
-0.004568 0.003584 0.000000
0.000000 0.000000 0.000000
0.010910 -0.005425 0.000000
-0.005425 -0.006445 0.000000
0.000000 0.000000 0.000000
-0.004475 -0.003943 0.000000
-0.003943 -0.008518 0.000000
0.000000 0.000000 0.000000
0.005378 0.004301 0.000000
0.004301 -0.000028 0.000000
0.000000 0.000000 0.000000
0.000458 -0.004556 0.000000
-0.004556 -0.009761 0.000000
0.000000 0.000000 0.000000
-0.015130 -0.005403 0.000000
-0.005403 0.001725 0.000000
0.000000 0.000000 0.000000
0.008457 0.004451 0.000000
0.004451 -0.005283 0.000000
0.000000 0.000000 0.000000
-0.015498 -0.000252 0.000000
-0.000252 -0.006007 0.000000
0.000000 0.000000 0.000000
0.002485 0.007396 0.000000
0.007396 0.006260 0.000000
0.000000 0.000000 0.000000
-0.016786 0.001065 0.000000
0.001065 -0.008966 0.000000
0.000000 0.000000 0.000000
-0.002294 0.000678 0.000000
0.000678 -0.008584 0.000000
0.000000 0.000000 0.000000
-0.001293 0.001679 0.000000
0.001679 -0.005939 0.000000
0.000000 0.000000 0.000000
